Results from ivolResults.py
===========================
Output database:                        odb      = open-frame-fatigue-v25mm-9pct.odb
Crimping (prestrain) output database:   oldOdb   = open-frame-fatigue-v25mm-9pct.odb
Number of integration points:           nRows    = 9928
Total volume:                           vTotal   = 11.021
Maximum mean strain:                    cycEMmax = 0.0403436
Maximum strain amplitude (abs):         cycEAmax = 0.00782284
-----------------------------------------------------------------------------------------------
el     = element number
ip     = integration point
cycEM  = maximum principal cyclic mean strain
cycEA  = absolute maximum principal cyclic strain amplitude
cycTau = cyclic maximum shear strain
cycSM  = maximum principal cyclic mean stress
cycSA  = absolute maximum principal cyclic stress amplitude
preE   = pre-strain (strain conditioning, e.g. strain during crimping)
preS   = pre-stress (stress conditioning, e.g. stress during crimping)
preP   = hydrostatic pressure during pre-conditioning (compression positive, tension negative)
preM   = volume fraction martensite during pre-conditioning
preV   = integration point volume during pre-conditioning
ldE    = maximum principal strain during loading frame of fatigue cycle
ldTau  = maximum shear strain during loading frame of fatigue cycle
ldS    = maximum principal stress during loading frame of fatigue cycle
ldP    = hydrostatic pressure during loading frame of fatigue cycle
ldM    = volume fraction martensite during loading frame of fatigue cycle
ldV    = integration point volume during loading frame of fatigue cycle
ulE    = maximum principal strain during unloading frame of fatigue cycle
ulTau  = maximum shear strain during unloading frame of fatigue cycle
ulS    = maximum principal stress during unloading frame of fatigue cycle
ulP    = hydrostatic pressure during unloading frame of fatigue cycle
ulM    = volume fraction martensite during unloading frame of fatigue cycle
ulV    = integration point volume during unloading frame of fatigue cycle
ldS11  = loading stress in material 1 direction (r)
ldS22  = loading stress in material 2 direction (theta)
ldS33  = loading stress in material 3 direction (Z)
ulS11  = unloading stress in material 1 direction (r)
ulS22  = unloading stress in material 2 direction (theta)
ulS33  = unloading stress in material 3 direction (Z)
ldE11  = loading strain in material 1 direction (r)
ldE22  = loading strain in material 2 direction (theta)
ldE33  = loading strain in material 3 direction (Z)
ulE11  = unloading strain in material 1 direction (r)
ulE22  = unloading strain in material 2 direction (theta)
ulE33  = unloading strain in material 3 direction (Z)
-----------------------------------------------------------------------------------------------
el, ip, cycEM, cycEA, cycTau, cycSM, cycSA, preE, preS, preP, preM, preV, ldE, ldTau, ldS, ldP, ldM, ldV, ulE,ulTau, ulS, ulP, ulM, ulV,ldS11, ldS22, ldS33, ulS11, ulS22, ulS33,ldE11, ldE22, ldE33, ulE11, ulE22, ulE33
1, 1,0.030131, 0.00456641, 0.00323904, 357.833, 119.528, 0.0738778, 776.797, -259.97, 1, 0.000992338, 0.0346601, 0.0259993, 477.241, -170.666, 0.526467, 0.000986772, 0.0256141, 0.0196029, 238.54, -82.2953, 0.449199, 0.000984664, 25.8648, 18.9629, 467.172, 9.20298, 6.32013, 231.363, -0.0144326, -0.015342, 0.0336961, -0.0110985, -0.0110985, -0.0110985
2, 1,0.0358662, 0.00540452, 0.00393214, 368.079, 122.357, 0.0790605, 920.482, -305.951, 1, 0.00102542, 0.0412302, 0.031955, 490.334, -192.046, 0.650705, 0.00101894, 0.0305153, 0.0241855, 245.921, -95.2945, 0.552342, 0.00101624, 74.8693, 20.3285, 480.939, 37.7665, 8.77036, 239.347, -0.0139181, -0.0213082, 0.0401197, -0.010619, -0.010619, -0.010619
3, 1,0.0381633, 0.00586188, 0.00426864, 372.964, 122.887, 0.0820324, 1007.88, -340.392, 1, 0.00106124, 0.0439823, 0.0337849, 495.751, -198.198, 0.698028, 0.0010536, 0.0323587, 0.0253476, 250.276, -101.539, 0.587902, 0.00105064, 79.3104, 29.0659, 486.219, 43.1876, 17.7542, 243.674, -0.0151119, -0.0223899, 0.0427704, -0.0115536, -0.0115536, -0.0115536
4, 1,0.0379663, 0.00596445, 0.0042431, 365.164, 120.941, 0.0836241, 1052.91, -357.908, 1, 0.00109901, 0.0438929, 0.0326996, 486.008, -179.239, 0.690819, 0.00108981, 0.0320526, 0.0243147, 244.414, -90.4037, 0.577162, 0.00108701, 38.1955, 23.6785, 475.842, 20.9332, 12.8215, 237.456, -0.0178649, -0.0200349, 0.0426333, -0.0133989, -0.0133989, -0.0133989
5, 1,0.0270023, 0.00390126, 0.00270488, 362.948, 118.17, 0.0728174, 753.502, -259.037, 1, 0.000969912, 0.0308914, 0.0230932, 481.067, -179.412, 0.457766, 0.000964495, 0.0231169, 0.0177231, 244.879, -93.6887, 0.399732, 0.000962614, 35.3582, 34.1517, 468.726, 22.7664, 21.0819, 237.218, -0.0128132, -0.0131484, 0.0298716, -0.00986357, -0.00986357, -0.00986357
6, 1,0.0324826, 0.00460535, 0.00324122, 371.773, 120.431, 0.0780349, 901.801, -310.875, 1, 0.0010034, 0.0370669, 0.0284968, 492.143, -197.458, 0.576752, 0.000996709, 0.0279045, 0.0220624, 251.464, -105.191, 0.501678, 0.000994367, 79.2284, 37.799, 475.348, 49.4614, 24.8848, 241.227, -0.0126801, -0.017892, 0.0352968, -0.00954854, -0.00954854, -0.00954854
7, 1,0.035747, 0.00501974, 0.00355868, 370.192, 120.446, 0.0815055, 993.023, -335.974, 1, 0.00103762, 0.0407535, 0.0311553, 490.6, -192.172, 0.64115, 0.00102988, 0.0307443, 0.0240701, 249.823, -101.169, 0.556076, 0.00102734, 70.5197, 30.1278, 475.867, 42.7734, 19.6317, 241.101, -0.0143457, -0.0198587, 0.03906, -0.0109733, -0.0109733, -0.0109733
8, 1,0.0368303, 0.00525277, 0.00368835, 365.805, 119.231, 0.0835685, 1045.47, -349.294, 1, 0.00107323, 0.0420778, 0.0312346, 485.016, -179.75, 0.659824, 0.00106446, 0.0315845, 0.0239137, 246.614, -94.2166, 0.568052, 0.00106193, 35.9076, 29.7646, 473.578, 23.9229, 18.7158, 240.011, -0.0175544, -0.0185916, 0.0407626, -0.0134555, -0.0134555, -0.0134555
9, 1,0.0186296, 0.00300029, 0.0020818, 354.409, 116.042, 0.0702487, 680.125, -233.131, 1, 0.000967495, 0.0216185, 0.0157129, 470.363, -164.053, 0.280264, 0.00096228, 0.0156446, 0.0116379, 238.542, -84.0631, 0.245916, 0.000960767, 14.1844, 28.3579, 449.616, 10.0095, 16.5116, 225.668, -0.00900942, -0.00831436, 0.020479, -0.00670544, -0.00670544, -0.00670544
10, 1,0.0221096, 0.00362214, 0.00251768, 359.54, 117.869, 0.0750165, 817.497, -284.017, 1, 0.00100138, 0.0256922, 0.0193064, 477.196, -174.998, 0.361811, 0.000994519, 0.0185406, 0.0143757, 242.092, -91.0661, 0.309965, 0.00099276, 46.4514, 36.681, 441.861, 30.8506, 23.0269, 219.321, -0.00928075, -0.0103772, 0.0232157, -0.00659815, -0.00659815, -0.00659815
11, 1,0.0261129, 0.00403945, 0.00282263, 362.679, 118.102, 0.07881, 917.676, -311.943, 1, 0.00103583, 0.0301091, 0.0225043, 480.604, -178.353, 0.444732, 0.00102798, 0.0221312, 0.0169584, 244.929, -94.1778, 0.382065, 0.00102603, 46.1735, 39.8944, 448.992, 30.9168, 26.7818, 224.835, -0.0113611, -0.0122813, 0.0274913, -0.00840013, -0.00840013, -0.00840013
12, 1,0.0285553, 0.00420545, 0.00295228, 355.893, 117.46, 0.0809935, 978.644, -332.176, 1, 0.0010708, 0.0327312, 0.0239852, 473.245, -164.218, 0.490521, 0.00106171, 0.0243888, 0.0181815, 238.646, -82.2651, 0.423873, 0.00105967, 12.067, 29.7743, 450.813, 6.44026, 15.7285, 224.627, -0.0143, -0.0127988, 0.0307673, -0.0109543, -0.0109543, -0.0109543
13, 1,0.0119354, 0.0023194, 0.00158778, 349.087, 114.757, 0.0680748, 614.176, -205.401, 1, 0.000964704, 0.014247, 0.0102008, 463.656, -155.59, 0.136779, 0.000960076, 0.00962727, 0.00705955, 234.699, -78.53, 0.122114, 0.000958766, -2.08535, 35.4956, 433.359, -1.33088, 21.7789, 215.142, -0.00592225, -0.00458355, 0.0132389, -0.004231, -0.004231, -0.004231
14, 1,0.0138767, 0.00279288, 0.00194297, 352.385, 115.898, 0.0723285, 734.275, -247.674, 1, 0.000998885, 0.0166552, 0.0119287, 468.015, -160.823, 0.184739, 0.000992726, 0.011105, 0.00815152, 237.018, -83.441, 0.154483, 0.00099131, 12.9899, 44.6316, 424.846, 12.3281, 28.7284, 209.266, -0.00661548, -0.0053382, 0.0148631, -0.00445096, -0.00445096, -0.00445096
15, 1,0.0160069, 0.00318214, 0.00221164, 350.578, 116.368, 0.0753915, 819.67, -276.741, 1, 0.00103315, 0.0191698, 0.013786, 466.678, -157.172, 0.233343, 0.00102571, 0.0128529, 0.00945167, 234.739, -79.4315, 0.190301, 0.00102418, 7.87337, 40.4183, 423.224, 6.57098, 24.837, 206.887, -0.00783297, -0.00628734, 0.0170523, -0.00535137, -0.00535137, -0.00535137
16, 1,0.0179982, 0.0033877, 0.0023718, 352.543, 116.628, 0.0775547, 876.79, -292.531, 1, 0.00106676, 0.0213755, 0.0155346, 469.044, -160.331, 0.275466, 0.00105861, 0.0146255, 0.0108388, 236.169, -81.3278, 0.225586, 0.00105696, 3.62002, 37.4238, 439.95, 3.2454, 22.4829, 218.255, -0.00930785, -0.00744389, 0.0198256, -0.00660178, -0.00660178, -0.00660178
17, 1,0.00852515, 0.00189417, 0.00127867, 348.306, 111.813, 0.0658176, 551.844, -185.022, 1, 0.000961167, 0.0104126, 0.00721198, 459.709, -151.715, 0.0613379, 0.000957096, 0.00664132, 0.00467777, 237.293, -79.506, 0.0595015, 0.000955935, -2.37317, 33.8124, 423.706, 1.34052, 25.176, 212.001, -0.00394228, -0.00313467, 0.00962587, -0.00262724, -0.00262724, -0.00262724
18, 1,0.00983259, 0.0022305, 0.0015374, 345.515, 114.386, 0.0695412, 654.334, -217.75, 1, 0.000995599, 0.0120523, 0.00854543, 459.42, -148.899, 0.0940996, 0.000990193, 0.00761893, 0.00548855, 232.083, -75.0398, 0.0819236, 0.000988932, -11.4888, 48.0815, 410.103, -5.3739, 31.926, 198.567, -0.00497653, -0.00317529, 0.0107017, -0.00329765, -0.00329765, -0.00329765
19, 1,0.0104818, 0.00254758, 0.00176445, 346.951, 115.664, 0.0715656, 712.545, -239.121, 1, 0.00102935, 0.0130236, 0.00919669, 462.278, -152.032, 0.113243, 0.00102304, 0.00794355, 0.00568801, 231.963, -76.8961, 0.0891842, 0.00102169, -5.2339, 47.3286, 414.002, -0.868918, 30.7636, 200.794, -0.00531709, -0.00361789, 0.0115682, -0.00335475, -0.00335475, -0.00335475
20, 1,0.0122612, 0.00282713, 0.00196131, 351.33, 116.494, 0.0736197, 768.464, -257.024, 1, 0.0010624, 0.0150868, 0.0107269, 467.686, -160.041, 0.153736, 0.00105542, 0.00943657, 0.0068205, 235.113, -81.935, 0.119516, 0.00105392, 3.33852, 43.3147, 433.468, 3.96536, 27.5676, 214.272, -0.00627112, -0.00478584, 0.0138974, -0.00408118, -0.00408118, -0.00408118
21, 1,0.00714501, 0.00169877, 0.00114116, 340.724, 104.17, 0.0599703, 504.397, -181.876, 0.94498, 0.000957534, 0.00884058, 0.00605464, 444.418, -147.935, 0.0348735, 0.000953907, 0.00545136, 0.00377728, 237.452, -79.4217, 0.0340293, 0.000952825, -2.07486, 36.7087, 409.17, -0.296758, 27.083, 211.479, -0.00323795, -0.00251677, 0.00820277, -0.00207724, -0.00207724, -0.00207724
22, 1,0.00743821, 0.00187705, 0.00127321, 347.636, 112.194, 0.0656176, 569.433, -211.801, 1, 0.000992107, 0.00930983, 0.00640789, 459.148, -150.868, 0.0395706, 0.000986889, 0.00557011, 0.00387145, 236.784, -79.4877, 0.0378839, 0.000985719, -5.76633, 49.1703, 409.199, 0.490751, 37.041, 200.931, -0.00348871, -0.00236375, 0.00835569, -0.00215375, -0.00215375, -0.00215375
23, 1,0.00858018, 0.00211922, 0.00144474, 345.903, 114.546, 0.0678297, 614.455, -211.07, 1, 0.00102503, 0.0106948, 0.0074681, 459.972, -150.162, 0.0671494, 0.0010197, 0.00646841, 0.00458574, 232.307, -75.9422, 0.057762, 0.00101841, -8.44804, 50.038, 408.896, -4.04022, 33.9526, 197.914, -0.00422683, -0.00275734, 0.00951555, -0.00268705, -0.00268705, -0.00268705
24, 1,0.0094147, 0.00239909, 0.00164285, 346.415, 116.29, 0.0693958, 645.497, -210.403, 1, 0.00105737, 0.0118125, 0.00826688, 462.417, -152.777, 0.0894777, 0.00105197, 0.00701782, 0.00498441, 230.699, -75.3657, 0.0697268, 0.00105057, -4.54538, 42.0647, 420.812, -3.73779, 26.0579, 203.777, -0.0047163, -0.00342989, 0.0107554, -0.00294309, -0.00294309, -0.00294309
25, 1,0.00534323, 0.00153015, 0.00102484, 320.595, 96.1009, 0.0429688, 486.26, -164.853, 0.668125, 0.000952641, 0.00687232, 0.00464319, 416.093, -132.776, 0.00272653, 0.000950635, 0.00381499, 0.00259722, 225.6, -69.4899, 0.00200508, 0.000949658, -11.1256, 30.3524, 379.101, -10.2508, 21.6401, 197.08, -0.00239693, -0.00176756, 0.00632227, -0.00136335, -0.00136335, -0.00136335
26, 1,0.00653901, 0.0017046, 0.00114496, 340.293, 104.832, 0.0505098, 505.832, -194.184, 0.801124, 0.000986747, 0.00823734, 0.00562045, 444.316, -148.061, 0.0224623, 0.00098353, 0.004845, 0.0033487, 237, -79.6908, 0.0216077, 0.000982425, -4.1659, 51.9111, 396.438, -1.65042, 39.9907, 200.732, -0.00299067, -0.00194557, 0.00736925, -0.00182915, -0.00182915, -0.00182915
27, 1,0.00731879, 0.00185681, 0.00124743, 347.064, 112.289, 0.0584645, 522.925, -215.293, 0.927671, 0.00102084, 0.0091686, 0.0062963, 458.64, -150.3, 0.0363202, 0.001016, 0.00547357, 0.00382539, 236.171, -77.9454, 0.0351053, 0.00101479, -4.61825, 49.699, 405.818, -0.992799, 36.5728, 198.256, -0.0033553, -0.00228836, 0.00813289, -0.00207997, -0.00207997, -0.00207997
28, 1,0.00830656, 0.00206436, 0.00139154, 349.844, 114.898, 0.064035, 527.171, -202.028, 1, 0.00105338, 0.0103675, 0.00716485, 464.301, -157.577, 0.0611394, 0.00104837, 0.00624779, 0.00438902, 235.83, -81.4941, 0.0533006, 0.00104702, 2.10235, 52.1839, 418.446, 2.84172, 36.773, 204.868, -0.00394088, -0.0027668, 0.00935484, -0.00250346, -0.00250346, -0.00250346
29, 1,0.00476668, 0.0013801, 0.000921511, 298.033, 87.537, 0.0259345, 478.811, -163.427, 0.358618, 0.000948676, 0.00614558, 0.00410814, 385.129, -128.049, 0, 0.000947502, 0.00338874, 0.0022685, 211.305, -70.3712, 0, 0.000946616, -1.14719, 33.9017, 351.391, -0.5596, 25.4859, 186.187, -0.00204409, -0.00148139, 0.00560326, -0.00112345, -0.00112345, -0.00112345
30, 1,0.00544215, 0.00155496, 0.00104074, 323.805, 97.1193, 0.0296294, 478.391, -161.397, 0.428774, 0.000981303, 0.00699343, 0.00474087, 420.249, -135.327, 0.00371334, 0.000980084, 0.00389378, 0.00267274, 227.929, -71.4784, 0.00296625, 0.000979067, -11.3444, 41.1897, 376.135, -10.3686, 30.3627, 194.441, -0.00246993, -0.00156274, 0.00623313, -0.00142463, -0.00142463, -0.00142463
31, 1,0.00633963, 0.00170762, 0.00114419, 339.553, 105.187, 0.035491, 481.788, -162.925, 0.536145, 0.00101402, 0.00803877, 0.00544624, 443.962, -147.658, 0.0183682, 0.00101265, 0.00464663, 0.00318546, 235.846, -78.5198, 0.0174277, 0.00101151, -3.2739, 52.146, 394.102, -2.25306, 39.1517, 198.661, -0.00284968, -0.00180385, 0.0070743, -0.00170857, -0.00170857, -0.00170857
32, 1,0.00698861, 0.00182922, 0.0012229, 346.789, 111.991, 0.0414008, 481.357, -157.37, 0.639641, 0.00104655, 0.0088126, 0.00599985, 458.243, -150.363, 0.0294071, 0.00104499, 0.00516822, 0.00357035, 235.847, -77.2211, 0.0285026, 0.00104373, -4.47253, 43.7748, 411.786, -2.90521, 31.3957, 203.173, -0.00317562, -0.00222892, 0.00788501, -0.00195292, -0.00195292, -0.00195292
33, 1,0.00432843, 0.00125417, 0.000835755, 267.611, 79.4251, 0.0161934, 468.723, -153.86, 0.17184, 0.000945005, 0.00558019, 0.00374042, 346.624, -112.147, 0, 0.000944116, 0.00307861, 0.00207381, 188.938, -59.6323, 0, 0.000943312, -5.81729, 27.3002, 314.959, -5.70577, 19.2929, 165.31, -0.00189237, -0.00131777, 0.00502991, -0.00106302, -0.00106302, -0.00106302
34, 1,0.00480426, 0.00140895, 0.000941154, 299.282, 88.9883, 0.0168542, 469.341, -154.519, 0.184794, 0.00097742, 0.00621026, 0.00415188, 387.824, -128.857, 0, 0.000976732, 0.00340071, 0.00227849, 211.121, -70.3344, 0, 0.000975805, -2.65577, 39.9916, 349.237, -1.86069, 29.7384, 183.125, -0.00208873, -0.00134018, 0.00551981, -0.00115028, -0.00115028, -0.00115028
35, 1,0.00523985, 0.00156087, 0.00104346, 321.202, 97.8292, 0.0174536, 465.248, -147.032, 0.195742, 0.00100961, 0.00679457, 0.00457113, 418.356, -135.811, 0.00105641, 0.00100913, 0.00369032, 0.00249905, 224.634, -71.4883, 0.000643444, 0.00100808, -8.42037, 43.4911, 372.363, -7.74085, 31.9303, 190.276, -0.00234259, -0.0014021, 0.00594974, -0.00130498, -0.00130498, -0.00130498
36, 1,0.00599912, 0.00170183, 0.00113579, 339.229, 105.576, 0.0204746, 472.662, -156.981, 0.254371, 0.00104217, 0.00769464, 0.00518001, 444.233, -147.825, 0.0123113, 0.0010416, 0.00430852, 0.00292612, 234.744, -77.6543, 0.0114488, 0.0010404, -1.73587, 45.2195, 399.992, -2.14835, 32.5327, 202.579, -0.0026653, -0.00174461, 0.00682518, -0.00154279, -0.00154279, -0.00154279
37, 1,0.00377727, 0.00113675, 0.000757086, 237.811, 71.8346, 0.010758, 466.255, -155.483, 0.0664676, 0.000941637, 0.00491084, 0.00326845, 309.253, -104.327, 2.71051E-20, 0.000940764, 0.00264643, 0.00176047, 166.716, -56.8863, 2.71051E-20, 0.00094004, 1.30951, 31.6215, 280.051, 1.34287, 24.1059, 145.21, -0.00161732, -0.00107071, 0.00438091, -0.000869513, -0.000869513, -0.000869513
38, 1,0.00432053, 0.00128563, 0.000857753, 267.979, 81.1996, 0.0113896, 460.841, -146.005, 0.0783126, 0.000973798, 0.00560138, 0.0037518, 348.687, -114.243, 0, 0.000973191, 0.00304372, 0.00205002, 187.696, -60.5977, 0, 0.000972345, -4.63329, 35.2994, 312.061, -4.58993, 25.6862, 160.697, -0.00189891, -0.00116852, 0.00492119, -0.00105318, -0.00105318, -0.00105318
39, 1,0.00473802, 0.00142414, 0.000949771, 296.314, 89.908, 0.012141, 463.059, -148.67, 0.093053, 0.00100611, 0.00615702, 0.00410388, 385.692, -128.601, 0, 0.00100565, 0.00332342, 0.00221685, 207.4, -69.2639, 0, 0.00100468, -0.623187, 41.8679, 344.559, -0.325822, 30.7874, 177.33, -0.00203828, -0.00126586, 0.0053909, -0.0010976, -0.0010976, -0.0010976
40, 1,0.00520746, 0.00156036, 0.00104033, 323.87, 98.0391, 0.0132196, 467.516, -154.702, 0.114282, 0.00103847, 0.0067623, 0.0045111, 421.33, -139.443, 0.000665223, 0.00103803, 0.00365734, 0.00244234, 226.912, -74.8464, 0.00041482, 0.00103694, -2.24377, 41.6269, 378.946, -1.83512, 30.8671, 195.507, -0.00225944, -0.00145048, 0.00597345, -0.00122731, -0.00122731, -0.00122731
41, 1,0.00331672, 0.00102233, 0.000681625, 207.9, 64.5416, 0.00751976, 452.487, -139.298, 0.00280215, 0.000938029, 0.00433555, 0.00289078, 272.078, -90.5691, 0, 0.000937284, 0.00230101, 0.00153708, 144.053, -47.9459, 0, 0.000936636, -0.581609, 26.5857, 245.703, -0.677994, 19.7834, 124.732, -0.00143975, -0.00093631, 0.0038457, -0.000770557, -0.000770557, -0.000770557
42, 1,0.00381454, 0.00116387, 0.000776158, 240.096, 73.4521, 0.00825813, 454.168, -139.892, 0.0170201, 0.000970267, 0.00497378, 0.00330481, 313.11, -105.549, 0, 0.000969706, 0.00265937, 0.00176585, 167.473, -57.0223, 0, 0.000968942, 1.51184, 35.2405, 279.894, 1.44659, 26.357, 143.263, -0.00163136, -0.00100227, 0.00434633, -0.000868531, -0.000868531, -0.000868531
43, 1,0.00434572, 0.0012988, 0.000866595, 271.795, 81.9513, 0.009529, 460.946, -148.568, 0.0421757, 0.00100262, 0.0056381, 0.00376446, 353.18, -117.426, 0, 0.00100205, 0.00305882, 0.00204854, 190.903, -63.3359, 0, 0.00100117, -1.95107, 39.9905, 314.24, -1.89683, 30.0481, 161.857, -0.00189075, -0.00110445, 0.00490063, -0.00103781, -0.00103781, -0.00103781
44, 1,0.00476122, 0.00142344, 0.00094823, 298.859, 89.8776, 0.0106144, 467.102, -156.974, 0.0637242, 0.00103496, 0.00617959, 0.00411559, 388.228, -129.961, 0, 0.00103441, 0.00334714, 0.0022329, 209.929, -70.5699, 0, 0.00103341, 0.983307, 39.1634, 349.738, 1.06163, 29.1365, 181.512, -0.00202581, -0.00132502, 0.00545964, -0.0010889, -0.0010889, -0.0010889
45, 1,0.0029073, 0.000910327, 0.00060738, 182.486, 57.4613, 0.00655492, 410.909, -135.816, 0, 0.000934695, 0.0038142, 0.00253922, 239.596, -79.8389, 0, 0.000933846, 0.00200352, 0.00133428, 125.7, -41.9452, 0, 0.000933272, 0.411399, 23.1867, 215.919, 0.293977, 17.302, 108.24, -0.0012494, -0.000830228, 0.00337515, -0.000655142, -0.000655142, -0.000655142
46, 1,0.00340046, 0.00104235, 0.00069555, 213.075, 65.7861, 0.00688093, 424.268, -133.032, 0, 0.000966781, 0.00443819, 0.00295711, 278.442, -92.5791, 0, 0.000966146, 0.00236679, 0.00157954, 148.083, -49.129, 0, 0.000965466, -0.648636, 30.0324, 248.353, -0.800381, 22.1715, 126.016, -0.00147242, -0.000894403, 0.00386907, -0.000791372, -0.000791372, -0.000791372
47, 1,0.00384176, 0.00117076, 0.000781217, 241.453, 73.8482, 0.00729576, 446.755, -136.871, 0, 0.000998946, 0.00500652, 0.00333363, 314.791, -105.457, 0, 0.000998437, 0.00268225, 0.0017887, 168.568, -56.7136, 0, 0.000997648, 0.751092, 35.8845, 279.735, 0.736911, 26.8573, 142.547, -0.00164511, -0.00098101, 0.00433732, -0.000877798, -0.000877798, -0.000877798
48, 1,0.00435751, 0.00129237, 0.000862115, 272.979, 81.5176, 0.00830571, 459.292, -147.917, 0.0183019, 0.00103126, 0.00564397, 0.00376309, 353.977, -117.687, 0, 0.00103073, 0.00307604, 0.00205493, 192.424, -63.9061, 0, 0.00102983, -1.24234, 35.9846, 318.32, -1.18462, 27.2658, 165.637, -0.00187992, -0.00117772, 0.00496729, -0.00103176, -0.00103176, -0.00103176
49, 1,0.00251648, 0.000798807, 0.000533415, 157.733, 50.4195, 0.00573301, 358.799, -117.999, 0, 0.00093115, 0.00331228, 0.0022052, 207.838, -69.0403, 0, 0.000930411, 0.00172348, 0.00114811, 107.924, -35.8341, 0, 0.00092991, -0.0226117, 19.6868, 187.457, -0.151152, 14.7608, 92.8926, -0.00108841, -0.000727576, 0.00293629, -0.000568208, -0.000568208, -0.000568208
50, 1,0.00297447, 0.000921461, 0.000615167, 186.696, 58.1634, 0.00610665, 381.874, -125.268, 0, 0.000963306, 0.00389168, 0.00258877, 244.469, -81.5037, 0, 0.000962623, 0.00206107, 0.00137239, 129.277, -43.1235, 0, 0.000962023, 0.173227, 26.4919, 217.846, 0.00354596, 19.6945, 109.673, -0.00128047, -0.000787321, 0.00339031, -0.000679641, -0.000679641, -0.000679641
51, 1,0.00342911, 0.00104136, 0.000695051, 215.024, 65.7007, 0.00648024, 405.357, -133.087, 0, 0.000995465, 0.00446515, 0.00297426, 280.267, -93.2141, 0, 0.000994821, 0.00239769, 0.00159966, 150.184, -49.8685, 0, 0.000994122, -0.565651, 31.0233, 249.185, -0.596566, 23.1596, 127.043, -0.00148015, -0.000881159, 0.00387385, -0.000798196, -0.000798196, -0.000798196
52, 1,0.00386222, 0.00115784, 0.000773071, 242.861, 72.9979, 0.00690872, 432.057, -141.745, 0, 0.00102764, 0.00501431, 0.00334072, 315.369, -105.559, 0, 0.00102704, 0.00271506, 0.00181058, 170.778, -57.4705, 0, 0.00102624, 0.993475, 32.1635, 283.519, 1.06138, 24.6399, 146.71, -0.00164166, -0.00105417, 0.00440868, -0.000882935, -0.000882935, -0.000882935
53, 1,0.00213276, 0.000687739, 0.000459757, 133.61, 43.399, 0.00491455, 308.276, -102.09, 0, 0.000927638, 0.00281798, 0.00187926, 176.739, -58.6595, 0, 0.000926985, 0.00144991, 0.000967686, 90.7403, -30.1263, 0, 0.000926556, 0.17646, 15.8709, 159.931, 0.0473038, 11.9864, 78.3452, -0.000920663, -0.000637417, 0.00250993, -0.000474061, -0.000474061, -0.000474061
54, 1,0.00256073, 0.000800523, 0.000534765, 160.593, 50.5309, 0.00531619, 333.167, -110.027, 0, 0.000959724, 0.00335754, 0.00223567, 210.779, -70.1312, 0, 0.000959103, 0.00176731, 0.00117887, 110.726, -36.8214, 0, 0.000958584, -0.00479907, 22.3069, 188.092, -0.166542, 16.6358, 93.9949, -0.00110512, -0.00068915, 0.00293226, -0.000583975, -0.000583975, -0.000583975
55, 1,0.00299057, 0.00091227, 0.000609173, 187.674, 57.5557, 0.00571427, 358.315, -118.536, 0, 0.000991813, 0.00389806, 0.00259782, 244.815, -81.5341, 0, 0.000991218, 0.00208726, 0.00139344, 130.9, -43.6055, 0, 0.000990608, -0.164018, 26.9253, 217.841, -0.181143, 20.2796, 110.718, -0.00128775, -0.000776197, 0.00338696, -0.000690808, -0.000690808, -0.000690808
56, 1,0.00341679, 0.00102204, 0.000682976, 213.97, 64.4241, 0.00614201, 385.697, -128.17, 0, 0.00102393, 0.00443354, 0.00295729, 277.943, -92.0668, 0, 0.00102333, 0.00240453, 0.001606, 150.384, -49.6948, 0, 0.00102263, -0.680652, 26.6256, 250.255, -0.608673, 20.4462, 129.247, -0.00146457, -0.000950505, 0.00390898, -0.00079577, -0.00079577, -0.00079577
57, 1,0.00175361, 0.000576719, 0.00038614, 109.661, 36.3786, 0.00415313, 260.355, -86.0532, 0, 0.000924125, 0.00232843, 0.001556, 145.824, -48.234, 0, 0.000923558, 0.00118063, 0.000790024, 73.7134, -24.3738, 0, 0.0009232, 0.108026, 11.7605, 132.833, -0.0155204, 8.97806, 64.1588, -0.000757875, -0.0005525, 0.00209306, -0.000384742, -0.000384742, -0.000384742
58, 1,0.00215029, 0.000679677, 0.000454451, 134.787, 42.8977, 0.00453092, 284.337, -94.2896, 0, 0.000956134, 0.00282684, 0.00188427, 177.39, -58.9647, 0, 0.000955586, 0.00147664, 0.00098643, 92.4596, -30.725, 0, 0.000955149, 0.0381981, 17.9521, 158.904, -0.106728, 13.4762, 78.8055, -0.000928321, -0.000597281, 0.0024824, -0.000486666, -0.000486666, -0.000486666
59, 1,0.00255338, 0.000783073, 0.00052325, 160.034, 49.3959, 0.00491225, 308.408, -102.418, 0, 0.000988138, 0.00333225, 0.00222364, 209.065, -69.4088, 0, 0.000987609, 0.00177824, 0.00118964, 111.33, -36.9038, 0, 0.000987088, -0.443062, 22.1711, 186.498, -0.441009, 16.8092, 94.3434, -0.00110268, -0.000677391, 0.00290633, -0.00059074, -0.00059074, -0.00059074
60, 1,0.00295641, 0.000885784, 0.000592526, 185.192, 55.8146, 0.00531716, 333.517, -110.446, 0, 0.00102015, 0.00383758, 0.00256318, 240.611, -79.7321, 0, 0.00101964, 0.00207916, 0.00139083, 130.114, -43.0938, 0, 0.00101903, -0.331439, 22.0006, 217.527, -0.245058, 17.1797, 112.347, -0.00126286, -0.000845476, 0.0034021, -0.000684053, -0.000684053, -0.000684053
61, 1,0.00137725, 0.000465794, 0.000312667, 85.878, 29.3577, 0.00342108, 214.28, -70.6306, 0, 0.000920617, 0.00184184, 0.00123559, 115.081, -37.8577, 0, 0.000920127, 0.000913893, 0.000614623, 56.8361, -18.6766, 0, 0.000919841, 0.0999292, 7.42933, 106.044, -0.0155418, 5.80282, 50.2426, -0.000594574, -0.000472543, 0.00168143, -0.000294958, -0.000294958, -0.000294958
62, 1,0.00174072, 0.000558886, 0.00037422, 108.947, 35.2631, 0.00375812, 235.749, -78.082, 0, 0.000952532, 0.0022971, 0.00153385, 143.971, -47.7052, 0, 0.000952062, 0.00118671, 0.000794888, 74.1526, -24.5365, 0, 0.000951705, -0.0660945, 13.2802, 129.902, -0.191564, 10.0534, 63.7477, -0.000753155, -0.000510178, 0.00203743, -0.000390945, -0.000390945, -0.000390945
63, 1,0.00211701, 0.000653874, 0.0004373, 132.572, 41.2304, 0.00410301, 257.468, -85.365, 0, 0.000984444, 0.00276732, 0.00184979, 173.493, -57.478, 0, 0.000983999, 0.00146988, 0.000985789, 91.9303, -30.3989, 0, 0.000983567, -0.427902, 17.2825, 155.579, -0.402376, 13.2577, 78.3414, -0.000914403, -0.000583935, 0.002431, -0.000487419, -0.000487419, -0.000487419
64, 1,0.00249923, 0.000749662, 0.000502268, 156.3, 47.2029, 0.00446834, 280.083, -92.5578, 0, 0.00101636, 0.00324495, 0.0021724, 203.165, -67.0378, 0, 0.00101593, 0.00175688, 0.0011786, 109.728, -36.1411, 0, 0.00101543, -0.469749, 16.7377, 184.845, -0.368156, 13.3527, 95.4386, -0.00106579, -0.000747569, 0.00290114, -0.000577084, -0.000577084, -0.000577084
65, 1,0.0010051, 0.000355245, 0.000239644, 62.2546, 22.3489, 0.00270558, 169.096, -55.3548, 0, 0.000917114, 0.00135983, 0.000919838, 84.5166, -27.4547, 0, 0.000916699, 0.000650938, 0.000442952, 40.0896, -12.9616, 0, 0.000916483, 0.0559988, 2.8909, 79.4173, -0.0499073, 2.4619, 36.4728, -0.000431604, -0.000396103, 0.00127321, -0.000205609, -0.000205609, -0.000205609
66, 1,0.00133327, 0.000438274, 0.000294177, 83.238, 27.6332, 0.00299006, 187.376, -61.8612, 0, 0.000948932, 0.00176969, 0.00118564, 110.692, -36.4939, 0, 0.000948542, 0.000898681, 0.000605009, 55.9616, -18.3972, 0, 0.000948263, -0.105993, 8.42539, 101.162, -0.211239, 6.49165, 48.9112, -0.000577366, -0.000427199, 0.00159674, -0.000294603, -0.000294603, -0.000294603
67, 1,0.00168286, 0.000524862, 0.000351516, 105.171, 33.0697, 0.00329132, 206.362, -68.2466, 0, 0.000980745, 0.00220483, 0.00147838, 137.992, -45.4898, 0, 0.000980383, 0.00116351, 0.00078394, 72.5802, -23.8374, 0, 0.000980038, -0.511984, 12.1163, 124.865, -0.462681, 9.47684, 62.498, -0.000727314, -0.000494879, 0.00196033, -0.000385286, -0.000385286, -0.000385286
68, 1,0.00204284, 0.000613772, 0.000412293, 127.5, 38.5963, 0.00362045, 226.554, -74.4817, 0, 0.00101256, 0.00265342, 0.00178302, 165.821, -54.4117, 0, 0.00101223, 0.00143499, 0.000966979, 89.4171, -29.2626, 0, 0.00101182, -0.492278, 11.3196, 152.408, -0.374622, 9.41184, 78.7506, -0.000867345, -0.000653445, 0.00240369, -0.000468812, -0.000468812, -0.000468812
69, 1,0.00064448, 0.000246022, 0.000168019, 39.1131, 15.3971, 0.00200101, 124.456, -40.11, 0, 0.000913613, 0.00089031, 0.000616873, 54.4888, -17.0423, 0, 0.000913271, 0.000398887, 0.000282319, 23.7648, -7.2471, 0, 0.000913126, 0.0240111, -1.79852, 52.9015, -0.0711233, -0.998149, 22.8106, -0.000268226, -0.000322301, 0.000867078, -0.000115987, -0.000115987, -0.000115987
70, 1,0.000930559, 0.000318231, 0.000214705, 57.7298, 20.0273, 0.00222748, 139.246, -45.6176, 0, 0.000945331, 0.00124749, 0.000842591, 77.6391, -25.2736, 0, 0.000945019, 0.000615004, 0.000419403, 37.9463, -12.2505, 0, 0.000944819, -0.166419, 3.39595, 72.5914, -0.251956, 2.79003, 34.2134, -0.000401863, -0.000347357, 0.00115933, -0.000198582, -0.000198582, -0.000198582
71, 1,0.00125262, 0.000396374, 0.000266221, 77.9702, 24.9311, 0.00248335, 155.391, -51.0709, 0, 0.000977045, 0.00164674, 0.00111131, 102.713, -33.5252, 0, 0.000976767, 0.000860584, 0.000585423, 53.405, -17.2992, 0, 0.00097651, -0.56971, 6.78611, 94.3591, -0.497896, 5.56817, 46.8273, -0.000540029, -0.000409214, 0.00149324, -0.000282983, -0.000282983, -0.000282983
72, 1,0.00159053, 0.000478688, 0.000323177, 98.8752, 30.023, 0.00277899, 173.334, -56.415, 0, 0.00100877, 0.00206681, 0.0013987, 128.69, -41.7522, 0, 0.00100853, 0.00111632, 0.000758634, 69.2417, -22.3562, 0, 0.00100821, -0.552625, 5.68355, 120.126, -0.418449, 5.29126, 62.1959, -0.000669168, -0.000562905, 0.00190956, -0.000360886, -0.000360886, -0.000360886
73, 1,0.00033057, 0.00014181, 0.00010147, 18.0211, 8.67739, 0.0013179, 80.7916, -24.8054, 0, 0.00091011, 0.000469642, 0.000363051, 26.6308, -6.60683, 0, 0.000909841, 0.000194756, 0.000169738, 9.50511, -1.51991, 0, 0.000909766, -0.0162442, -6.60078, 26.4375, -0.0996288, -4.54856, 9.20791, -0.000104656, -0.000250197, 0.000462073, -2.63157E-05, -2.63157E-05, -2.63157E-05
74, 1,0.000542564, 0.000200064, 0.00013708, 32.8742, 12.5082, 0.0014773, 91.6872, -29.3509, 0, 0.000941722, 0.000741246, 0.000515514, 45.3057, -14.0594, 0, 0.000941489, 0.000345493, 0.00024792, 20.5372, -6.11138, 0, 0.000941367, -0.218872, -1.74791, 44.1451, -0.28595, -1.00171, 19.6218, -0.000226282, -0.000269709, 0.000724134, -0.000102535, -0.000102535, -0.000102535
75, 1,0.000832387, 0.000269381, 0.000182401, 51.2342, 16.8618, 0.0016862, 104.928, -33.8914, 0, 0.000973345, 0.00109997, 0.000755555, 67.9621, -21.5603, 0, 0.00097315, 0.000566547, 0.000395769, 34.6384, -10.7607, 0, 0.000972979, -0.632799, 1.31986, 63.9939, -0.540449, 1.54993, 31.2726, -0.000352852, -0.000326085, 0.00102879, -0.000180826, -0.000180826, -0.000180826
76, 1,0.00114737, 0.000345661, 0.000236177, 70.6892, 21.5441, 0.00195454, 120.917, -38.348, 0, 0.00100496, 0.0014914, 0.00102571, 92.0914, -29.0916, 0, 0.00100481, 0.000804757, 0.000557442, 49.4104, -15.4538, 0, 0.00100459, -0.603742, -0.08618, 87.9647, -0.453148, 1.06245, 45.7522, -0.000470775, -0.00047481, 0.00141763, -0.000252827, -0.000252827, -0.000252827
77, 1,0.00019976, 6.39277E-05, 6.13064E-05, 5.78433, 3.19997, 0.000714649, 40.8505, -9.4135, 0, 0.0009066, 0.000258781, 0.000319382, 8.76863, 3.84977, 0, 0.000906405, 0.000143487, 0.000210198, 2.93683, 4.21781, 0, 0.0009064, -0.0566171, -11.4686, -0.0240749, -0.127487, -8.15154, -4.37442, 5.92448E-05, -0.000178917, 5.72178E-05, 6.35358E-05, 6.35358E-05, 6.35358E-05
78, 1,0.000232327, 9.11433E-05, 6.86335E-05, 11.6008, 5.42755, 0.000774831, 46.3679, -13.0512, 0, 0.000938117, 0.000318343, 0.000271823, 16.813, -2.84395, 0, 0.000937962, 0.000151038, 0.000151488, 6.62135, 0.0272002, 0, 0.000937918, -0.270524, -6.96287, 15.7653, -0.320712, -4.85025, 5.08936, -5.06627E-05, -0.000193327, 0.000290145, -6.51053E-06, -6.51053E-06, -6.51053E-06
79, 1,0.00044759, 0.00014792, 0.000104157, 26.1599, 9.05555, 0.000927279, 56.2718, -16.708, 0, 0.00096964, 0.000593387, 0.000439983, 35.0992, -9.60232, 0, 0.000969528, 0.000303861, 0.000237439, 17.3398, -4.22889, 0, 0.000969444, -0.688524, -4.22502, 33.7205, -0.577992, -2.53134, 15.796, -0.000165625, -0.000244504, 0.000565943, -7.86688E-05, -7.86688E-05, -7.86688E-05
80, 1,0.000729785, 0.000218684, 0.000155293, 43.7175, 13.3515, 0.00117996, 70.8715, -20.3039, 0, 0.00100116, 0.000947481, 0.000684363, 56.9857, -16.4205, 0, 0.00100109, 0.000512944, 0.000376063, 30.5218, -8.5464, 0, 0.00100097, -0.657464, -5.94567, 55.8648, -0.490546, -3.24129, 29.371, -0.000272272, -0.000388208, 0.000926923, -0.000144745, -0.000144745, -0.000144745
81, 1,0.000255209, -0.000128674, 9.35244E-05, 2.58893, -7.74558, 0.000418607, 15.3369, 6.07794, 0, 0.000903091, 0.000313464, 0.000541618, 3.75741, 14.33, 0, 0.00090297, 0.000197087, 0.000355719, 1.43355, 9.96842, 0, 0.000903034, -0.0992341, -16.3574, -26.5335, -0.156816, -11.7718, -17.9767, 0.000223472, -0.000107578, -0.000348406, 0.000153559, 0.000153559, 0.000153559
82, 1,0.000190914, -8.08536E-05, 6.29648E-05, 3.3419, -4.67563, 0.000347937, 14.0478, 3.28305, 0, 0.000934513, 0.000235007, 0.000367771, 4.62067, 8.37217, 0, 0.000934435, 0.000147737, 0.000246217, 2.13696, 6.16446, 0, 0.000934469, -0.31755, -12.1987, -12.6003, -0.35256, -8.71558, -9.42525, 0.000125065, -0.000117264, -0.000143643, 8.9554E-05, 8.9554E-05, 8.9554E-05
83, 1,0.00022531, 6.08714E-05, 6.04387E-05, 8.81212, 2.89293, 0.000387602, 17.9846, 0.468162, 0, 0.000965933, 0.000284604, 0.000322249, 11.6162, 2.35229, 0, 0.000965904, 0.000167349, 0.000205279, 6.08931, 2.29939, 0, 0.000965904, -0.738944, -9.79921, 3.48127, -0.612784, -6.63715, 0.351762, 2.16605E-05, -0.000163486, 0.00010366, 2.34913E-05, 2.34913E-05, 2.34913E-05
84, 1,0.000401064, 0.000114975, 9.77478E-05, 20.9672, 6.27137, 0.000601278, 30.1038, -2.29026, 0, 0.000997356, 0.000515327, 0.000454954, 27.1828, -3.74011, 0, 0.000997379, 0.000287399, 0.00026103, 14.798, -1.6354, 0, 0.000997345, -0.709726, -11.838, 23.768, -0.526625, -7.57457, 13.0074, -7.35899E-05, -0.000302032, 0.000436309, -3.65797E-05, -3.65797E-05, -3.65797E-05
85, 1,0.000359997, -0.00023229, 0.000159305, 1.57794, -14.4437, 0.000491612, 7.15277, 21.6716, 0, 0.000899579, 0.00044542, 0.000841505, 2.27726, 24.8342, 0, 0.000899533, 0.000275183, 0.000525944, 0.930942, 15.7323, 0, 0.000899666, -0.142817, -21.2208, -53.1391, -0.186481, -15.3724, -31.6379, 0.000388056, -3.53008E-05, -0.000755714, 0.000243784, 0.000243784, 0.000243784
86, 1,0.000289919, -0.000187273, 0.000128968, 1.6612, -11.6313, 0.000420027, 5.25202, 19.6504, 0, 0.000930902, 0.000359343, 0.000671479, 2.25337, 19.5906, 0, 0.000930902, 0.000221585, 0.000418116, 1.16948, 12.3019, 0, 0.000931013, -0.359937, -17.4067, -41.0051, -0.381723, -12.5593, -23.9648, 0.000300926, -4.05732E-05, -0.000578229, 0.000185677, 0.000185677, 0.000185677
87, 1,0.000257731, -0.000151086, 0.000108083, 3.54887, -9.24247, 0.000402811, 5.91981, 17.633, 0, 0.000962217, 0.000321176, 0.000549923, 4.51917, 14.3043, 0, 0.000962269, 0.000195582, 0.000337866, 2.67161, 8.82465, 0, 0.000962354, -0.782348, -15.3499, -26.7806, -0.643255, -10.7257, -15.105, 0.000209052, -8.20182E-05, -0.000359136, 0.000125693, 0.000125693, 0.000125693
88, 1,0.000297074, -0.000139398, 0.000110396, 8.8087, -8.02205, 0.000496891, 11.7907, 15.6872, 0, 0.000993545, 0.000376987, 0.000519553, 11.2416, 8.95174, 0, 0.000993653, 0.000218281, 0.00030252, 6.45983, 5.28104, 0, 0.000993712, -0.761005, -17.7087, -8.38547, -0.562021, -11.8947, -3.38645, 0.000125291, -0.00021522, -5.53256E-05, 7.16846E-05, 7.16846E-05, 7.16846E-05
89, 1,0.000478058, -0.000342736, 0.000231833, 1.12011, -21.4749, 0.000682471, 4.47343, 37.3685, 0, 0.000896086, 0.000596909, 0.00116131, 1.64518, 35.3632, 0, 0.000896116, 0.000360581, 0.000703692, 0.705231, 21.5102, 0, 0.000896317, -0.187224, -26.0132, -79.8891, -0.216464, -18.9171, -45.3971, 0.000553012, 3.87851E-05, -0.0011656, 0.000334222, 0.000334222, 0.000334222
90, 1,0.000413878, -0.000305533, 0.00020671, 1.07757, -19.1577, 0.000632433, 3.07625, 36.0468, 0, 0.000927307, 0.000519276, 0.0010109, 1.49351, 30.8121, 0, 0.000927386, 0.000310301, 0.00060492, 0.819887, 18.4404, 0, 0.000927572, -0.396352, -22.5376, -69.5023, -0.407245, -16.3423, -38.5716, 0.000476961, 3.76888E-05, -0.00101461, 0.000281891, 0.000281891, 0.000281891
91, 1,0.000371315, -0.000273432, 0.000186929, 2.05651, -17.0907, 0.000616396, 3.24684, 34.781, 0, 0.000958512, 0.000469032, 0.000888948, 2.63277, 26.2553, 0, 0.000958645, 0.000275602, 0.000522242, 1.62679, 15.3483, 0, 0.000958814, -0.818653, -20.8253, -57.122, -0.669405, -14.756, -30.6194, 0.000396576, 9.09747E-07, -0.000823511, 0.000227958, 0.000227958, 0.000227958
92, 1,0.000365, -0.000254451, 0.000179159, 4.70101, -15.6538, 0.000666362, 6.45005, 33.6292, 0, 0.000989737, 0.000466252, 0.000811983, 5.99559, 21.6569, 0, 0.000989929, 0.000265755, 0.000460718, 3.55757, 12.2043, 0, 0.000990081, -0.810752, -23.5029, -40.657, -0.59617, -16.158, -19.8587, 0.000324412, -0.000126697, -0.000549128, 0.00018008, 0.00018008, 0.00018008
93, 1,0.000601487, -0.000455379, 0.000306464, 0.877981, -28.614, 0.000906232, 3.28111, 53.1665, 0, 0.0008926, 0.000755905, 0.00148902, 1.3271, 45.9154, 0, 0.000892705, 0.000449178, 0.000884865, 0.596219, 27.3018, 0, 0.000892975, -0.230366, -30.6874, -106.828, -0.245442, -22.3684, -59.2916, 0.00071836, 0.000115552, -0.00157894, 0.000424895, 0.000424895, 0.000424895
94, 1,0.000544969, -0.000426238, 0.000286792, 0.80177, -26.8011, 0.000873061, 2.22617, 52.461, 0, 0.000923704, 0.000688755, 0.00136, 1.15715, 42.0382, 0, 0.00092386, 0.000403707, 0.000796471, 0.660449, 24.5811, 0, 0.000924122, -0.426389, -27.5428, -98.1454, -0.429012, -20.0261, -53.2882, 0.000653201, 0.000118464, -0.00145379, 0.000378217, 0.000378217, 0.000378217
95, 1,0.000503732, -0.000401058, 0.00027102, 1.42842, -25.1905, 0.000865085, 2.25711, 51.8992, 0, 0.000954797, 0.000641169, 0.00125233, 1.87323, 38.2066, 0, 0.000955009, 0.00036893, 0.000719916, 1.17839, 21.8713, 0, 0.000955262, -0.847493, -26.1726, -87.5997, -0.690959, -18.6863, -46.2365, 0.00058426, 8.63116E-05, -0.00129052, 0.000330308, 0.000330308, 0.000330308
96, 1,0.000486264, -0.000385011, 0.000263375, 3.08961, -24.0265, 0.000904717, 4.39123, 51.5331, 0, 0.000985916, 0.000624486, 0.00117363, 3.98965, 34.3773, 0, 0.000986191, 0.000350787, 0.000656604, 2.39983, 19.1359, 0, 0.000986435, -0.85886, -29.1651, -73.1079, -0.629057, -20.321, -36.4576, 0.000523805, -3.538E-05, -0.00104624, 0.00028863, 0.00028863, 0.00028863
97, 1,0.000727836, -0.000569076, 0.000382053, 0.74709, -35.8054, 0.00114374, 2.66508, 69.0675, 0, 0.000889128, 0.000918823, 0.00182106, 1.1638, 56.4936, 0, 0.000889309, 0.000539625, 0.00106814, 0.551066, 33.1093, 0, 0.000889647, -0.27314, -35.1985, -134.009, -0.273961, -25.6909, -73.363, 0.000884122, 0.000195893, -0.0019967, 0.000515824, 0.000515824, 0.000515824
98, 1,0.000679161, -0.000547838, 0.000367689, 0.658864, -34.4861, 0.0011237, 1.85698, 68.8672, 0, 0.000920106, 0.000862239, 0.00171324, 0.996143, 53.2695, 0, 0.000920339, 0.000499252, 0.000990238, 0.587409, 30.7246, 0, 0.000920676, -0.449981, -32.373, -126.986, -0.446836, -23.5715, -68.1556, 0.000829657, 0.000202692, -0.00189672, 0.000474668, 0.000474668, 0.000474668
99, 1,0.000642862, -0.000530282, 0.000356688, 1.10602, -33.3648, 0.00112385, 1.79115, 68.9548, 0, 0.000951092, 0.000821668, 0.00162415, 1.49992, 50.1587, 0, 0.000951382, 0.000467313, 0.000922618, 0.952529, 28.3941, 0, 0.000951718, -0.868696, -31.3392, -118.268, -0.707826, -22.4748, -61.9996, 0.000772116, 0.00017519, -0.0017612, 0.00043275, 0.00043275, 0.00043275
100, 1,0.000625068, -0.000520262, 0.000352229, 2.29527, -32.6234, 0.00116435, 3.37232, 69.3899, 0, 0.000982093, 0.00080494, 0.00155778, 3.02153, 47.1145, 0, 0.000982448, 0.000448603, 0.000865419, 1.83295, 26.0769, 0, 0.000982783, -0.90416, -34.6408, -105.799, -0.65963, -24.3402, -53.231, 0.000723519, 5.97823E-05, -0.0015478, 0.000397375, 0.000397375, 0.000397375
101, 1,0.000856158, -0.000683436, 0.000458202, 0.684145, -43.0299, 0.00138953, 2.36789, 85.0684, 0, 0.000885636, 0.0010843, 0.00215616, 1.09133, 67.1037, 0, 0.000885895, 0.000631385, 0.00125306, 0.546172, 38.9375, 0, 0.0008863, -0.315762, -39.5049, -161.491, -0.302068, -28.8522, -87.6581, 0.00105039, 0.0002807, -0.00241993, 0.000607083, 0.000607083, 0.000607083
102, 1,0.000815074, -0.00066987, 0.00044896, 0.589337, -42.1896, 0.00138106, 1.8647, 85.1934, 0, 0.000916506, 0.00103789, 0.00206882, 0.928819, 64.5069, 0, 0.000916813, 0.000595995, 0.00118531, 0.563096, 36.8723, 0, 0.000917224, -0.466215, -36.9807, -156.074, -0.460362, -26.9415, -83.2152, 0.00100636, 0.000291282, -0.00234435, 0.00057127, 0.00057127, 0.00057127
103, 1,0.00078518, -0.000660188, 0.000443025, 0.928735, -41.569, 0.00138579, 1.59471, 85.8492, 0, 0.000947381, 0.00100606, 0.00199995, 1.30692, 62.1106, 0, 0.000947746, 0.000568181, 0.0011278, 0.835644, 34.9159, 0, 0.000948164, -0.878697, -36.2721, -149.181, -0.71698, -26.0793, -77.9513, 0.000960207, 0.000268507, -0.00223654, 0.00053534, 0.00053534, 0.00053534
104, 1,0.000771549, -0.000657495, 0.00044301, 1.85277, -41.3146, 0.00143214, 2.82339, 87.1324, 0, 0.000978261, 0.00099501, 0.00195182, 2.49445, 59.8703, 0, 0.000978693, 0.000552116, 0.00108008, 1.52479, 33.0288, 0, 0.00097912, -0.947596, -39.8754, -138.788, -0.689059, -28.172, -70.2253, 0.000923565, 0.00015983, -0.00205487, 0.000506313, 0.000506313, 0.000506313
105, 1,0.000986116, -0.000798278, 0.000534731, 0.673147, -50.2781, 0.00164302, 2.38113, 101.142, 0, 0.000882149, 0.00125181, 0.00249392, 1.08434, 77.7485, 0, 0.000882484, 0.00072431, 0.00143958, 0.574454, 44.7896, 0, 0.000882956, -0.3512, -43.5615, -189.333, -0.32413, -31.8184, -102.226, 0.00121734, 0.000370893, -0.00284981, 0.000698835, 0.000698835, 0.000698835
106, 1,0.0009522, -0.000792155, 0.000530433, 0.577722, -49.9019, 0.00165214, 2.68126, 101.302, 0, 0.000912912, 0.00121502, 0.00242612, 0.931024, 75.7432, 0, 0.00091329, 0.000693595, 0.00138143, 0.579822, 43.018, 0, 0.000913775, -0.457118, -41.3101, -185.462, -0.45374, -30.0918, -98.5084, 0.00118357, 0.000385183, -0.0027978, 0.000668257, 0.000668257, 0.000668257
107, 1,0.000929308, -0.00079044, 0.000529694, 0.839539, -49.7858, 0.0016589, 2.18424, 102.392, 0, 0.000943671, 0.00119264, 0.00237803, 1.22097, 74.0568, 0, 0.000944105, 0.00067045, 0.0013344, 0.787163, 41.4319, 0, 0.000944605, -0.869272, -40.9141, -180.387, -0.712105, -29.4535, -94.1301, 0.00114863, 0.000367214, -0.00271752, 0.000638143, 0.000638143, 0.000638143
108, 1,0.000922103, -0.000795777, 0.000534784, 1.59672, -50.0545, 0.00170154, 2.52784, 104.637, 0, 0.000974432, 0.00119016, 0.00235122, 2.19802, 72.6385, 0, 0.000974938, 0.000658649, 0.00129789, 1.35485, 39.9852, 0, 0.000975454, -0.979111, -44.8106, -172.126, -0.70803, -31.7682, -87.4793, 0.00112406, 0.000265711, -0.00256844, 0.00061555, 0.00061555, 0.00061555
109, 1,0.00111754, -0.000913533, 0.00061156, 0.696138, -57.5463, 0.00190987, 2.99785, 117.252, 0, 0.000878675, 0.00142108, 0.00283431, 1.11953, 88.4395, 0, 0.000879085, 0.000818303, 0.00162784, 0.620919, 50.6767, 0, 0.000879624, -0.368206, -47.3365, -217.614, -0.330924, -34.5671, -117.132, 0.00138539, 0.000467286, -0.00328773, 0.00079144, 0.00079144, 0.00079144
110, 1,0.00109021, -0.000914613, 0.000612019, 0.606192, -57.6185, 0.0019527, 5.19579, 117.004, 0, 0.000909328, 0.00139316, 0.00278506, 0.979906, 86.9811, 0, 0.000909771, 0.000791777, 0.00157865, 0.622042, 49.1652, 0, 0.000910329, -0.38894, -45.3183, -215.236, -0.398179, -32.99, -114.108, 0.00136205, 0.000485227, -0.00325867, 0.000766289, 0.000766289, 0.000766289
111, 1,0.00107432, -0.00092086, 0.000616515, 0.818027, -58.0051, 0.00196828, 4.89882, 118.387, 0, 0.000939972, 0.00138032, 0.00275751, 1.21372, 85.9673, 0, 0.000940467, 0.000773322, 0.00154184, 0.792658, 47.9147, 0, 0.000941047, -0.787728, -45.1811, -211.933, -0.645715, -32.523, -110.575, 0.00133803, 0.00047247, -0.00320544, 0.000741744, 0.000741744, 0.000741744
112, 1,0.00107528, -0.000934682, 0.000627122, 1.4566, -58.8214, 0.00197522, 2.69715, 121.791, 0, 0.000970609, 0.00138852, 0.00275378, 2.04242, 85.408, 0, 0.000971182, 0.000767137, 0.00151747, 1.2712, 46.9358, 0, 0.000971789, -1.0133, -49.3746, -205.836, -0.733112, -35.0637, -105.011, 0.00132455, 0.000378682, -0.0030891, 0.000724588, 0.000724588, 0.000724588
113, 1,0.00125125, -0.00102922, 0.000688682, 0.795614, -64.8353, 0.00220835, 4.78434, 133.803, 0, 0.000875187, 0.00159289, 0.00317847, 1.23542, 99.1507, 0, 0.000875679, 0.000914196, 0.00181899, 0.727816, 56.5715, 0, 0.000876284, -0.285282, -50.7662, -246.401, -0.244458, -37.0454, -132.425, 0.00155583, 0.000571034, -0.00373573, 0.000886101, 0.000886101, 0.000886101
114, 1,0.00123043, -0.00103722, 0.00069366, 0.768121, -65.3359, 0.00229942, 10.0069, 132.554, 0, 0.000905742, 0.00157345, 0.00314695, 1.15866, 98.1511, 0, 0.000906248, 0.00089175, 0.00177835, 0.763461, 55.2491, 0, 0.000906879, -0.118129, -48.8673, -245.468, -0.163261, -35.5123, -130.072, 0.00154372, 0.000593341, -0.0037297, 0.000867092, 0.000867092, 0.000867092
115, 1,0.00121992, -0.00105132, 0.000703345, 0.867725, -66.2187, 0.0023214, 9.75099, 134.287, 0, 0.000936262, 0.00156867, 0.00313812, 1.28086, 97.8023, 0, 0.000936817, 0.000876581, 0.00175002, 0.854655, 54.33, 0, 0.000937478, -0.56443, -48.9758, -243.867, -0.461859, -35.1994, -127.329, 0.00152928, 0.000585959, -0.00370222, 0.000846798, 0.000846798, 0.000846798
116, 1,0.00122968, -0.00107384, 0.00071967, 1.42085, -67.5961, 0.00228956, 4.58763, 139.209, 0, 0.00096677, 0.00158846, 0.00315755, 2.00534, 98.0578, 0, 0.000967416, 0.000876373, 0.00173733, 1.26825, 53.764, 0, 0.000968111, -0.91574, -53.3939, -239.864, -0.635095, -37.8847, -122.772, 0.00152599, 0.000501105, -0.00361822, 0.00083435, 0.00083435, 0.00083435
117, 1,0.00138798, -0.00114546, 0.000766157, 0.854191, -72.152, 0.00257648, 8.73216, 151.88, 0, 0.000871705, 0.00176793, 0.00352708, 1.30566, 110.036, 0, 0.000872297, 0.00101261, 0.00201355, 0.766178, 62.6288, 0, 0.000872968, -0.302933, -53.9854, -275.821, -0.27753, -39.3959, -148.213, 0.00172684, 0.000682991, -0.00419533, 0.000980737, 0.000980737, 0.000980737
118, 1,0.00137446, -0.00116004, 0.000775329, 1.17373, -73.0563, 0.00272538, 18.1836, 148.617, 0, 0.000902151, 0.00175693, 0.00351336, 1.45208, 109.333, 0, 0.000902726, 0.000994406, 0.00198189, 1.03453, 61.3564, 0, 0.000903429, 0.475297, -52.1191, -276.356, 0.346796, -37.8332, -146.583, 0.00173237, 0.000708291, -0.00421476, 0.000974048, 0.000974048, 0.000974048
119, 1,0.00136641, -0.00118171, 0.000790044, 1.32362, -74.4192, 0.00274832, 17.5791, 150.875, 0, 0.000932543, 0.00175471, 0.00351861, 1.47406, 109.395, 0, 0.000933171, 0.000980045, 0.00195919, 1.21244, 60.5204, 0, 0.000933911, 0.188345, -52.2047, -276.168, 0.200697, -37.3919, -144.37, 0.00172795, 0.000707956, -0.004211, 0.000958482, 0.000958482, 0.000958482
120, 1,0.00138077, -0.0012131, 0.000812273, 1.171, -76.3734, 0.00266744, 8.09576, 158.491, 0, 0.000962897, 0.00178525, 0.00355571, 1.74907, 110.728, 0, 0.000963644, 0.000981851, 0.00195095, 1.03077, 60.6136, 0, 0.000964428, -1.02395, -57.2372, -273.923, -0.761578, -40.58, -140.499, 0.00172346, 0.000628679, -0.00414887, 0.000939765, 0.000939765, 0.000939765
121, 1,0.00153451, -0.00126232, 0.000843931, 1.81418, -79.5075, 0.0030687, 14.8424, 174.936, 0, 0.000868145, 0.00195289, 0.00388957, 2.21363, 120.347, 0, 0.000868914, 0.00112015, 0.00222068, 1.66887, 68.0877, 0, 0.000869651, 1.0374, -56.1923, -305.886, 1.01767, -40.8286, -164.452, 0.00191743, 0.000809717, -0.00467996, 0.00109396, 0.00109396, 0.00109396
122, 1,0.00153405, -0.0012829, 0.000856699, 2.56532, -80.769, 0.00330717, 32.4806, 166.354, 0, 0.000898508, 0.00195743, 0.00389192, 2.89744, 120.078, 0, 0.000899182, 0.00111221, 0.00219618, 2.32575, 67.0479, 0, 0.000899957, 1.62751, -54.0257, -307.835, 1.31715, -38.9091, -163.552, 0.00192586, 0.000845394, -0.00471969, 0.00108411, 0.00108411, 0.00108411
123, 1,0.00152642, -0.00131197, 0.0008764, 2.38786, -82.5977, 0.00331583, 31.1109, 168.726, 0, 0.00092877, 0.00195937, 0.00390973, 2.64992, 120.8, 0, 0.000929493, 0.00109455, 0.00217483, 2.17783, 66.5626, 0, 0.000930311, 1.28828, -54.6139, -309.074, 1.10796, -38.88, -161.916, 0.00193109, 0.000844171, -0.00473542, 0.00107308, 0.00107308, 0.00107308
124, 1,0.00153834, -0.0013523, 0.000904934, 2.38235, -85.1376, 0.00313823, 13.3345, 181.344, 0, 0.000958983, 0.00198828, 0.00396014, 2.82568, 122.037, 0, 0.000959906, 0.00109328, 0.00217057, 2.23652, 66.1282, 0, 0.000960778, 0.851953, -59.3948, -307.568, 1.05315, -41.7264, -157.711, 0.00194157, 0.00077128, -0.00469308, 0.00106532, 0.00106532, 0.00106532
125, 1,0.00167737, -0.00138009, 0.000922141, 0.693049, -86.9212, 0.00376076, 33.8646, 193.339, 0, 0.000864701, 0.00213531, 0.00424066, 1.1953, 133.074, 0, 0.000865547, 0.00122318, 0.00241384, 0.490233, 75.9387, 0, 0.00086635, -1.64211, -59.9436, -337.637, -1.77491, -43.7934, -182.248, 0.00206069, 0.00094278, -0.00516281, 0.00115804, 0.00115804, 0.00115804
126, 1,0.00170631, -0.00140646, 0.000938158, 4.32517, -88.5059, 0.00425558, 73.1623, 171.924, 0, 0.000895022, 0.0021726, 0.00427319, 4.77474, 131.36, 0, 0.000895611, 0.00124011, 0.00240956, 3.88372, 73.3154, 0, 0.000896455, 3.65995, -57.4065, -340.333, 2.99095, -41.489, -181.448, 0.0021462, 0.000958186, -0.0052359, 0.00121789, 0.00121789, 0.00121789
127, 1,0.00172023, -0.00144302, 0.000963326, 5.16634, -90.7971, 0.00425184, 72.3655, 172.724, 0, 0.000925059, 0.00219778, 0.00431373, 5.57641, 132.053, 0, 0.00092567, 0.00124282, 0.00240247, 4.75837, 72.5053, 0, 0.000926565, 4.0199, -57.9097, -342.27, 3.47424, -41.3484, -179.642, 0.00216653, 0.000956364, -0.00526566, 0.00121715, 0.00121715, 0.00121715
128, 1,0.00167642, -0.00149247, 0.000998445, -0.486599, -93.944, 0.00377869, 31.5811, 197.493, 0, 0.000954927, 0.00217279, 0.00433412, 0.0659689, 137.378, 0, 0.000955859, 0.00118491, 0.00235844, -0.670008, 75.6857, 0, 0.000956816, -3.32137, -66.1047, -342.708, -3.24132, -47.4675, -176.348, 0.00209552, 0.000879236, -0.00520393, 0.00112563, 0.00112563, 0.00112563
129, 1,0.00187419, -0.00150089, 0.00100249, 4.52963, -94.5385, 0.00505502, 24.6927, 217.802, 0.0415365, 0.000860763, 0.00237261, 0.00466098, 5.00652, 143.131, 0, 0.000861879, 0.00137707, 0.00267097, 4.14328, 81.0532, 0, 0.000862747, 3.19831, -61.3584, -371.233, 2.82589, -44.7171, -201.269, 0.00232073, 0.0010911, -0.00573435, 0.00133521, 0.00133521, 0.00133521
130, 1,0.00188873, -0.0015329, 0.00102398, 6.36594, -96.4074, 0.00578256, 47.833, 203.487, 0.0561456, 0.000890787, 0.00240266, 0.00469697, 7.23068, 142.55, 0, 0.000891764, 0.00137526, 0.00265875, 5.53321, 79.5629, 0, 0.000892675, 6.06738, -58.1661, -375.55, 4.71844, -42.0352, -201.372, 0.00237259, 0.00113717, -0.00582284, 0.00135209, 0.00135209, 0.00135209
131, 1,0.00187379, -0.00157534, 0.00105235, 4.25176, -99.0787, 0.00581779, 47.4688, 204.187, 0.0572172, 0.000920802, 0.00240072, 0.00473239, 5.04209, 145.553, 0, 0.000921779, 0.0013477, 0.00263939, 3.50511, 80.7902, 0, 0.000922748, 3.31224, -59.9768, -379.995, 2.06286, -43.1012, -201.332, 0.00236514, 0.00114167, -0.00586863, 0.00131874, 0.00131874, 0.00131874
132, 1,0.00193972, -0.00163359, 0.00109205, 6.29523, -102.84, 0.00526482, 25.2527, 217.889, 0.048786, 0.000950789, 0.00248067, 0.0048579, 6.72402, 148.003, 0, 0.000951962, 0.00140024, 0.00269444, 5.95242, 80.5255, 0, 0.000953005, 4.67566, -66.4896, -382.196, 4.51735, -47.4826, -198.611, 0.00243348, 0.00105842, -0.00589349, 0.00136744, 0.00136744, 0.00136744
133, 1,0.00206686, -0.00162972, 0.00108905, 3.07972, -102.703, 0.00752936, 6.17385, 234.452, 0.143124, 0.000857084, 0.00261163, 0.00511929, 3.87593, 159.276, 0, 0.000858414, 0.00152425, 0.00295463, 2.47459, 91.9853, 0, 0.000859352, 0.431834, -67.2092, -411.05, -0.321115, -50.3021, -225.333, 0.002516, 0.00126499, -0.00636547, 0.00144037, 0.00144037, 0.00144037
134, 1,0.00209237, -0.00166445, 0.00111581, 9.04826, -104.659, 0.00778766, 1.65506, 234.354, 0.159974, 0.000886864, 0.00265878, 0.00515568, 10.4753, 154.465, -8.47033E-22, 0.000888345, 0.00152623, 0.00293268, 7.64401, 86.4247, -8.47033E-22, 0.000889326, 9.68438, -60.2467, -412.832, 7.22834, -43.9813, -222.521, 0.00263612, 0.00132374, -0.00646627, 0.00151266, 0.00151266, 0.00151266
135, 1,0.0021644, -0.00171325, 0.00114768, 12.0085, -107.732, 0.00817544, 2.67543, 236.292, 0.171261, 0.000916625, 0.00274534, 0.00527637, 13.3845, 156.281, 0, 0.000918187, 0.00158382, 0.00299134, 10.6463, 86.2292, 0, 0.000919232, 11.4651, -61.2958, -419.013, 9.08819, -44.405, -223.371, 0.00270766, 0.00132658, -0.00657013, 0.00155411, 0.00155411, 0.00155411
136, 1,0.00213334, -0.00177587, 0.00118577, 3.75925, -111.952, 0.00831603, 7.30914, 235.672, 0.170255, 0.00094642, 0.00272436, 0.00532975, 4.5305, 165.544, 0, 0.000947878, 0.00154616, 0.00297289, 3.40965, 92.0879, 0, 0.000949009, -2.17669, -69.2721, -425.184, -2.69512, -49.5844, -223.984, 0.00256663, 0.00132506, -0.0065779, 0.00139886, 0.00139886, 0.00139886
137, 1,0.00246317, -0.00176568, 0.00118227, 18.0017, -111.312, 0.0117273, -3.7357, 245.534, 0.307377, 0.000852963, 0.00306012, 0.00576645, 19.2339, 167.192, 0, 0.000854753, 0.00186708, 0.00341105, 16.8653, 94.5515, 0, 0.000855761, 15.1955, -64.0462, -452.724, 13.6472, -46.9813, -250.32, 0.00295348, 0.00152217, -0.00718856, 0.00177679, 0.00177679, 0.00177679
138, 1,0.00240137, -0.00180397, 0.00121665, 16.0659, -113.218, 0.0129322, 3.78612, 264.444, 0.307232, 0.000882222, 0.00302278, 0.00575142, 18.2959, 167.587, 9.54873E-07, 0.000884395, 0.0017824, 0.00333365, 13.9316, 94.7672, 9.54873E-07, 0.000885441, 18.0491, -61.4762, -459.333, 13.4204, -45.6506, -252.071, 0.00302, 0.00155924, -0.00729857, 0.00177532, 0.00177532, 0.00177532
139, 1,0.00238547, -0.00185558, 0.00125076, 14.4927, -116.476, 0.0133623, 3.98528, 266.145, 0.319396, 0.000911745, 0.0030248, 0.00578252, 16.8654, 169.48, 0, 0.000914032, 0.00174851, 0.00329412, 12.1899, 94.521, 0, 0.000915145, 13.2895, -58.3185, -463.412, 8.59393, -41.5813, -250.576, 0.00295442, 0.00165147, -0.00735596, 0.00167455, 0.00167455, 0.00167455
140, 1,0.00257264, -0.00193048, 0.00129222, 19.8982, -121.581, 0.0131414, -2.31661, 247.153, 0.355411, 0.000941703, 0.00322455, 0.00604449, 21.2026, 175.592, 4.53334E-05, 0.000943733, 0.00192119, 0.00346877, 18.6482, 96.3566, 5.41361E-06, 0.000944948, 18.28, -73.2367, -471.819, 16.6231, -53.5126, -252.18, 0.0031603, 0.00146704, -0.00747663, 0.00187647, 0.00187647, 0.00187647
141, 1,0.00260918, -0.00193743, 0.00130132, 13.3348, -120.948, 0.0159331, -1.09636, 254.773, 0.441748, 0.000848773, 0.00327198, 0.00626341, 14.8827, 184.343, 0.00176208, 0.000850891, 0.00194777, 0.00366849, 11.9166, 105.492, 0.00107315, 0.000851982, 12.8943, -68.2381, -497.685, 10.4827, -49.7786, -277.181, 0.00322079, 0.00175617, -0.00797113, 0.00191011, 0.00191011, 0.00191011
142, 1,0.00281028, -0.00198354, 0.0013424, 22.1133, -122.402, 0.017126, 2.38706, 275.243, 0.436998, 0.000877755, 0.00351058, 0.00651744, 25.024, 178.585, 0.00635541, 0.000880391, 0.00211058, 0.00383802, 19.2528, 99.5548, 0.00520524, 0.000881526, 23.6189, -56.951, -502.423, 18.4234, -39.9956, -277.092, 0.0034755, 0.00195194, -0.00833553, 0.0020886, 0.0020886, 0.0020886
143, 1,0.00296123, -0.00204762, 0.00138364, 21.0965, -126.1, 0.0175428, 1.13689, 274.789, 0.454884, 0.000907214, 0.00368033, 0.00679159, 23.7939, 185.118, 0.010015, 0.000909899, 0.00224244, 0.00402805, 18.426, 103.362, 0.0087446, 0.000911115, 21.6985, -60.5436, -516.51, 16.8737, -42.4177, -284.541, 0.00363694, 0.00203259, -0.0086902, 0.00221036, 0.00221036, 0.00221036
144, 1,0.00285826, -0.00213887, 0.00143435, 13.3428, -132.028, 0.0170626, -1.44835, 254.572, 0.484068, 0.000937198, 0.00358545, 0.00683928, 14.7241, 192.196, 0.00959308, 0.000939566, 0.00213317, 0.00398068, 12.1902, 105.886, 0.00825569, 0.000940892, 9.72164, -69.2104, -517.1, 8.15181, -48.3558, -277.454, 0.00347704, 0.0019835, -0.00859595, 0.00204495, 0.00204495, 0.00204495
145, 1,0.0038479, -0.00218062, 0.00146621, 17.3473, -132.409, 0.0179162, -4.23344, 253.334, 0.525604, 0.000845081, 0.00459195, 0.00822981, 19.6208, 196.972, 0.0408573, 0.000847235, 0.00310763, 0.00531526, 15.3565, 110.498, 0.039965, 0.000848453, 5.28733, -57.1201, -539.082, 3.44075, -38.4556, -296.479, 0.00421315, 0.00283833, -0.0103222, 0.00274912, 0.00274912, 0.00274912
146, 1,0.00339867, -0.00219421, 0.00149029, 10.6967, -133.162, 0.0188812, 2.90481, 265.556, 0.513857, 0.000874143, 0.00416714, 0.00779684, 13.77, 195.705, 0.0315147, 0.000876602, 0.0026634, 0.00485225, 8.52201, 110.145, 0.0303291, 0.000877842, 13.5911, -47.7984, -552.907, 6.78658, -31.2585, -305.962, 0.0041642, 0.00286314, -0.0102597, 0.00261036, 0.00261036, 0.00261036
147, 1,0.0035382, -0.00226265, 0.00153265, 11.544, -137.112, 0.019488, 5.083, 263.707, 0.53251, 0.000903441, 0.00427784, 0.00798902, 13.0552, 199.21, 0.0343426, 0.000905968, 0.00280537, 0.0049922, 10.3506, 110.861, 0.033087, 0.000907294, 6.49488, -45.6888, -558.435, 0.820975, -28.8659, -304.537, 0.00411766, 0.00303362, -0.0104468, 0.00252706, 0.00252706, 0.00252706
148, 1,0.00419882, -0.00237636, 0.00159189, 13.8223, -143.435, 0.0195272, -2.85908, 252.339, 0.582242, 0.000933018, 0.0049977, 0.00897398, 15.6203, 206.824, 0.0540748, 0.000935452, 0.00340215, 0.00580377, 12.2162, 112.498, 0.0529621, 0.00093693, -0.0334833, -55.2182, -565.22, -0.302609, -34.5378, -302.654, 0.00456901, 0.00330944, -0.0113388, 0.00298848, 0.00298848, 0.00298848
149, 1,0.00436034, -0.00245919, 0.00165307, 7.96287, -147.539, 0.0192742, -1.69597, 250.454, 0.574172, 0.000841967, 0.00520254, 0.00949337, 10.4211, 209.501, 0.0663368, 0.000844033, 0.00352066, 0.0061982, 5.68223, 113.707, 0.0658821, 0.000845396, 8.48622, -52.8406, -584.148, 5.25461, -35.2736, -311.101, 0.00514275, 0.00360561, -0.0122784, 0.00350092, 0.00350092, 0.00350092
150, 1,0.00431693, -0.0024581, 0.00167212, 8.35731, -146.581, 0.0197853, -2.61753, 257.275, 0.579218, 0.000871078, 0.00518813, 0.00944998, 12.7526, 207.589, 0.0649877, 0.00087341, 0.00348959, 0.00614515, 5.13832, 114.112, 0.0642901, 0.000874787, 10.9646, -39.1437, -594.588, 2.86317, -25.7331, -319.465, 0.00513297, 0.00390938, -0.0125374, 0.00339111, 0.00339111, 0.00339111
151, 1,0.00438659, -0.00251501, 0.00170994, 17.3265, -149.569, 0.0203265, 0.796483, 252.604, 0.598989, 0.000900282, 0.00528775, 0.00946628, 22.7915, 201.659, 0.0633849, 0.000902775, 0.00348906, 0.00605442, 11.9304, 107.323, 0.0626648, 0.000904209, 20.4855, -35.452, -590.01, 10.2218, -22.7703, -309.422, 0.00522435, 0.00384305, -0.0124595, 0.00343039, 0.00343039, 0.00343039
152, 1,0.00423348, -0.00263709, 0.00177616, 16.0101, -158.075, 0.0210254, -3.99543, 253.744, 0.636178, 0.000929476, 0.0051318, 0.00926535, 19.7875, 212.585, 0.0525592, 0.000932111, 0.00333671, 0.00573332, 12.2894, 111.777, 0.0516405, 0.000933684, 16.7426, -52.4153, -602.082, 10.5394, -36.6961, -309.175, 0.00505351, 0.00341812, -0.0120253, 0.00328565, 0.00328565, 0.00328565
153, 1,0.00514568, -0.00276772, 0.0018727, 11.7309, -162.341, 0.0228997, 3.79835, 248.152, 0.690011, 0.000838812, 0.00610819, 0.0108152, 16.0776, 218.916, 0.0893675, 0.000841173, 0.00418923, 0.00709368, 7.63219, 114.632, 0.0883684, 0.000842673, 3.12642, -29.9307, -629.943, -0.603307, -20.5956, -322.697, 0.00569869, 0.00488248, -0.0143198, 0.00384646, 0.00384646, 0.00384646
154, 1,0.00532819, -0.00276993, 0.00188628, 11.9961, -159.697, 0.0246813, 13.7026, 249.82, 0.712321, 0.000868051, 0.00624631, 0.0111448, 15.9894, 212.541, 0.100957, 0.000870723, 0.00442178, 0.00746522, 8.36905, 112.129, 0.099429, 0.000872229, 14.583, -21.1415, -631.065, 3.76343, -14.6976, -325.453, 0.00619874, 0.0052319, -0.0150853, 0.0042085, 0.0042085, 0.0042085
155, 1,0.00552119, -0.00288976, 0.00196601, 7.5857, -161.909, 0.0259539, 10.6537, 252.031, 0.758563, 0.000896967, 0.00648326, 0.0115327, 11.2136, 220.311, 0.108861, 0.000899919, 0.0045631, 0.00768745, 4.15779, 117.88, 0.104418, 0.000901517, 4.91218, -23.4673, -642.378, -3.80654, -17.7895, -332.045, 0.00627327, 0.00552112, -0.0156004, 0.00420605, 0.00420605, 0.00420605
156, 1,0.00610136, -0.00313664, 0.00213092, 9.80156, -167.399, 0.0270561, 3.20211, 249.346, 0.82941, 0.000925547, 0.00721094, 0.0123991, 13.5698, 228.818, 0.125197, 0.00092883, 0.00499649, 0.00816277, 6.25653, 119.917, 0.114853, 0.000930608, -10.17, -30.303, -645.982, -10.5551, -21.2778, -327.918, 0.00637792, 0.00589442, -0.0162641, 0.00423247, 0.00423247, 0.00423247
157, 1,0.00756427, -0.00343346, 0.00234029, 7.79589, -169.518, 0.025645, 0.567437, 251.635, 0.785735, 0.000835997, 0.00878361, 0.0148913, 10.3926, 229.33, 0.188722, 0.000838603, 0.00635451, 0.0102698, 5.48439, 117.928, 0.173127, 0.000840316, -5.9278, -22.4897, -659.572, -4.93604, -17.4022, -331.445, 0.00809251, 0.00756449, -0.0198162, 0.00576074, 0.00576074, 0.00576074
158, 1,0.00743996, -0.00340735, 0.00231808, 9.09377, -173.251, 0.0274496, -1.69069, 268.116, 0.806391, 0.00086522, 0.00866033, 0.0143012, 11.5849, 243.985, 0.16499, 0.000868297, 0.00622247, 0.00968728, 6.73833, 127.124, 0.149759, 0.00087013, -30.3046, -14.9935, -686.656, -21.3227, -11.0502, -348.999, 0.00698991, 0.00776589, -0.0191163, 0.00474187, 0.00474187, 0.00474187
159, 1,0.00798722, -0.00359682, 0.00246558, 15.7366, -173.087, 0.0290445, -6.32377, 271.302, 0.865146, 0.000893758, 0.00931059, 0.0150772, 19.2645, 238.366, 0.183277, 0.000897524, 0.00666748, 0.0101687, 12.361, 122.27, 0.161901, 0.000899435, -32.1897, -3.5639, -679.343, -22.203, -2.54999, -342.058, 0.00715143, 0.00852034, -0.0199802, 0.00475036, 0.00475036, 0.00475036
160, 1,0.00838491, -0.00396055, 0.00272522, 6.30823, -171.229, 0.0303316, -7.59452, 261.507, 0.941232, 0.000921947, 0.00984371, 0.0164909, 8.86452, 232.818, 0.226532, 0.000926212, 0.0069349, 0.0110916, 4.00619, 120.282, 0.193663, 0.000928192, -10.8866, -19.1063, -668.461, -8.87495, -15.2146, -336.756, 0.00891103, 0.00872886, -0.0219643, 0.00612811, 0.00612811, 0.00612811
161, 1,0.0117455, -0.00404936, 0.00275059, -5.14745, -184.319, 0.0336142, -18.4093, 303.542, 0.955016, 0.000830875, 0.013181, 0.0206928, -6.80034, 281.708, 0.306279, 0.000835067, 0.0103139, 0.0152254, -3.40825, 148.69, 0.283046, 0.000837281, -68.7235, -36.2144, -740.185, -42.8393, -22.5012, -380.73, 0.0098042, 0.0117007, -0.0270186, 0.00725862, 0.00725862, 0.00725862
162, 1,0.012813, -0.00407852, 0.00277806, -4.62045, -194.506, 0.0389708, -11.3885, 338.751, 0.980792, 0.000861109, 0.0142799, 0.0209272, -6.45094, 323.596, 0.287074, 0.000866197, 0.0113501, 0.0153964, -2.69548, 175.22, 0.266531, 0.000868722, -140.893, -41.247, -788.649, -90.1033, -24.8822, -410.674, 0.00734153, 0.0126315, -0.0262258, 0.00503271, 0.00503271, 0.00503271
163, 1,0.0127776, -0.00431993, 0.00295682, -5.36176, -196.389, 0.0393135, -11.6436, 340.499, 1, 0.000890087, 0.0143551, 0.0212285, -8.50991, 320.764, 0.296362, 0.000895682, 0.0112048, 0.0153463, -2.09991, 170.548, 0.268152, 0.000898355, -138.649, -39.6239, -784.018, -86.8177, -21.5677, -403.259, 0.00750148, 0.0128806, -0.0266185, 0.0050179, 0.0050179, 0.0050179
164, 1,0.0115789, -0.00471313, 0.00322376, -10.4502, -189.682, 0.0353443, -12.2585, 314.205, 1, 0.000917518, 0.0132853, 0.0213329, -15.7008, 283.057, 0.325698, 0.000922969, 0.00987674, 0.0149285, -5.1095, 144.053, 0.281017, 0.000925594, -64.6482, -44.4627, -740.061, -37.0406, -23.1373, -371.982, 0.0105121, 0.0118082, -0.0279338, 0.00738972, 0.00738972, 0.00738972
165, 1,0.0120518, 0.00125815, 0.000870772, 342.309, 71.5509, 0.028393, 425.358, -124.564, 0.420779, 0.00100514, 0.0132573, 0.00999022, 413.517, -171.686, 0.146456, 0.00100553, 0.0108566, 0.00838776, 271.296, -118.841, 0.146456, 0.0010046, 59.0628, 48.0811, 407.914, 51.1073, 40.1091, 265.307, -0.00467739, -0.00530799, 0.0130193, -0.00380099, -0.00380099, -0.00380099
166, 1,0.0157425, 0.00182159, 0.00124305, 380.844, 101.839, 0.0323654, 449.793, -143.001, 0.490265, 0.00103982, 0.0175241, 0.0129361, 482.516, -203.91, 0.209672, 0.0010404, 0.0139697, 0.0106668, 279.307, -127.956, 0.209672, 0.00103895, 87.6231, 46.7612, 477.345, 69.5392, 39.6244, 274.703, -0.00554104, -0.00798157, 0.0172699, -0.0043042, -0.0043042, -0.0043042
167, 1,0.0183946, 0.00214789, 0.00144932, 384.04, 114.514, 0.0357601, 470.999, -150.68, 0.546171, 0.00107445, 0.0205084, 0.0153957, 498.464, -219.281, 0.266667, 0.00107516, 0.0162883, 0.0126893, 269.709, -133.926, 0.265693, 0.00107341, 108.219, 57.4666, 492.158, 84.584, 52.0481, 265.145, -0.00620701, -0.00974637, 0.0201337, -0.00475614, -0.00475614, -0.00475614
168, 1,0.0189856, 0.00225399, 0.00154729, 377.211, 115.352, 0.0381371, 475.511, -153.769, 0.586882, 0.00110947, 0.0212157, 0.0158613, 492.493, -207.327, 0.278348, 0.00110978, 0.0167609, 0.0129635, 261.998, -121.664, 0.273526, 0.00110795, 81.1948, 57.0023, 483.784, 63.6828, 45.0907, 256.218, -0.00745395, -0.00923989, 0.0206768, -0.00581194, -0.00581194, -0.00581194
169, 1,0.00881206, 0.00114121, 0.000796794, 329.699, 66.3303, 0.0262875, 443.12, -143.693, 0.376371, 0.000982012, 0.00990427, 0.00715623, 395.343, -154.435, 0.0799453, 0.00098169, 0.00773263, 0.00569731, 264.424, -109.291, 0.0799453, 0.000980937, 31.5994, 39.3185, 392.388, 33.8701, 33.6969, 260.306, -0.00370673, -0.00348068, 0.00981027, -0.0028219, -0.0028219, -0.0028219
170, 1,0.0121685, 0.00160335, 0.00112189, 362.442, 92.3613, 0.0304278, 464.278, -150.092, 0.445873, 0.00101413, 0.0137375, 0.00962685, 454.535, -180.53, 0.139204, 0.00101406, 0.0106083, 0.00761363, 270.549, -116.262, 0.139204, 0.00101291, 44.2628, 51.263, 446.065, 43.8497, 41.9264, 263.009, -0.00525145, -0.00499997, 0.0134274, -0.00398304, -0.00398304, -0.00398304
171, 1,0.0143515, 0.00191499, 0.00132914, 362.734, 107.964, 0.0332847, 467.51, -141.624, 0.494893, 0.00104657, 0.0162306, 0.0117599, 470.485, -172.359, 0.178872, 0.0010465, 0.0124815, 0.00935811, 255.164, -96.3469, 0.178872, 0.00104506, 31.6878, 26.4143, 458.976, 26.3768, 16.6136, 246.05, -0.00614664, -0.00648845, 0.0157419, -0.00467755, -0.00467755, -0.00467755
172, 1,0.0156674, 0.00201333, 0.00140783, 355.63, 111.22, 0.0354604, 473.498, -149.513, 0.534792, 0.00108008, 0.0176449, 0.0129976, 466.677, -164.65, 0.205624, 0.0010796, 0.0136987, 0.0104051, 244.736, -87.399, 0.205624, 0.00107807, 16.4349, 17.5989, 459.917, 14.4664, 8.63216, 239.099, -0.00715718, -0.00716893, 0.0173441, -0.00556573, -0.00556573, -0.00556573
173, 1,0.00446936, 0.000912327, 0.000638803, 267.178, 57.524, 0.0273643, 466.642, -155.16, 0.388668, 0.000980947, 0.00535384, 0.00387252, 322.684, -95.6278, 0, 0.000979317, 0.00359825, 0.00264462, 212.651, -58.011, 0, 0.000978719, -37.7217, 6.62527, 317.98, -31.2972, 1.10677, 204.223, -0.00230411, -0.00142153, 0.00527722, -0.00157611, -0.00157611, -0.00157611
174, 1,0.00785656, 0.00128152, 0.000918785, 320.457, 76.2373, 0.0317753, 483.132, -166.855, 0.466967, 0.00101331, 0.00911065, 0.00660736, 396.067, -137.304, 0.0590236, 0.00101193, 0.0066123, 0.00481485, 245.245, -87.8176, 0.0590236, 0.00101109, -11.5494, 43.4537, 380.008, 0.0135467, 33.4328, 230.007, -0.00404645, -0.00236391, 0.00871402, -0.00294246, -0.00294246, -0.00294246
175, 1,0.0104884, 0.00159051, 0.00112073, 345.035, 91.754, 0.0349938, 484.954, -168.245, 0.526358, 0.00104616, 0.0120343, 0.00856393, 436.289, -163.079, 0.108636, 0.00104506, 0.00895686, 0.006379, 254.168, -101.708, 0.108636, 0.00104395, 15.6996, 57.556, 415.983, 22.6283, 45.4875, 237.008, -0.00507269, -0.00347128, 0.0113607, -0.00378674, -0.00378674, -0.00378674
176, 1,0.0119051, 0.00171017, 0.00119496, 347.353, 99.9646, 0.0367518, 479.509, -158.501, 0.558505, 0.00107917, 0.0135885, 0.00973655, 447.087, -163.888, 0.134193, 0.00107824, 0.0102298, 0.00742479, 247.812, -93.8815, 0.134091, 0.00107692, 15.3672, 34.8279, 441.47, 16.3142, 22.7759, 242.554, -0.00566086, -0.0048646, 0.0133998, -0.00431995, -0.00431995, -0.00431995
177, 1,0.00389428, 0.000733553, 0.000502873, 239.707, 45.8746, 0.0301936, 476.62, -156.968, 0.437766, 0.000979738, 0.00461773, 0.00319063, 284.588, -92.9374, -8.67362E-19, 0.000977916, 0.00317555, 0.00220556, 195.305, -64.0894, -8.67362E-19, 0.000977458, -10.0902, 5.60993, 283.293, -5.8703, 5.82539, 192.313, -0.00167799, -0.00141825, 0.00460421, -0.00113475, -0.00113475, -0.00113475
178, 1,0.00465351, 0.000987059, 0.000710469, 271.115, 60.3811, 0.0333224, 477.161, -156.152, 0.495178, 0.00101217, 0.00563592, 0.00422977, 330.784, -88.7623, 0.00126016, 0.00101008, 0.00367363, 0.00281578, 211.835, -52.2191, 0.000864115, 0.00100948, -64.3972, 20.7623, 309.922, -51.441, 15.9862, 192.112, -0.00280208, -0.00109019, 0.00533344, -0.001941, -0.001941, -0.001941
179, 1,0.00582349, 0.00125496, 0.000892163, 296.303, 75.0857, 0.0355032, 478.965, -158.273, 0.535416, 0.00104523, 0.00706713, 0.00522239, 370.568, -104.151, 0.0187105, 0.00104319, 0.00458603, 0.00345754, 222.569, -58.2681, 0.0178627, 0.00104241, -56.2, 25.8694, 342.784, -41.8964, 19.1567, 197.544, -0.00337358, -0.00148027, 0.0065615, -0.00231965, -0.00231965, -0.00231965
180, 1,0.00770611, 0.00145446, 0.00100724, 321.031, 87.5747, 0.0382752, 479.092, -156.854, 0.585766, 0.00107885, 0.00914904, 0.00656864, 408.237, -131.822, 0.0526708, 0.00107715, 0.00626829, 0.00457747, 234.093, -73.704, 0.0518671, 0.00107611, -21.7109, 18.4623, 398.714, -15.0578, 10.9907, 225.179, -0.00394378, -0.00280689, 0.0089542, -0.0028304, -0.0028304, -0.0028304
181, 1,0.00313926, 0.000596686, 0.000409449, 178.585, 36.7898, 0.0303923, 478.451, -159.991, 0.441902, 0.000978931, 0.00373131, 0.00264052, 214.764, -57.9565, 0, 0.000976481, 0.00254936, 0.00183065, 142.71, -36.304, 0, 0.000976138, -17.2511, -22.8765, 213.997, -14.5155, -17.5036, 140.931, -0.00127872, -0.00149784, 0.00371689, -0.000880205, -0.000880205, -0.000880205
182, 1,0.00353932, 0.000760578, 0.000536549, 217.407, 47.0507, 0.0330686, 476.37, -155.232, 0.490877, 0.00101213, 0.00429846, 0.00312804, 264.013, -82.664, 0, 0.00100998, 0.00278094, 0.00206302, 171.063, -54.7029, 0, 0.00100952, -28.5887, 27.1997, 249.381, -19.9908, 26.3278, 157.772, -0.00191092, -0.00087243, 0.00412459, -0.00128898, -0.00128898, -0.00128898
183, 1,0.00406688, 0.000986106, 0.000692936, 245.46, 60.8584, 0.035079, 477.227, -156.079, 0.528381, 0.00104562, 0.00505103, 0.00368788, 305.735, -88.0527, 0, 0.00104337, 0.00308402, 0.0023055, 185.579, -51.8, 0, 0.00104275, -44.2784, 25.628, 282.809, -33.4849, 23.2563, 165.629, -0.00232406, -0.000985602, 0.00473837, -0.00152511, -0.00152511, -0.00152511
184, 1,0.00490866, 0.00121261, 0.00083007, 299.967, 75.6379, 0.0377097, 476.265, -152.757, 0.575722, 0.00107921, 0.00611893, 0.00427846, 375.18, -120.457, 0.00206801, 0.00107739, 0.0036999, 0.00262577, 225.043, -71.2287, 0.00140994, 0.00107653, -21.8978, 18.7582, 364.509, -17.046, 15.7785, 214.954, -0.00240704, -0.00163179, 0.00599559, -0.00151214, -0.00151214, -0.00151214
185, 1,0.0021887, 0.000511586, 0.00035693, 130.106, 31.656, 0.0273183, 484.182, -171.883, 0.385755, 0.000978729, 0.00269732, 0.00188901, 161.244, -52.3976, 0, 0.000976086, 0.00168194, 0.0011902, 99.3443, -33.7472, 0, 0.000975791, -1.04616, -2.32073, 160.56, 0.0597947, 3.70679, 97.4752, -0.000848395, -0.000985258, 0.00268383, -0.000531581, -0.000531581, -0.000531581
186, 1,0.00263159, 0.000618522, 0.00042336, 153.729, 38.6163, 0.0309238, 489.04, -178.175, 0.453725, 0.00101258, 0.00324898, 0.00233418, 191.866, -55.4771, 0, 0.00100957, 0.00201487, 0.00149001, 115.918, -32.1626, 0, 0.00100919, -23.8281, 8.52968, 181.73, -19.794, 10.2975, 105.984, -0.00138182, -0.000868227, 0.00315014, -0.000929594, -0.000929594, -0.000929594
187, 1,0.00334251, 0.000801166, 0.000552101, 203.832, 50.0467, 0.0334069, 480.8, -163.358, 0.498813, 0.001046, 0.00414259, 0.00292464, 253.325, -78.114, 0, 0.00104348, 0.00254313, 0.00182297, 154.714, -47.5947, 0, 0.00104297, -21.8218, 20.2924, 235.871, -16.2916, 20.1711, 138.905, -0.00169261, -0.000974465, 0.00393449, -0.0010953, -0.0010953, -0.0010953
188, 1,0.00418046, 0.00101918, 0.000690375, 262.929, 64.4916, 0.0362284, 480.221, -160.402, 0.549869, 0.00107964, 0.00519838, 0.0035589, 326.957, -108.244, 0, 0.00107748, 0.00316335, 0.00218057, 199.216, -66.8324, 0, 0.00107676, -9.29714, 17.7308, 316.299, -6.22815, 17.8372, 188.888, -0.00189197, -0.00144273, 0.00509102, -0.00117536, -0.00117536, -0.00117536
189, 1,0.0017329, 0.000459673, 0.000322389, 96.6906, 28.4594, 0.0188152, 475.637, -163.637, 0.22341, 0.000977873, 0.00218957, 0.00159909, 124.723, -33.5785, 0, 0.000975443, 0.00127833, 0.000959877, 68.9798, -16.6222, 0, 0.000975174, -4.80031, -18.8184, 124.354, -4.45302, -13.3488, 67.6683, -0.000632223, -0.00100506, 0.00218213, -0.000357982, -0.000357982, -0.000357982
190, 1,0.00226718, 0.000548691, 0.000374139, 131.422, 34.4807, 0.0229818, 493.123, -190.526, 0.305599, 0.00101206, 0.00281493, 0.00193642, 165.597, -50.2446, 0, 0.00100912, 0.00172005, 0.00121079, 97.4712, -28.6822, 0, 0.00100876, -12.1792, 2.65826, 160.255, -10.7792, 4.83847, 91.9872, -0.0010528, -0.000895861, 0.00276391, -0.000683796, -0.000683796, -0.000683796
191, 1,0.00283426, 0.000689632, 0.000466033, 169.409, 43.2374, 0.0276356, 510.247, -215.158, 0.394799, 0.00104641, 0.0035223, 0.00243657, 212.112, -65.4623, 0, 0.00104284, 0.00214726, 0.0015092, 127.081, -38.7298, 0, 0.00104239, -13.9779, 10.6496, 199.715, -11.4801, 12.5166, 115.153, -0.00132669, -0.000987481, 0.00337632, -0.000853172, -0.000853172, -0.000853172
192, 1,0.00355291, 0.000869589, 0.000587414, 219.389, 54.8119, 0.0314725, 495.763, -188.277, 0.464001, 0.00107964, 0.00442087, 0.00301117, 273.665, -87.3189, 0, 0.00107672, 0.00268603, 0.00184609, 165.479, -52.7581, 0, 0.00107612, -9.2189, 7.25302, 263.923, -7.55584, 10.3187, 155.512, -0.00156251, -0.0013431, 0.00432239, -0.000983568, -0.000983568, -0.000983568
193, 1,0.00141383, 0.000413627, 0.000291742, 80.6242, 25.4568, 0.00971364, 443.556, -119.263, 0.0439462, 0.00097648, 0.00182637, 0.00135773, 105.899, -28.5642, 0, 0.000974996, 0.00100217, 0.000776842, 55.4982, -13.4353, 0, 0.000974757, -1.03439, -19.1107, 105.838, -0.85261, -13.9549, 55.1135, -0.000473361, -0.000885279, 0.00182214, -0.0002313, -0.0002313, -0.0002313
194, 1,0.00184988, 0.00051317, 0.000350622, 105.458, 32.058, 0.0117721, 444.734, -119.919, 0.0845639, 0.00101001, 0.00236019, 0.00163887, 137.167, -37.8493, 0, 0.00100857, 0.00134168, 0.000960485, 74.0227, -17.6491, 0, 0.00100824, -11.3304, -7.95981, 132.838, -10.7497, -5.46016, 69.1572, -0.000838089, -0.000850415, 0.00230266, -0.000507737, -0.000507737, -0.000507737
195, 1,0.00240484, 0.00063248, 0.000428701, 141.556, 39.5902, 0.0149692, 460.005, -140.837, 0.147494, 0.00104398, 0.00303308, 0.00209622, 180.644, -53.6675, 0, 0.00104229, 0.0017796, 0.00126157, 102.843, -28.6486, 0, 0.00104187, -11.0963, 0.360728, 171.738, -10.2963, 2.48607, 93.7561, -0.00107975, -0.000952177, 0.00290273, -0.000668989, -0.000668989, -0.000668989
196, 1,0.00302954, 0.000771017, 0.000526533, 186.12, 48.2102, 0.0190069, 477.128, -165.549, 0.226862, 0.00107818, 0.00379708, 0.00258485, 233.787, -73.9539, 0, 0.00107616, 0.00226442, 0.00154778, 138.841, -43.8358, 0, 0.00107564, -4.74256, 0.778957, 225.825, -3.97697, 5.24561, 130.239, -0.00126031, -0.00123707, 0.00369732, -0.000770208, -0.000770208, -0.000770208
197, 1,0.00127387, 0.000372628, 0.000263595, 76.082, 22.8899, 0.00604873, 364.891, -106.056, 0, 0.000975947, 0.00164634, 0.00118492, 98.9411, -29.7739, 0, 0.00097474, 0.000901534, 0.000657969, 53.2492, -16.1614, 0, 0.000974525, 1.43318, -10.9161, 98.8046, 1.48341, -6.20153, 53.2023, -0.000439506, -0.000712963, 0.0016356, -0.000224081, -0.000224081, -0.000224081
198, 1,0.00152378, 0.000472526, 0.000323563, 90.7854, 29.4226, 0.00621921, 356.872, -84.4238, 0, 0.00100909, 0.00199464, 0.00138779, 120.015, -36.4315, 0, 0.00100831, 0.00105435, 0.000745384, 61.7313, -17.8925, 0, 0.00100801, -2.81999, -5.24738, 117.362, -2.49207, -2.71041, 58.8799, -0.000634479, -0.000731068, 0.00195669, -0.000335581, -0.000335581, -0.000335581
199, 1,0.00195402, 0.000589004, 0.000400476, 114.573, 36.7472, 0.00675227, 373.124, -72.4542, 0, 0.0010424, 0.00253843, 0.00175437, 150.927, -43.3407, 0, 0.00104191, 0.00137346, 0.000975974, 78.5598, -19.9761, 0, 0.00104151, -9.95117, -4.58323, 144.557, -9.57576, -2.49256, 71.9965, -0.000892764, -0.000836236, 0.00243226, -0.00051694, -0.00051694, -0.00051694
200, 1,0.00255744, 0.00071499, 0.00048925, 157.36, 44.5587, 0.00806962, 435.014, -110.192, 0.0120071, 0.00107662, 0.00326744, 0.00224609, 201.467, -63.8949, 0, 0.0010758, 0.00185126, 0.00128463, 113.606, -35.7514, 0, 0.00107531, -1.10174, -3.0384, 195.825, -0.933713, 0.915106, 107.273, -0.00102894, -0.00111432, 0.00318003, -0.000582327, -0.000582327, -0.000582327
201, 1,0.00112924, 0.000341906, 0.000244423, 67.0536, 20.8638, 0.0042707, 257.713, -75.0184, 0, 0.000975226, 0.00147108, 0.00106817, 87.8826, -25.7088, 0, 0.000974446, 0.000787468, 0.000579534, 46.2556, -13.5328, 0, 0.000974253, 0.777673, -11.409, 87.7579, 0.806326, -6.44863, 46.2408, -0.000388841, -0.00065629, 0.0014623, -0.000196491, -0.000196491, -0.000196491
202, 1,0.00140885, 0.000432909, 0.000296896, 85.6709, 26.9439, 0.00434721, 262.013, -75.8859, 0, 0.00100878, 0.00184099, 0.00126629, 112.527, -35.6993, 0, 0.00100812, 0.000977377, 0.000674798, 58.8948, -18.7012, 0, 0.00100784, -0.835923, -3.24525, 111.179, -0.706651, -0.725267, 57.5356, -0.000580371, -0.000663214, 0.00182286, -0.000309946, -0.000309946, -0.000309946
203, 1,0.0017774, 0.000543202, 0.000369363, 109.545, 33.8991, 0.00493132, 298.814, -88.2477, 0, 0.00104252, 0.00231899, 0.00157453, 143.275, -46.5434, 0, 0.00104182, 0.00123723, 0.000840729, 75.9702, -24.9329, 0, 0.00104145, -0.0369251, 0.0802925, 139.587, 0.183025, 2.13962, 72.4761, -0.000733702, -0.000770393, 0.00225933, -0.000388763, -0.000388763, -0.000388763
204, 1,0.00229254, 0.000666536, 0.000456933, 140.966, 41.4782, 0.00603266, 375.09, -120.905, 0, 0.00107665, 0.00295598, 0.00203386, 182.15, -57.6375, 0, 0.00107555, 0.00163161, 0.00112898, 100.024, -31.4875, 0, 0.00107509, -0.316732, -5.33778, 178.567, -0.175335, -1.34447, 95.9823, -0.000914423, -0.00105164, 0.00290131, -0.00049969, -0.00049969, -0.00049969
205, 1,0.000996007, 0.000313759, 0.000227541, 58.4399, 18.983, 0.00302214, 177.483, -46.4873, 0, 0.000974602, 0.00130962, 0.000961417, 77.381, -21.6044, 0, 0.000974209, 0.00068252, 0.000506701, 39.5383, -10.8308, 0, 0.000974038, -0.283158, -12.1074, 77.2038, -0.260606, -6.77243, 39.5255, -0.00034635, -0.000603223, 0.00130015, -0.000176214, -0.000176214, -0.000176214
206, 1,0.00128967, 0.000399368, 0.000275616, 78.6048, 24.7548, 0.00313336, 187.108, -52.3282, 0, 0.00100825, 0.00168814, 0.00116925, 103.261, -32.447, 0, 0.00100793, 0.000891993, 0.000620507, 54.0391, -17.0188, 0, 0.00100768, -0.0275624, -4.81039, 102.179, 0.0613489, -1.81365, 52.8088, -0.000511866, -0.000635089, 0.00167346, -0.000267022, -0.000267022, -0.000267022
207, 1,0.00167573, 0.000503651, 0.000344111, 103.066, 31.3636, 0.00380683, 230.429, -67.7676, 0, 0.00104207, 0.00217785, 0.00148914, 134.278, -43.0413, 0, 0.00104165, 0.00117493, 0.000805343, 71.9888, -23.1731, 0, 0.00104131, -0.0537896, -2.31727, 131.495, 0.0809805, 0.224516, 69.2139, -0.000679127, -0.000755692, 0.00213323, -0.000363418, -0.000363418, -0.000363418
208, 1,0.00212548, 0.000622058, 0.000428827, 130.518, 38.6084, 0.00484012, 295.862, -90.1135, 0, 0.00107602, 0.00274504, 0.00189596, 168.889, -53.1537, 0, 0.00107537, 0.00150796, 0.00104531, 92.3442, -29.0024, 0, 0.00107495, -0.0138967, -6.84898, 166.324, 0.0517482, -2.38497, 89.3403, -0.000837501, -0.00100672, 0.00270671, -0.000455825, -0.000455825, -0.000455825
209, 1,0.000883892, 0.000286911, 0.00021177, 51.4836, 17.1867, 0.00249297, 147.696, -40.0798, 0, 0.000974318, 0.00117067, 0.000877012, 68.6301, -18.4741, 0, 0.000973977, 0.000597239, 0.000453837, 34.3764, -9.08554, 0, 0.000973829, 0.115491, -12.9684, 68.2753, 0.144022, -7.22748, 34.3401, -0.000288485, -0.000567958, 0.00115623, -0.000140038, -0.000140038, -0.000140038
210, 1,0.00117241, 0.000364771, 0.000253953, 71.4398, 22.508, 0.00253152, 151.968, -43.3545, 0, 0.00100795, 0.00153633, 0.00107119, 93.8523, -29.042, 0, 0.00100771, 0.000809255, 0.000565765, 49.1154, -15.2385, 0, 0.00100749, -0.0616473, -5.96287, 93.1505, 0.0130993, -2.4936, 48.1959, -0.000458826, -0.000597582, 0.00152766, -0.000239869, -0.000239869, -0.000239869
211, 1,0.00155097, 0.000464802, 0.000319886, 95.4357, 28.841, 0.00297294, 178.376, -50.802, 0, 0.00104165, 0.00201401, 0.0013852, 124.116, -39.391, 0, 0.00104146, 0.00108943, 0.000750421, 66.8943, -21.3303, 0, 0.00104115, 0.0686394, -3.85513, 121.96, 0.171209, -0.724317, 64.5441, -0.000619037, -0.000721666, 0.00197988, -0.000332462, -0.000332462, -0.000332462
212, 1,0.00199819, 0.000579497, 0.00040219, 122.431, 35.8389, 0.00380415, 229.827, -67.1795, 0, 0.00107552, 0.00257535, 0.00179093, 158.059, -49.2035, 0, 0.0010752, 0.00142293, 0.000993155, 86.9775, -27.0252, 0, 0.00107482, 0.0465577, -8.73201, 156.296, 0.0892606, -3.7387, 84.7249, -0.000774053, -0.000977191, 0.00254964, -0.000423918, -0.000423918, -0.000423918
213, 1,0.000789462, 0.000261019, 0.000197, 45.0817, 15.4388, 0.00220079, 130.755, -35.8789, 0, 0.000974067, 0.0010504, 0.000808937, 60.4881, -15.1284, 0, 0.000973739, 0.000528609, 0.00041519, 29.7073, -7.12675, 0, 0.000973612, -0.0322337, -14.3285, 59.7459, -0.00404853, -8.16661, 29.5509, -0.000238907, -0.000541251, 0.00102565, -0.000112314, -0.000112314, -0.000112314
214, 1,0.00105314, 0.000330291, 0.000232676, 63.8085, 20.2639, 0.00226664, 137.733, -41.0793, 0, 0.00100775, 0.00138264, 0.000977862, 83.9804, -25.3448, 0, 0.00100749, 0.000724374, 0.000514931, 43.7218, -13.1831, 0, 0.00100729, 0.0368059, -7.62997, 83.6277, 0.0932787, -3.6643, 43.1204, -0.000398432, -0.000569556, 0.00137925, -0.000205721, -0.000205721, -0.000205721
215, 1,0.00141839, 0.000425, 0.000295055, 87.0214, 26.2613, 0.00257959, 157.001, -47.0962, 0, 0.00104145, 0.00184164, 0.00127764, 113.124, -35.2813, 0, 0.00104125, 0.000996647, 0.000692664, 61.0558, -19.0817, 0, 0.00104097, -0.0923371, -5.68431, 111.62, -0.000159639, -1.97535, 59.2206, -0.00055765, -0.000688921, 0.00181906, -0.0003006, -0.0003006, -0.0003006
216, 1,0.00186543, 0.000537535, 0.000376633, 113.944, 33.0769, 0.00317558, 191.667, -55.8445, 0, 0.00107521, 0.00240033, 0.00168394, 146.798, -44.9841, 0, 0.00107502, 0.00133266, 0.000938087, 81.2701, -24.8589, 0, 0.00107467, 0.0967484, -10.7203, 145.576, 0.152291, -5.02376, 79.4482, -0.000706526, -0.000946851, 0.00238331, -0.000388441, -0.000388441, -0.000388441
217, 1,0.000705614, 0.000236088, 0.000183342, 39.2137, 13.7289, 0.00194937, 115.199, -30.9376, 0, 0.000973801, 0.00094167, 0.00075205, 52.9214, -11.9101, 0, 0.000973501, 0.000469592, 0.000385481, 25.5272, -5.31517, 0, 0.000973396, -0.012656, -15.7318, 51.4747, 0.0150175, -9.13776, 25.0683, -0.000187823, -0.000518324, 0.000899418, -8.3397E-05, -8.3397E-05, -8.3397E-05
218, 1,0.00093719, 0.0002959, 0.000211706, 56.1428, 18.0123, 0.00205441, 124.83, -37.2299, 0, 0.00100753, 0.00123244, 0.000887927, 74.076, -21.5419, 0, 0.00100727, 0.00064253, 0.000466566, 38.2837, -11.0477, 0, 0.0010071, -0.0373898, -9.33222, 73.9953, 0.00436549, -4.87418, 38.013, -0.000340117, -0.000542474, 0.00123215, -0.000173981, -0.000173981, -0.000173981
219, 1,0.00128316, 0.000384891, 0.0002702, 78.2709, 23.6554, 0.00235576, 143.9, -43.7305, 0, 0.00104125, 0.00166635, 0.00117018, 101.773, -31.0457, 0, 0.00104104, 0.000901418, 0.000634773, 54.9023, -16.7418, 0, 0.0010408, -0.121554, -7.62341, 100.882, -0.0413662, -3.3311, 53.598, -0.000491537, -0.000659066, 0.00165437, -0.000264595, -0.000264595, -0.000264595
220, 1,0.00172177, 0.000494794, 0.000350636, 104.571, 30.2702, 0.00284408, 171.97, -50.4527, 0, 0.00107501, 0.00221382, 0.00156984, 134.616, -40.3157, 0, 0.00107483, 0.00123191, 0.000876245, 74.7086, -22.2835, 0, 0.00107451, -0.136411, -12.8302, 133.914, -0.0757885, -6.45077, 73.3771, -0.000637857, -0.000913186, 0.00220522, -0.000352623, -0.000352623, -0.000352623
221, 1,0.000630768, 0.000212467, 0.000171195, 33.7409, 12.0723, 0.0017417, 101.673, -25.9429, 0, 0.000973546, 0.000843221, 0.000705681, 45.8012, -8.64414, 0, 0.000973273, 0.000418332, 0.000363359, 21.6925, -3.48218, 0, 0.000973191, -0.0405826, -17.2566, 43.2296, -0.0127152, -10.2153, 20.6745, -0.000136987, -0.000496944, 0.000774207, -5.51236E-05, -5.51236E-05, -5.51236E-05
222, 1,0.000825598, 0.000262144, 0.000191568, 48.6578, 15.7796, 0.00184001, 110.882, -32.1025, 0, 0.00100728, 0.00108725, 0.000803642, 64.3727, -17.742, 0, 0.00100705, 0.000564409, 0.000422151, 33.0038, -8.94039, 0, 0.00100691, -0.0432135, -11.0834, 64.3527, -0.0143948, -6.1221, 32.9577, -0.000280404, -0.000516885, 0.00108519, -0.000141199, -0.000141199, -0.000141199
223, 1,0.00114885, 0.000344866, 0.000245648, 69.448, 21.0401, 0.00212563, 128.873, -38.1589, 0, 0.00104103, 0.00149214, 0.00106472, 90.3446, -26.7317, 0, 0.00104084, 0.000806913, 0.000578068, 48.6754, -14.3523, 0, 0.00104063, -0.169672, -9.61068, 89.9756, -0.100488, -4.74078, 47.8982, -0.0004246, -0.000629984, 0.00148834, -0.000228198, -0.000228198, -0.000228198
224, 1,0.001579, 0.000451995, 0.000324874, 95.1903, 27.4475, 0.00258648, 155.335, -44.4743, 0, 0.00107479, 0.00202822, 0.00145905, 122.413, -35.6572, 0, 0.00107464, 0.00113197, 0.000817046, 68.147, -19.7549, 0, 0.00107436, -0.13428, -15.0326, 122.138, -0.067655, -7.97514, 67.3075, -0.0005644, -0.000882861, 0.00202584, -0.000312583, -0.000312583, -0.000312583
225, 1,0.000565587, 0.000190601, 0.000161026, 28.7121, 10.4887, 0.00156115, 89.4318, -20.9507, 0, 0.000973289, 0.000756153, 0.00067142, 39.1954, -5.34192, 0, 0.000973043, 0.000375056, 0.000349501, 18.2344, -1.64126, 0, 0.000972984, -0.0531038, -18.8512, 34.9301, -0.0245108, -11.3573, 16.3056, -8.52375E-05, -0.000476147, 0.000648078, -2.63727E-05, -2.63727E-05, -2.63727E-05
226, 1,0.000719466, 0.000229534, 0.00017277, 41.3902, 13.5905, 0.00162774, 96.7553, -26.5979, 0, 0.00100704, 0.00094864, 0.000726827, 54.9307, -13.8836, 0, 0.00100683, 0.000490629, 0.000382543, 27.8972, -6.80031, 0, 0.00100671, -0.0519848, -12.9123, 54.615, -0.0334159, -7.44017, 27.8745, -0.000219813, -0.000491858, 0.000936959, -0.000107886, -0.000107886, -0.000107886
227, 1,0.00101754, 0.000305474, 0.00022193, 60.7551, 18.4431, 0.0018896, 113.249, -32.1568, 0, 0.0010408, 0.00132158, 0.000963736, 79.0671, -22.4035, 0, 0.00104064, 0.000714736, 0.00052411, 42.5563, -11.9758, 0, 0.00104046, -0.158773, -11.6448, 79.014, -0.0976303, -6.19478, 42.2199, -0.00035618, -0.000601603, 0.00132131, -0.000190686, -0.000190686, -0.000190686
228, 1,0.00143868, 0.000409719, 0.000299893, 85.8613, 24.636, 0.00233265, 138.463, -37.9281, 0, 0.00107456, 0.00184559, 0.00135215, 110.274, -30.9236, 0, 0.00107444, 0.00103398, 0.000760181, 61.6256, -17.1841, 0, 0.0010742, -0.154168, -17.3123, 110.237, -0.0814731, -9.57722, 61.2109, -0.000490241, -0.00085319, 0.0018452, -0.000272354, -0.000272354, -0.000272354
229, 1,0.000511379, 0.000171113, 0.000153464, 24.1767, 9.00734, 0.00140029, 78.1171, -15.9551, 0, 0.000973036, 0.000682412, 0.000651453, 33.1818, -1.97779, 0, 0.000972816, 0.00034042, 0.000344783, 15.1739, 0.23218, 0, 0.000972781, -0.0673881, -20.5, 26.5007, -0.0372837, -12.552, 11.8927, -3.25399E-05, -0.000455217, 0.000519862, 2.88026E-06, 2.88026E-06, 2.88026E-06
230, 1,0.00062197, 0.000198833, 0.000156073, 34.5093, 11.4818, 0.00142206, 82.8208, -20.9322, 0, 0.00100679, 0.00082055, 0.000661295, 45.9542, -9.98466, 0, 0.00100661, 0.000423631, 0.00035009, 23.0993, -4.64568, 0, 0.00100653, -0.0481192, -14.787, 44.7891, -0.0365843, -8.80019, 22.7738, -0.000158303, -0.000466942, 0.000787267, -7.3996E-05, -7.3996E-05, -7.3996E-05
231, 1,0.000891139, 0.00026735, 0.000199678, 52.2614, 15.8953, 0.00165568, 97.5312, -25.8937, 0, 0.00104057, 0.00115719, 0.000869602, 68.0381, -18.022, 0, 0.00104044, 0.000626197, 0.000474065, 36.5868, -9.57284, 0, 0.00104029, -0.15916, -13.7291, 67.9542, -0.103157, -7.6953, 36.517, -0.000287155, -0.000573262, 0.00115285, -0.000152928, -0.000152928, -0.000152928
232, 1,0.00130081, 0.000368513, 0.000276234, 76.5988, 21.8628, 0.00208549, 121.751, -31.1738, 0, 0.00107435, 0.00166645, 0.00124998, 98.2384, -26.1071, 0, 0.00107426, 0.0009374, 0.000705482, 55.1351, -14.5618, 0, 0.00107406, -0.179834, -19.6432, 98.1444, -0.100836, -11.231, 55.0172, -0.000414897, -0.000823081, 0.0016616, -0.000231431, -0.000231431, -0.000231431
233, 1,0.000469889, 0.000154674, 0.000149189, 20.2214, 7.66023, 0.00125687, 67.5592, -10.8687, 0, 0.000972787, 0.000624451, 0.00064826, 27.8804, 1.44709, 0, 0.000972593, 0.000315426, 0.00035023, 12.5638, 2.13649, 0, 0.000972582, -0.0798462, -22.1793, 17.9179, -0.0472795, -13.7802, 7.41797, 2.11585E-05, -0.000433743, 0.000389116, 3.26837E-05, 3.26837E-05, 3.26837E-05
234, 1,0.000537076, 0.000171101, 0.000142537, 28.1987, 9.50429, 0.0012304, 69.4941, -15.1928, 0, 0.00100655, 0.000707986, 0.000612026, 37.6761, -6.03541, 0, 0.0010064, 0.000366353, 0.000327702, 18.7471, -2.46675, 0, 0.00100634, -0.0501387, -16.6964, 34.8528, -0.0424863, -10.1942, 17.6369, -9.61189E-05, -0.000441766, 0.000635824, -3.97735E-05, -3.97735E-05, -3.97735E-05
235, 1,0.000772422, 0.000231351, 0.00017975, 44.1021, 13.4381, 0.00143305, 82.2964, -19.5626, 0, 0.00104033, 0.00100259, 0.000786038, 57.4331, -13.5884, 0, 0.00104023, 0.000543252, 0.000429988, 30.8631, -7.14443, 0, 0.00104012, -0.163562, -15.8494, 56.7783, -0.109976, -9.23091, 30.7742, -0.000217391, -0.000544662, 0.000982545, -0.000114793, -0.000114793, -0.000114793
236, 1,0.00116795, 0.000329031, 0.000254546, 67.5436, 19.1595, 0.00185063, 105.539, -24.3106, 0, 0.00107413, 0.00149402, 0.0011555, 86.4778, -21.2312, 0, 0.00107407, 0.000844172, 0.000654614, 48.7856, -11.9111, 0, 0.00107391, -0.203336, -21.9963, 85.8932, -0.117708, -12.9133, 48.7642, -0.000338569, -0.000792273, 0.00147534, -0.000190007, -0.000190007, -0.000190007
237, 1,0.000442018, -0.000155705, 0.000148791, 16.8886, -7.77035, 0.00113304, 57.8248, -5.64778, 0, 0.000972534, 0.000583793, 0.00066337, 23.3633, 4.93549, 0, 0.000972367, 0.000300333, 0.000366105, 10.4153, 4.07435, 0, 0.000972381, -0.0942559, -23.8744, 9.16215, -0.0583156, -15.0298, 2.86508, 7.58183E-05, -0.000411414, 0.000255523, 6.2996E-05, 6.2996E-05, 6.2996E-05
238, 1,0.000469057, 0.000147653, 0.000133478, 22.6645, 7.72114, 0.00106073, 57.1389, -9.3632, 0, 0.0010063, 0.000616541, 0.000584634, 30.3641, -2.03516, 0, 0.00100618, 0.000321744, 0.000318351, 14.9858, -0.262857, 0, 0.00100615, -0.0575888, -18.6237, 24.7868, -0.0507883, -11.6086, 12.448, -3.32432E-05, -0.000416003, 0.000482276, -5.20574E-06, -5.20574E-06, -5.20574E-06
239, 1,0.000665503, 0.000198666, 0.000163334, 36.4716, 11.1289, 0.00123102, 67.9871, -13.1663, 0, 0.0010401, 0.000863078, 0.000718315, 47.5022, -9.10408, 0, 0.00104003, 0.000468852, 0.000394821, 25.525, -4.69167, 0, 0.00103995, -0.172458, -17.9899, 45.4746, -0.118654, -10.7896, 24.9833, -0.000146919, -0.000515529, 0.000810176, -7.63119E-05, -7.63119E-05, -7.63119E-05
240, 1,0.00104267, 0.000292147, 0.000235702, 58.8117, 16.5681, 0.0016352, 90.2065, -17.3944, 0, 0.0010739, 0.00133171, 0.00107218, 75.1489, -16.2898, 0, 0.00107389, 0.000756022, 0.000609369, 42.6538, -9.22594, 0, 0.00107376, -0.227796, -24.3646, 73.4619, -0.135218, -14.6199, 42.4329, -0.000261231, -0.000760569, 0.00128612, -0.000148052, -0.000148052, -0.000148052
241, 1,0.000427569, -0.000172162, 0.000152612, 14.1672, -9.13631, 0.00103248, 49.0734, -0.271909, 0, 0.000972284, 0.000560572, 0.000696926, 19.6363, 8.48738, 0, 0.000972145, 0.000294619, 0.000391893, 8.70018, 6.04562, 0, 0.000972184, -0.109808, -25.5703, 0.218005, -0.0695498, -16.2887, -1.77858, 0.000131455, -0.000387958, 0.000118795, 9.38314E-05, 9.38314E-05, 9.38314E-05
242, 1,0.000421254, -0.000130603, 0.000130196, 18.0689, -6.27054, 0.0009218, 46.1621, -3.43505, 0, 0.00100606, 0.000550867, 0.00058378, 24.2427, 2.01622, 0, 0.00100597, 0.000291816, 0.000324062, 11.9152, 1.96621, 0, 0.00100597, -0.0701394, -20.5522, 14.5737, -0.0613164, -13.0304, 7.19306, 3.0331E-05, -0.000389335, 0.000326295, 2.97126E-05, 2.97126E-05, 2.97126E-05
243, 1,0.000575286, 0.000170806, 0.000151944, 29.6012, 9.04006, 0.00105941, 55.0704, -6.70973, 0, 0.00103986, 0.000745032, 0.000672847, 38.5473, -4.5677, 0, 0.00103983, 0.000406432, 0.000372021, 20.7348, -2.21337, 0, 0.00103979, -0.18587, -20.1353, 34.0243, -0.129335, -12.3595, 19.1289, -7.57236E-05, -0.000485557, 0.000635399, -3.74695E-05, -3.74695E-05, -3.74695E-05
244, 1,0.000928221, 0.000258926, 0.00022077, 50.556, 14.1399, 0.00144636, 76.0951, -10.4303, 0, 0.00107368, 0.00118383, 0.00100431, 64.4549, -11.2849, 0, 0.00107369, 0.000675161, 0.000571941, 36.8436, -6.50833, 0, 0.00107361, -0.251934, -26.7274, 60.834, -0.152022, -16.3344, 36.0114, -0.000182883, -0.000727609, 0.0010936, -0.000105571, -0.000105571, -0.000105571
245, 1,0.000425389, -0.000193072, 0.00016065, 11.9983, -10.7265, 0.000958608, 41.4614, 5.26342, 0, 0.000972035, 0.000553596, 0.000747739, 16.6393, 12.1028, 0, 0.000971927, 0.000297205, 0.00042652, 7.3614, 8.05054, 0, 0.000971991, -0.126406, -27.252, -8.92999, -0.0809654, -17.5449, -6.5258, 0.000188071, -0.000363093, -2.13523E-05, 0.000125193, 0.000125193, 0.000125193
246, 1,0.000394524, -0.00014866, 0.000133476, 14.4521, -7.81182, 0.000821075, 36.9119, 2.59677, 0, 0.00100581, 0.000512596, 0.000611109, 19.3897, 6.11936, 0, 0.00100575, 0.000276664, 0.00034494, 9.53842, 4.22102, 0, 0.00100578, -0.0874781, -22.4656, 4.19503, -0.0738012, -14.4464, 1.85719, 9.46194E-05, -0.000361444, 0.000167536, 6.4995E-05, 6.4995E-05, 6.4995E-05
247, 1,0.000506552, 0.000149321, 0.00014713, 23.7169, 7.24592, 0.000927442, 43.9797, -0.189705, 0, 0.00103963, 0.000654767, 0.000655951, 30.867, 0.0206284, 0, 0.00103963, 0.000359261, 0.000364862, 16.6475, 0.290355, 0, 0.00103962, -0.203086, -22.2667, 22.4079, -0.141391, -13.9257, 13.196, -3.79007E-06, -0.000454386, 0.000457842, 1.74417E-06, 1.74417E-06, 1.74417E-06
248, 1,0.000828286, 0.000230563, 0.000210942, 42.9475, 11.9321, 0.00129095, 63.5324, -3.42343, 0, 0.00107346, 0.00105526, 0.000956782, 54.6235, -6.21565, 0, 0.0010735, 0.000604085, 0.000544834, 31.4697, -3.75744, 0, 0.00107346, -0.275763, -29.0653, 47.988, -0.168303, -18.0419, 29.4826, -0.000103517, -0.000693016, 0.000897387, -6.25534E-05, -6.25534E-05, -6.25534E-05
249, 1,0.000433822, -0.000218127, 0.000172595, 10.2984, -12.5264, 0.000912937, 35.0593, 10.9603, 0, 0.00097178, 0.000560858, 0.000813806, 14.2728, 15.7821, 0, 0.000971704, 0.000306814, 0.000468714, 6.33292, 10.0894, 0, 0.000971794, -0.144181, -28.9044, -18.2978, -0.0925889, -18.7858, -11.3899, 0.000245669, -0.000336535, -0.000165211, 0.000157086, 0.000157086, 0.000157086
250, 1,0.000386985, -0.000173351, 0.000143195, 11.7204, -9.68019, 0.000761633, 29.5334, 8.73231, 0, 0.00100556, 0.000499689, 0.00066459, 15.705, 10.2744, 0, 0.00100554, 0.000274581, 0.000379285, 7.7682, 6.50173, 0, 0.0010056, -0.109087, -24.3463, -6.3679, -0.0878637, -15.8427, -3.57465, 0.000159635, -0.000331994, 5.64849E-06, 0.000100652, 0.000100652, 0.000100652
251, 1,0.000462113, -0.000164576, 0.000149896, 18.9511, -8.5529, 0.000840699, 34.9809, 6.39157, 0, 0.00103939, 0.000596091, 0.000671448, 24.6411, 4.66143, 0, 0.00103942, 0.000329161, 0.000375176, 13.3485, 2.82002, 0, 0.00103945, -0.223757, -24.365, 10.6044, -0.154613, -15.4732, 7.16778, 6.8896E-05, -0.000421645, 0.000277113, 4.1341E-05, 4.1341E-05, 4.1341E-05
252, 1,0.000746499, 0.000208148, 0.000207312, 36.1545, 9.99681, 0.00117399, 52.7568, 3.62637, 0, 0.00107323, 0.000950738, 0.000934352, 45.8764, -1.08134, 0, 0.00107331, 0.000545299, 0.000530563, 26.6469, -0.972731, 0, 0.00107331, -0.299287, -31.3576, 34.9009, -0.183954, -19.7261, 22.8283, -2.31192E-05, -0.000656386, 0.000697049, -1.89906E-05, -1.89906E-05, -1.89906E-05
253, 1,0.00045113, -0.000246836, 0.000187961, 8.98209, -14.5122, 0.000894669, 29.8298, 16.8187, 0, 0.000971534, 0.000580114, 0.000892883, 12.4274, 19.5252, 0, 0.000971492, 0.000322229, 0.00051726, 5.55351, 12.1623, 0, 0.000971608, -0.162878, -30.5112, -27.9015, -0.104266, -19.9984, -16.3843, 0.00030425, -0.000307982, -0.000313083, 0.000189513, 0.000189513, 0.000189513
254, 1,0.000395189, -0.000203792, 0.000158468, 9.70526, -11.8334, 0.000740771, 23.9021, 14.9681, 0, 0.00100534, 0.000507799, 0.000739884, 12.9778, 14.4817, 0, 0.00100535, 0.000283028, 0.000424566, 6.47784, 8.80869, 0, 0.00100544, -0.134366, -26.1758, -17.135, -0.103166, -17.2044, -9.11849, 0.000225394, -0.000300635, -0.000159739, 0.000136695, 0.000136695, 0.000136695
255, 1,0.000441479, -0.000191951, 0.000160197, 15.2798, -10.6472, 0.000798391, 28.0388, 13.0311, 0, 0.00103916, 0.000568477, 0.000718817, 19.8442, 9.35517, 0, 0.00103922, 0.000315668, 0.000402507, 10.8145, 5.37606, 0, 0.00103929, -0.247702, -26.41, -1.40786, -0.168907, -16.986, 1.02674, 0.000142346, -0.000386946, 9.28017E-05, 8.13294E-05, 8.13294E-05, 8.13294E-05
256, 1,0.000685601, -0.000228763, 0.000210565, 30.3032, -11.7782, 0.00109724, 43.851, 10.7191, 0, 0.00107301, 0.000873748, 0.000940504, 38.3747, 4.11878, 0, 0.00107313, 0.000500779, 0.000531115, 22.4646, 1.84641, 0, 0.00107317, -0.322398, -33.5825, 21.5486, -0.198923, -21.3696, 16.0293, 5.83228E-05, -0.000617289, 0.000492131, 2.5128E-05, 2.5128E-05, 2.5128E-05
257, 1,0.000475754, -0.000278662, 0.000206211, 7.97398, -16.6578, 0.000901252, 25.655, 22.8362, 0, 0.000971289, 0.000609273, 0.00098287, 11.0025, 23.3307, 0, 0.000971282, 0.000342418, 0.000571123, 4.97271, 14.2687, 0, 0.000971424, -0.181255, -32.0535, -37.7575, -0.11527, -21.1677, -21.5232, 0.000363823, -0.000277095, -0.000465295, 0.000222482, 0.000222482, 0.000222482
258, 1,0.000415564, -0.000238824, 0.000178135, 8.234, -14.2156, 0.000751893, 19.7126, 21.2966, 0, 0.0010051, 0.00053221, 0.00083229, 10.9814, 18.7417, 0, 0.00100514, 0.000299564, 0.000478352, 5.54773, 11.1424, 0, 0.00100526, -0.163009, -27.9353, -28.1268, -0.119615, -18.5165, -14.791, 0.000291912, -0.000267006, -0.000329012, 0.000173133, 0.000173133, 0.000173133
259, 1,0.000441376, -0.00022606, 0.00017703, 12.5476, -13.0728, 0.000794127, 22.8578, 19.7201, 0, 0.00103892, 0.000567677, 0.000793815, 16.2748, 14.1021, 0, 0.00103902, 0.000316465, 0.000444539, 8.93464, 7.95864, 0, 0.00103912, -0.274748, -28.3801, -13.6515, -0.184176, -18.4466, -5.24512, 0.000216566, -0.000349877, -9.55134E-05, 0.000121714, 0.000121714, 0.000121714
260, 1,0.000646621, -0.000258229, 0.000220746, 25.4407, -14.0735, 0.00105863, 36.715, 17.8574, 0, 0.00107278, 0.000825407, 0.000976367, 32.1704, 9.38531, 0, 0.00107293, 0.000471425, 0.000547393, 18.9628, 4.70049, 0, 0.00107301, -0.344879, -35.7174, 7.90634, -0.213051, -22.9544, 9.06596, 0.000140823, -0.000575285, 0.000282171, 6.98137E-05, 6.98137E-05, 6.98137E-05
261, 1,0.000506441, -0.000313122, 0.000226864, 7.21286, -18.9397, 0.000929577, 22.3932, 29.007, 0, 0.000971065, 0.000646617, 0.00108207, 9.91469, 27.1999, 0, 0.000971094, 0.000366584, 0.000629528, 4.5509, 16.4098, 0, 0.000971264, -0.199027, -33.513, -47.8879, -0.125497, -22.2796, -26.8243, 0.00042441, -0.000243499, -0.000622262, 0.000256011, 0.000256011, 0.000256011
262, 1,0.000445165, -0.000277395, 0.000201142, 7.16631, -16.7763, 0.000787683, 16.6376, 27.6941, 0, 0.00100487, 0.000568957, 0.000937844, 9.52687, 23.0546, 0, 0.00100494, 0.000322241, 0.000538698, 4.88457, 13.5029, 0, 0.0010051, -0.195185, -29.605, -39.3636, -0.137403, -19.763, -20.6083, 0.000359185, -0.000230728, -0.000502546, 0.000209964, 0.000209964, 0.000209964
263, 1,0.000457464, -0.000265525, 0.000199017, 10.5492, -15.7636, 0.000819228, 19.0443, 26.4364, 0, 0.0010387, 0.000588001, 0.000890761, 13.6635, 18.9031, 0, 0.00103882, 0.000328536, 0.000498268, 7.56591, 10.5686, 0, 0.00103896, -0.305484, -30.2538, -26.1499, -0.201026, -19.8379, -11.6671, 0.000291558, -0.000310024, -0.000288261, 0.000162495, 0.000162495, 0.000162495
264, 1,0.000628616, -0.00029431, 0.00023729, 21.5228, -16.6955, 0.00105347, 31.1346, 25.0307, 0, 0.00107255, 0.000804224, 0.00104046, 27.1933, 14.719, 0, 0.00107273, 0.000456807, 0.000578978, 16.1209, 7.59018, 0, 0.00107285, -0.366822, -37.7391, -6.05112, -0.226516, -24.4616, 1.91761, 0.000224391, -0.000529921, 6.66939E-05, 0.000115073, 0.000115073, 0.000115073
265, 1,0.000542281, -0.00034984, 0.000249536, 6.65239, -21.34, 0.000977225, 19.9413, 35.3169, 0, 0.000970837, 0.000690863, 0.00118925, 9.09919, 31.1364, 0, 0.000970903, 0.000394175, 0.000691962, 4.25928, 18.588, 0, 0.0009711, -0.216896, -34.8742, -58.3182, -0.135183, -23.3224, -32.3063, 0.000486051, -0.000206827, -0.000784452, 0.000290134, 0.000290134, 0.000290134
266, 1,0.000481799, -0.00031869, 0.000226678, 6.40086, -19.4758, 0.000841693, 14.3927, 34.1328, 0, 0.00100463, 0.000615068, 0.00105357, 8.47566, 27.4185, 0, 0.00100474, 0.000349624, 0.000604182, 4.42277, 15.8889, 0, 0.00100493, -0.228403, -31.1617, -50.8655, -0.154157, -20.9257, -26.5868, 0.000427237, -0.000191391, -0.000680748, 0.000247213, 0.000247213, 0.000247213
267, 1,0.000485793, -0.000309073, 0.000224885, 9.10246, -18.6583, 0.000865077, 16.2124, 33.1506, 0, 0.00103846, 0.000624253, 0.00100444, 11.7691, 23.7545, 0, 0.00103862, 0.000349158, 0.000560954, 6.58371, 13.2028, 0, 0.0010388, -0.337172, -32.0036, -38.9227, -0.217002, -21.1368, -18.2545, 0.000367325, -0.000266926, -0.000485847, 0.000203675, 0.000203675, 0.000203675
268, 1,0.000629183, -0.000336088, 0.000259281, 18.439, -19.6003, 0.00107544, 26.8068, 32.244, 0, 0.00107231, 0.000806874, 0.00112946, 23.2889, 20.1194, 0, 0.00107252, 0.000455444, 0.000624391, 13.8716, 10.5149, 0, 0.00107268, -0.386914, -39.6224, -20.349, -0.23817, -25.8704, -5.43618, 0.000309049, -0.000480733, -0.000154782, 0.000160922, 0.000160922, 0.000160922
269, 1,0.000582623, -0.000388526, 0.000273931, 6.25837, -23.8448, 0.00104373, 18.2948, 41.7432, 0, 0.000970617, 0.000741075, 0.00130358, 8.50796, 35.1431, 0, 0.000970721, 0.000424816, 0.000758135, 4.07683, 20.8057, 0, 0.000970947, -0.230462, -36.1239, -69.0748, -0.140322, -24.2875, -37.9892, 0.000548881, -0.000166744, -0.00095238, 0.000324967, 0.000324967, 0.000324967
270, 1,0.000523836, -0.000362133, 0.000254165, 5.86438, -22.2864, 0.000910075, 12.8162, 40.5849, 0, 0.00100441, 0.000668355, 0.00117736, 7.72809, 31.8325, 0, 0.00100455, 0.000380624, 0.000673777, 4.11434, 18.2995, 0, 0.00100477, -0.255946, -32.5851, -62.6565, -0.163954, -21.9891, -32.7456, 0.000496189, -0.000148625, -0.00086409, 0.00028499, 0.00028499, 0.00028499
271, 1,0.000523111, -0.000355714, 0.000253646, 8.05907, -21.7088, 0.000924612, 14.0476, 39.8362, 0, 0.00103823, 0.000672213, 0.00113068, 10.3975, 28.6528, 0, 0.00103842, 0.000376028, 0.000630352, 5.88411, 15.8581, 0, 0.00103864, -0.361667, -33.5984, -51.9982, -0.225006, -22.317, -25.0323, 0.000443984, -0.000220059, -0.000688856, 0.00024536, 0.00024536, 0.00024536
272, 1,0.000645313, -0.000382578, 0.000285729, 16.0494, -22.7404, 0.00112001, 23.5468, 39.4593, 0, 0.00107206, 0.000829344, 0.00123933, 20.2695, 25.5839, 0, 0.00107231, 0.000465327, 0.000681591, 12.1223, 13.472, 0, 0.00107252, -0.403848, -41.3349, -35.013, -0.247208, -27.1516, -13.0172, 0.000394787, -0.000427117, -0.000382805, 0.00020734, 0.00020734, 0.00020734
273, 1,0.000627389, -0.000428978, 0.000299839, 6.02377, -26.4442, 0.0011302, 17.4124, 48.4146, 0, 0.000970409, 0.000796965, 0.00142482, 8.12372, 39.2155, 0, 0.000970554, 0.00045863, 0.000828216, 4.00632, 23.0583, 0, 0.000970808, -0.227195, -37.2429, -80.1764, -0.129482, -25.161, -43.8843, 0.000613091, -0.000122835, -0.00112658, 0.000360675, 0.000360675, 0.000360675
274, 1,0.000570705, -0.00040733, 0.000283203, 5.55447, -25.1881, 0.000987815, 11.4834, 47.3025, 0, 0.00100419, 0.000727859, 0.0013083, 7.26374, 36.2653, 0, 0.00100437, 0.000415037, 0.000747335, 3.97351, 20.7051, 0, 0.00100463, -0.226831, -33.8117, -74.7573, -0.118879, -22.8988, -39.0975, 0.000566622, -0.000101669, -0.00105341, 0.000323833, 0.000323833, 0.000323833
275, 1,0.000567532, -0.000404732, 0.000284579, 7.34912, -24.8802, 0.000983417, 11.6005, 46.8546, 0, 0.001038, 0.000729287, 0.00126689, 9.44568, 33.5721, 0, 0.00103823, 0.000407951, 0.000705261, 5.42906, 18.5101, 0, 0.00103848, -0.343757, -34.9701, -65.4026, -0.192726, -23.3174, -32.0203, 0.00052188, -0.000168549, -0.000898087, 0.000287852, 0.000287852, 0.000287852
276, 1,0.000674203, -0.000432885, 0.000315739, 14.2224, -26.072, 0.00117237, 20.3853, 47.0419, 0, 0.00107183, 0.000867934, 0.00136628, 17.9606, 31.095, 0, 0.0010721, 0.000484555, 0.000748587, 10.7837, 16.4444, 0, 0.00107236, -0.401755, -42.8202, -50.063, -0.238813, -28.2506, -20.8437, 0.000481675, -0.000368298, -0.000617938, 0.000254382, 0.000254382, 0.000254382
277, 1,0.000676548, -0.000471094, 0.000327146, 5.92061, -29.1325, 0.00122885, 16.5471, 55.8473, 0, 0.000970187, 0.000858375, 0.00155315, 7.91156, 43.3605, 0, 0.000970384, 0.000495715, 0.000902615, 4.0263, 25.3522, 0, 0.000970668, -0.186298, -38.2409, -91.6544, -0.0830114, -25.9564, -50.017, 0.00067923, -7.5163E-05, -0.00130765, 0.000397774, 0.000397774, 0.000397774
278, 1,0.000621889, -0.000454019, 0.000313508, 5.40546, -28.1665, 0.0010631, 9.52863, 54.7028, 0, 0.00100396, 0.000792766, 0.00144638, 7.00302, 40.7595, 0, 0.00100419, 0.000452627, 0.000825377, 3.94659, 23.1495, 0, 0.00100448, -0.127591, -34.8296, -87.3214, -0.0112357, -23.652, -45.7853, 0.000639501, -4.99066E-05, -0.00125098, 0.000364604, 0.000364604, 0.000364604
279, 1,0.000617566, -0.000455618, 0.000317159, 6.88424, -28.1446, 0.00101956, 7.71494, 54.3776, 0, 0.00103775, 0.000793479, 0.00141174, 8.80213, 38.5072, 0, 0.00103802, 0.000443915, 0.000785321, 5.15017, 21.157, 0, 0.00103831, -0.222764, -36.0407, -79.2582, -0.0675062, -24.0678, -39.3357, 0.000602221, -0.000111214, -0.00111584, 0.000332245, 0.000332245, 0.000332245
280, 1,0.000715425, -0.000486317, 0.000348623, 12.9083, -29.5593, 0.00122651, 17.2527, 54.7143, 0, 0.00107157, 0.000921519, 0.00150892, 16.2802, 36.6165, 0, 0.00107188, 0.000513398, 0.0008254, 9.83772, 19.3984, 0, 0.00107218, -0.349195, -43.99, -65.5103, -0.185495, -29.084, -28.9257, 0.000569814, -0.000303049, -0.000860921, 0.000302103, 0.000302103, 0.000302103
281, 1,0.000733095, -0.000514956, 0.000355925, 6.06867, -31.9104, 0.00135621, 16.7112, 63.7419, 0, 0.00096997, 0.000928297, 0.00169051, 7.98987, 47.5153, 0, 0.000970225, 0.000539106, 0.000983254, 4.25997, 27.6267, 0, 0.000970539, -0.105291, -39.0449, -103.396, -0.00275292, -26.6052, -56.2721, 0.00074637, -2.28621E-05, -0.00149452, 0.00043528, 0.00043528, 0.00043528
282, 1,0.000678868, -0.00050199, 0.00034484, 5.53239, -31.2076, 0.00115406, 8.61801, 61.7027, 0, 0.00100374, 0.000864274, 0.0015929, 7.04847, 45.1942, 0, 0.00100401, 0.000495141, 0.000909599, 4.15818, 25.5158, 0, 0.00100433, 0.258631, -35.3913, -100.45, 0.364086, -24.0089, -52.9026, 0.000717514, 9.79144E-06, -0.00146065, 0.000409809, 0.000409809, 0.000409809
283, 1,0.000672518, -0.000507911, 0.000350872, 6.58483, -31.4785, 0.00111331, 7.52096, 60.5985, 0, 0.00103753, 0.000863584, 0.00156499, 8.36414, 43.4441, 0, 0.00103782, 0.000483681, 0.00087111, 4.98702, 23.7857, 0, 0.00103815, 0.116318, -36.6693, -93.7793, 0.253462, -24.4278, -47.1828, 0.000687221, -4.50153E-05, -0.00134715, 0.000380511, 0.000380511, 0.000380511
284, 1,0.000760795, -0.000542065, 0.000383573, 11.5495, -33.1644, 0.00137993, 20.3971, 60.2704, 0, 0.00107135, 0.000981248, 0.00165997, 14.6402, 42.2698, 0, 0.00107167, 0.000544249, 0.000905969, 8.75325, 22.4567, 0, 0.00107201, -0.285299, -44.9874, -81.5366, -0.130245, -29.7567, -37.4833, 0.000660291, -0.000230985, -0.0011152, 0.000351532, 0.000351532, 0.000351532
285, 1,0.000803693, -0.000560651, 0.000386224, 6.72179, -34.7868, 0.00164961, 27.7225, 67.605, 0, 0.00096982, 0.00101337, 0.00184491, 8.6093, 51.7013, 0, 0.00097007, 0.000595505, 0.00107813, 4.9663, 29.8977, 0, 0.000970414, 0.137409, -39.6298, -115.611, 0.231657, -27.1069, -62.8177, 0.000817395, 3.66927E-05, -0.00169302, 0.000475957, 0.000475957, 0.000475957
286, 1,0.000745014, -0.000551228, 0.000377087, 5.85346, -34.3164, 0.00133142, 15.9294, 63.1431, 0, 0.00100359, 0.000945228, 0.00175202, 7.28879, 49.9391, 0, 0.00100381, 0.000546604, 0.00100482, 4.5644, 28.1675, 0, 0.00100416, 0.601368, -35.7682, -114.651, 0.665928, -24.263, -60.9054, 0.000799435, 7.83903E-05, -0.00168817, 0.000457893, 0.000457893, 0.000457893
287, 1,0.000727859, -0.000561497, 0.000385541, 6.06855, -34.8795, 0.00129888, 15.5411, 61.6034, 0, 0.00103736, 0.000934695, 0.00172497, 7.73164, 48.731, 0, 0.00103758, 0.00052326, 0.000961651, 4.58829, 26.7491, 0, 0.00103795, 0.521314, -37.4556, -109.259, 0.598354, -25.0131, -55.8325, 0.000779125, 2.35066E-05, -0.00159337, 0.000434552, 0.000434552, 0.000434552
288, 1,0.000812537, -0.000600551, 0.000421111, 10.6859, -36.9061, 0.00173929, 36.1694, 61.9176, 0, 0.00107118, 0.00104925, 0.00181818, 13.574, 47.6564, 0, 0.00107143, 0.00058004, 0.000990041, 8.11746, 25.2388, 0, 0.00107182, 0.0790373, -46.2522, -96.7961, 0.203164, -30.7493, -45.1703, 0.000752949, -0.000166464, -0.00135978, 0.00040252, 0.00040252, 0.00040252
289, 1,0.000882617, -0.000608639, 0.000418574, 7.13188, -37.7885, 0.00222597, 54.9242, 67.6502, 0, 0.000969711, 0.00110832, 0.00201445, 9.05082, 56.7698, 0, 0.000969882, 0.000658837, 0.0011847, 5.37804, 33.0331, 0, 0.000970256, -0.374013, -41.2715, -128.664, -0.313941, -28.7562, -70.0291, 0.000886174, 9.19134E-05, -0.00189927, 0.000513563, 0.000513563, 0.000513563
290, 1,0.000807176, -0.000601428, 0.000409976, 5.66538, -37.4814, 0.00162509, 28.4738, 64.9244, 0, 0.00100338, 0.00102249, 0.0019113, 7.03884, 55.2646, 0, 0.00100354, 0.000593675, 0.00109863, 4.43684, 31.3957, 0, 0.00100393, 0.65334, -36.5341, -129.913, 0.607942, -24.959, -69.836, 0.000884197, 0.000148987, -0.00192994, 0.000507302, 0.000507302, 0.000507302
291, 1,0.000771621, -0.000616221, 0.000420989, 4.96843, -38.3385, 0.00153051, 24.4269, 64.356, 0, 0.00103711, 0.000993458, 0.00187451, 6.47684, 54.3441, 0, 0.00103728, 0.000553115, 0.00104167, 3.70245, 30.0459, 0, 0.00103769, 0.955847, -38.8235, -125.165, 0.892144, -26.202, -64.8278, 0.000876803, 8.44706E-05, -0.00184309, 0.000492776, 0.000492776, 0.000492776
292, 1,0.000867781, -0.000663005, 0.000462581, 9.71651, -40.831, 0.00218581, 56.1087, 63.456, 0, 0.00107101, 0.00112276, 0.00197894, 12.4813, 53.6595, 0, 0.00107118, 0.000618769, 0.00107309, 7.38386, 28.6581, 0, 0.00107162, -0.388678, -49.4685, -111.121, -0.350169, -33.7985, -51.8256, 0.000837889, -0.000133122, -0.00157548, 0.000444961, 0.000444961, 0.000444961
293, 1,0.000942908, -0.000661231, 0.00045531, 6.56965, -41.0224, 0.00262329, 58.9526, 87.4079, 0, 0.000969314, 0.00118834, 0.00217502, 8.68131, 62.3043, 0, 0.000969708, 0.000700268, 0.0012751, 4.6889, 36.6141, 0, 0.000970113, -0.988267, -45.0197, -140.905, -1.00278, -32.5254, -76.314, 0.000959996, 0.000110121, -0.00208111, 0.00055505, 0.00055505, 0.00055505
294, 1,0.000835205, -0.00065666, 0.000447319, 4.29609, -40.8917, 0.0017391, 12.5879, 93.4874, 0, 0.00100281, 0.00106893, 0.00203689, 5.76588, 60.2467, 0, 0.00100335, 0.000603866, 0.00115259, 2.99664, 34.2705, 0, 0.00100377, 0.648084, -39.443, -141.945, 0.379517, -27.8668, -75.3242, 0.000962486, 0.000167695, -0.00210778, 0.000547687, 0.000547687, 0.000547687
295, 1,0.000829379, -0.000677224, 0.000461881, 5.42433, -42.1079, 0.00171911, 11.2431, 94.0346, 0, 0.00103661, 0.00106639, 0.00201623, 6.773, 58.9236, 0, 0.0010372, 0.000597309, 0.00111064, 4.38862, 32.2753, 0, 0.00103765, 1.62538, -41.9769, -136.419, 1.32572, -29.368, -68.7835, 0.000963167, 9.06905E-05, -0.00200998, 0.000537138, 0.000537138, 0.000537138
296, 1,0.000993548, -0.000731766, 0.000509718, 13.6124, -45.0899, 0.0024798, 54.2438, 84.5778, 0, 0.00107081, 0.00126868, 0.00219209, 16.2801, 57.7412, 0, 0.00107127, 0.000728336, 0.0012064, 11.6065, 30.0566, 0, 0.00107176, 0.214603, -51.9721, -121.466, 0.167499, -36.403, -53.9344, 0.00091531, -0.000114124, -0.00173813, 0.000478315, 0.000478315, 0.000478315
297, 1,0.00105942, -0.000720825, 0.000498301, 9.03729, -44.6384, 0.00266104, 32.0912, 125.78, 0, 0.000969066, 0.00132814, 0.00237452, 11.4196, 67.6218, 0, 0.00096998, 0.000795682, 0.00139707, 7.02574, 39.8181, 0, 0.000970418, -2.9277, -48.4959, -151.442, -2.98614, -36.1611, -80.307, 0.0010029, 0.000128357, -0.00222853, 0.000563742, 0.000563742, 0.000563742
298, 1,0.000904404, -0.000714003, 0.000485936, 5.67415, -44.443, 0.00192945, -2.09648, 125.319, 0, 0.00100266, 0.00115941, 0.00220271, 7.2878, 64.0932, 0, 0.00100366, 0.000651723, 0.00124114, 4.2831, 35.8806, 0, 0.00100411, 1.59788, -38.6853, -155.192, 1.04236, -27.328, -81.3562, 0.00104347, 0.000247271, -0.00233076, 0.000587385, 0.000587385, 0.000587385
299, 1,0.000916017, -0.000736223, 0.000499546, 6.33553, -45.8072, 0.00181629, -5.41108, 122.565, 0, 0.00103649, 0.00117214, 0.00220389, 7.67737, 64.3817, 0, 0.00103747, 0.000662863, 0.00121995, 5.22022, 35.3137, 0, 0.00103796, 1.70606, -42.0379, -152.813, 1.0382, -29.5258, -77.4535, 0.00105064, 0.000180679, -0.00227601, 0.000578709, 0.000578709, 0.000578709
300, 1,0.00113174, -0.000796989, 0.000553409, 15.8001, -49.1833, 0.00293875, 54.5703, 113.213, 0, 0.00107066, 0.001427, 0.00243102, 18.3985, 64.6813, 0, 0.00107151, 0.000847982, 0.00136456, 13.9653, 34.3255, 0, 0.00107204, -2.36519, -54.9067, -136.772, -2.58697, -39.1216, -61.2681, 0.000969993, -5.38611E-05, -0.00196569, 0.000487236, 0.000487236, 0.000487236
301, 1,0.00119878, -0.000776051, 0.000536273, 13.1657, -48.142, 0.00299091, 32.3667, 146.179, 0, 0.000969178, 0.00148744, 0.00259008, 15.6046, 72.1992, 0, 0.000970342, 0.000915492, 0.00153834, 11.1211, 42.021, 0, 0.000970818, -4.02217, -48.5948, -163.981, -4.03126, -35.4198, -86.612, 0.00105255, 0.000205263, -0.00242937, 0.000577027, 0.000577027, 0.000577027
302, 1,0.000977856, -0.000765291, 0.000518382, 7.502, -47.8032, 0.00237759, 15.9631, 129.439, 0, 0.00100293, 0.00123856, 0.00236031, 8.42665, 67.5015, 0, 0.00100394, 0.000724254, 0.00134242, 7.02378, 36.7764, 0, 0.00100444, 3.44367, -35.2567, -170.691, 2.69073, -23.2704, -89.7496, 0.00113638, 0.000376646, -0.00260835, 0.000636544, 0.000636544, 0.000636544
303, 1,0.000997379, -0.000790459, 0.000532377, 8.74862, -49.3337, 0.0022714, 12.9699, 126.682, 0, 0.00103671, 0.00126936, 0.00237626, 9.89142, 67.5923, 0, 0.00103771, 0.000727467, 0.00132044, 7.79037, 35.9448, 0, 0.00103824, 3.55047, -38.0311, -168.296, 2.50985, -24.8049, -85.5394, 0.00113994, 0.000319097, -0.00255584, 0.000619493, 0.000619493, 0.000619493
304, 1,0.0012718, -0.000858858, 0.000595098, 18.6907, -53.073, 0.00313, 48.9007, 132.734, 0, 0.00107072, 0.0015905, 0.00267685, 21.4652, 71.3707, 0, 0.00107179, 0.000962905, 0.00152179, 16.5824, 38.4565, 0, 0.00107236, -3.88643, -56.4657, -153.76, -4.39817, -39.4662, -71.505, 0.00104318, 2.3374E-05, -0.00222466, 0.00051399, 0.00051399, 0.00051399
305, 1,0.00136167, -0.000835817, 0.000579582, 18.7814, -51.7001, 0.00297907, 26.01, 153.737, 0, 0.000969552, 0.00167848, 0.00287409, 21.8381, 76.8367, 0, 0.000970763, 0.00104886, 0.00173137, 16.0256, 44.6771, 0, 0.00097127, -2.09132, -47.505, -180.914, -2.41824, -33.2371, -98.3758, 0.00116661, 0.000293151, -0.00270658, 0.00065317, 0.00065317, 0.00065317
306, 1,0.00105798, -0.000813321, 0.000551356, 8.98238, -50.8923, 0.00242604, 13.673, 135.62, 0, 0.00100302, 0.00134435, 0.0025369, 10.3328, 71.7807, 0, 0.00100406, 0.000774431, 0.00143967, 7.81571, 38.8347, 0, 0.0010046, 4.86543, -31.6334, -188.574, 4.04559, -18.7786, -101.771, 0.00123381, 0.000515068, -0.00291364, 0.00069758, 0.00069758, 0.00069758
307, 1,0.00109383, -0.00084335, 0.000569058, 11.3709, -52.7165, 0.00246712, 15.4756, 135.782, 0, 0.00103674, 0.00138848, 0.00256696, 12.7101, 71.4655, 0, 0.00103782, 0.000799273, 0.00143074, 10.0565, 37.4304, 0, 0.00103839, 7.5511, -34.795, -187.153, 6.28338, -20.6038, -97.9708, 0.00128568, 0.000443524, -0.00288885, 0.000722828, 0.000722828, 0.000722828
308, 1,0.00144368, -0.000930826, 0.000649002, 26.4443, -57.2717, 0.00285183, 21.4254, 151.835, 0, 0.00107076, 0.00180221, 0.00296309, 30.3371, 73.7277, 0, 0.00107212, 0.00109172, 0.00168884, 23.0171, 38.6618, 0, 0.00107273, 1.2311, -51.678, -170.736, 0.211157, -34.079, -82.1176, 0.00118875, 0.000154097, -0.00253919, 0.000614919, 0.000614919, 0.000614919
309, 1,0.00170349, -0.000926526, 0.000652337, 29.9484, -56.8511, 0.00285656, -1.82346, 183.312, 0, 0.00096892, 0.00207553, 0.00341222, 34.7358, 85.4561, 0, 0.00097046, 0.00133526, 0.00212416, 25.4358, 50.9437, 0, 0.000971003, -0.567225, -46.1826, -209.618, -0.593788, -32.99, -119.247, 0.00133421, 0.000449011, -0.00316988, 0.000790068, 0.000790068, 0.000790068
310, 1,0.00139083, -0.000877432, 0.000599832, 19.0919, -54.6135, 0.00264616, 2.61162, 164.499, 0, 0.00100204, 0.00171282, 0.00304258, 21.4686, 80.3158, 0, 0.00100341, 0.00106897, 0.0018436, 16.74, 45.4966, 0, 0.00100397, 7.30116, -24.6646, -223.584, 6.78691, -13.8708, -129.406, 0.00141965, 0.000793647, -0.00351652, 0.000860379, 0.000860379, 0.000860379
311, 1,0.00136507, -0.000914488, 0.000623457, 16.929, -56.767, 0.00285416, 11.0676, 166.433, 0, 0.00103566, 0.00169591, 0.0030584, 19.3033, 82.5429, 0, 0.00103707, 0.00103502, 0.00181565, 14.6355, 46.6544, 0, 0.00103767, 7.11941, -32.4834, -222.265, 5.97867, -21.071, -124.871, 0.00145116, 0.000664199, -0.00345471, 0.000861799, 0.000861799, 0.000861799
312, 1,0.00191734, -0.00104764, 0.000746582, 38.6245, -63.6876, 0.00302654, 2.60753, 188.613, 0, 0.00106984, 0.0023379, 0.00375198, 44.4759, 90.0164, 0, 0.00107156, 0.00151235, 0.00232355, 33.6811, 52.5398, 0, 0.00107221, 0.309034, -65.2913, -205.067, -0.736817, -51.8221, -105.06, 0.00142567, 0.000116202, -0.0030025, 0.000813335, 0.000813335, 0.000813335
313, 1,0.00201554, -0.00103335, 0.000742641, 30.7828, -62.5116, 0.00380494, 29.8279, 201.356, 0, 0.000969493, 0.00246332, 0.00409872, 38.563, 105.262, 0, 0.000971006, 0.00157022, 0.00262505, 23.1892, 69.0859, 0, 0.000971576, -3.278, -40.6891, -271.819, -3.80303, -34.2607, -169.194, 0.00158839, 0.000871932, -0.00416833, 0.00100751, 0.00100751, 0.00100751
314, 1,0.00164914, -0.000952851, 0.000661052, 15.6562, -58.6709, 0.00405886, 62.3713, 173.91, 0, 0.00100317, 0.00201499, 0.00363113, 19.6745, 101.706, 0, 0.00100434, 0.00128503, 0.0023137, 11.7276, 65.5694, 0, 0.00100493, 1.79305, -19.2676, -287.644, 1.0015, -14.027, -183.683, 0.00163986, 0.00124599, -0.00453615, 0.00105396, 0.00105396, 0.00105396
315, 1,0.0015965, -0.000989532, 0.000683811, 16.1116, -60.8625, 0.00434226, 63.689, 176.496, 0.00783364, 0.00103673, 0.00196596, 0.00364607, 19.9138, 98.2973, 0, 0.00103806, 0.00123638, 0.00229321, 12.781, 60.9569, 0, 0.00103869, 9.76365, -13.7982, -290.857, 8.14703, -8.12632, -182.891, 0.00175519, 0.00131046, -0.00466063, 0.00113289, 0.00113289, 0.00113289
316, 1,0.00229951, -0.00117522, 0.000849095, 46.3186, -70.7054, 0.00482312, 19.8194, 213.111, 0.0408017, 0.00107023, 0.0028121, 0.0044252, 55.642, 105.255, 0, 0.00107219, 0.00179333, 0.00275464, 37.4286, 65.1704, 0, 0.00107289, -5.46563, -37.1436, -273.155, -7.33163, -31.5944, -156.585, 0.00154351, 0.000953513, -0.00420489, 0.000872769, 0.000872769, 0.000872769
317, 1,0.00254282, -0.00119753, 0.000870515, 47.7385, -71.777, 0.00640417, 4.22805, 237.138, 0.0991166, 0.000969014, 0.00308112, 0.00498476, 58.3213, 118.026, 0, 0.000971108, 0.00200746, 0.00325527, 37.3656, 77.8478, 0, 0.000971741, 2.36742, -12.3425, -344.101, 1.23894, -15.5888, -219.194, 0.00190906, 0.00167886, -0.00550304, 0.0012524, 0.0012524, 0.0012524
318, 1,0.00201239, -0.00110516, 0.000780595, 25.6376, -67.3558, 0.00630361, -0.809351, 238.559, 0.100446, 0.0010026, 0.00246782, 0.00436621, 32.4072, 113.742, 0, 0.00100487, 0.00155736, 0.00280654, 18.9182, 73.6775, 0, 0.00100552, 7.66566, -5.50282, -343.389, 6.86013, -8.02704, -219.866, 0.00195368, 0.00173583, -0.00553514, 0.00130564, 0.00130564, 0.00130564
319, 1,0.0019579, -0.00117626, 0.000828963, 19.0829, -71.6603, 0.00694443, -10.3947, 249.812, 0.126936, 0.00103608, 0.00243909, 0.00439672, 26.1703, 120.28, 0, 0.00103859, 0.00147724, 0.00273968, 12.047, 77.7244, 0, 0.0010393, 2.79457, -9.57675, -354.058, 1.42066, -12.1037, -222.49, 0.00195419, 0.00175585, -0.00566177, 0.00125489, 0.00125489, 0.00125489
320, 1,0.00247898, -0.00141922, 0.00102195, 42.5527, -85.3174, 0.00845488, -9.36902, 254.822, 0.178699, 0.00106936, 0.00309446, 0.00512072, 53.7687, 125.506, 0, 0.0010721, 0.0018694, 0.00309405, 31.7221, 77.2375, 0, 0.00107294, 5.74929, -22.3096, -359.957, 3.22811, -23.7779, -211.163, 0.00210045, 0.00159729, -0.00573424, 0.00128698, 0.00128698, 0.00128698
321, 1,0.00241674, -0.00140991, 0.000985266, 8.69706, -87.4084, 0.00894122, -22.0104, 271.204, 0.197431, 0.000968737, 0.00297729, 0.00559019, 14.7622, 169.002, 0, 0.000970874, 0.00185631, 0.00362007, 2.64328, 113.673, 0, 0.000971746, -7.77079, -28.0828, -471.152, -5.06434, -25.9953, -309.959, 0.00249803, 0.00213751, -0.00737793, 0.0016839, 0.0016839, 0.0016839
322, 1,0.0020863, -0.00132779, 0.000918303, 6.90391, -83.7253, 0.0100969, -24.3167, 294.486, 0.215629, 0.00100209, 0.00259235, 0.00482137, 10.1984, 150.982, 0, 0.00100508, 0.00158265, 0.00298908, 3.74124, 95.1287, 0, 0.00100599, -13.7222, -22.5169, -416.706, -7.63194, -17.7011, -260.053, 0.002088, 0.0019622, -0.00650018, 0.00133719, 0.00133719, 0.00133719
323, 1,0.00222525, -0.00143555, 0.000986249, 12.5609, -90.5408, 0.0112456, -27.1107, 297.434, 0.257877, 0.00103547, 0.00275909, 0.00502646, 15.5012, 154.421, 0, 0.00103871, 0.00169299, 0.00305828, 9.70559, 93.997, 0, 0.00103973, -18.7414, -15.6742, -428.846, -12.0397, -10.4326, -259.519, 0.00203629, 0.00216799, -0.00671006, 0.00122644, 0.00122644, 0.00122644
324, 1,0.00282094, -0.00172894, 0.00119027, 22.0669, -106.3, 0.0122281, -18.4888, 272.571, 0.313509, 0.00106942, 0.00347131, 0.00628347, 26.7529, 175.564, 0.00548759, 0.0010721, 0.00217133, 0.00390533, 17.4634, 106.81, 0.00463277, 0.0010733, -8.50508, -24.9716, -493.216, -4.28636, -17.9029, -298.241, 0.00270916, 0.00243167, -0.00799844, 0.00169424, 0.00169424, 0.00169424
325, 1,0.00252788, -0.00144202, 0.000984052, 13.3915, -92.9273, 0.00788751, -23.8992, 304.689, 0.125809, 0.000971584, 0.00305087, 0.00549351, 13.4121, 175.521, 0, 0.000973986, 0.00200622, 0.00353923, 13.4542, 109.164, 0, 0.000975035, -9.44478, -51.0122, -466.107, -1.99195, -36.464, -289.036, 0.00256659, 0.00172598, -0.0071408, 0.00167917, 0.00167917, 0.00167917
326, 1,0.0022511, -0.00143167, 0.000974772, 15.3992, -92.8068, 0.00839082, -41.0011, 310.975, 0.15982, 0.00100662, 0.00276133, 0.00494562, 14.4165, 155.798, 0, 0.00100966, 0.00174582, 0.00301802, 16.687, 88.4742, 0, 0.00101077, -18.9433, -49.0048, -399.446, -6.7879, -31.093, -227.542, 0.00205378, 0.0014709, -0.00605285, 0.00125062, 0.00125062, 0.00125062
327, 1,0.00247205, -0.00154093, 0.00104784, 25.2812, -99.3114, 0.00929645, -35.7593, 305.153, 0.191741, 0.00104065, 0.00302134, 0.00523129, 24.8347, 158.169, 0, 0.00104375, 0.00192613, 0.00315118, 25.9534, 87.2713, 0, 0.00104496, -22.0027, -36.9974, -415.507, -9.4489, -20.2945, -232.07, 0.00202625, 0.00177056, -0.00636346, 0.00117525, 0.00117525, 0.00117525
328, 1,0.00276286, -0.00176193, 0.001197, 32.3361, -112.881, 0.0100622, -17.3339, 289.84, 0.209011, 0.00107318, 0.00339016, 0.00590081, 32.4921, 171.122, 6.9085E-06, 0.00107592, 0.00213797, 0.00352117, 32.3349, 91.8293, 9.89992E-07, 0.00107731, -8.88727, -28.2278, -476.252, -1.08594, -10.1318, -264.27, 0.00250957, 0.00215866, -0.00744507, 0.0014257, 0.0014257, 0.0014257
329, 1,0.00332911, -0.00166588, 0.00114189, 21.5364, -104.469, 0.00796436, -18.4154, 289.528, 0.135945, 0.000985933, 0.00394365, 0.00683381, 23.2504, 189.81, 0.016222, 0.000987883, 0.0027158, 0.00455486, 19.879, 117.402, 0.015724, 0.000989055, -18.9672, -23.1108, -527.353, -11.9276, -11.3136, -328.966, 0.00295515, 0.00290089, -0.00896425, 0.00193543, 0.00193543, 0.00193543
330, 1,0.00224236, -0.00126507, 0.000874708, 25.5574, -80.547, 0.00600369, -55.4843, 322.084, 0.0788839, 0.00102162, 0.00272518, 0.00460135, 27.7126, 135.513, -1.35525E-20, 0.00102497, 0.00176044, 0.00285684, 23.4718, 79.946, -1.35525E-20, 0.00102589, -23.2178, -22.1445, -361.176, -14.0486, -11.9706, -213.819, 0.00164312, 0.00171151, -0.00555362, 0.000962067, 0.000962067, 0.000962067
331, 1,0.00169292, -0.000997105, 0.000705533, 24.8059, -63.3798, 0.0048542, -25.1693, 300.134, 0.0234171, 0.00105723, 0.00210119, 0.00334221, 27.8898, 96.0031, 0, 0.00106081, 0.00128841, 0.00194458, 21.9552, 52.4888, 0, 0.00106156, -20.3521, -24.8814, -242.776, -13.1042, -14.2418, -130.12, 0.00108192, 0.00102318, -0.00366297, 0.00055003, 0.00055003, 0.00055003
332, 1,0.00142329, -0.000864843, 0.000621125, 21.8455, -54.5466, 0.00403335, 2.09228, 253.215, 0, 0.0010914, 0.00180013, 0.00272011, 26.0373, 79.3286, 0, 0.00109448, 0.00104693, 0.00148176, 17.6962, 42.7083, 0, 0.00109513, -12.278, -20.7429, -204.965, -9.38887, -13.3233, -105.413, 0.000990859, 0.000835728, -0.00311388, 0.000475344, 0.000475344, 0.000475344
333, 1,0.00298937, -0.00149588, 0.00104774, 26.8465, -90.7572, 0.00731475, -14.4568, 261.754, 0.134488, 0.000983951, 0.00358655, 0.00623336, 33.1813, 166.709, 0.00942108, 0.000985796, 0.00239332, 0.00414255, 20.576, 109.476, 0.008518, 0.000986717, -13.922, -17.7775, -468.427, -10.2781, -15.2334, -302.917, 0.00253247, 0.00250613, -0.00775804, 0.00168529, 0.00168529, 0.00168529
334, 1,0.00205268, -0.00107065, 0.000759154, 27.6055, -66.6814, 0.00556704, -7.43269, 252.384, 0.0673144, 0.00101922, 0.0024949, 0.0040595, 32.6441, 114.746, 0, 0.00102166, 0.00161247, 0.00254782, 22.675, 71.876, 0, 0.00102237, -21.6706, -3.87574, -318.69, -15.7817, -2.77699, -197.069, 0.0013492, 0.00176898, -0.00498015, 0.000798717, 0.000798717, 0.000798717
335, 1,0.00140476, -0.00085437, 0.000618902, 24.1729, -53.2798, 0.00438473, 21.0455, 227.49, 0.0131647, 0.00105376, 0.00178809, 0.00277205, 29.5477, 74.3691, 0, 0.00105641, 0.0010215, 0.00153459, 18.8219, 39.9526, 0, 0.001057, -17.9009, -4.98151, -200.225, -10.995, -1.99772, -106.865, 0.000792611, 0.0011001, -0.00309952, 0.000396783, 0.000396783, 0.000396783
336, 1,0.00161501, -0.000849052, 0.000641794, 45.1039, -51.0706, 0.00355674, 4.27486, 220.038, 0, 0.00108723, 0.00203975, 0.00277959, 54.2679, 57.4334, 0, 0.0010901, 0.0011981, 0.00152463, 36.4104, 28.2442, 0, 0.00109062, -14.188, -11.8898, -146.222, -9.78612, -10.0302, -64.9162, 0.000604591, 0.000690819, -0.00222741, 0.000238091, 0.000238091, 0.000238091
337, 1,0.00268989, -0.00126862, 0.000923185, 52.9992, -75.9592, 0.00468697, 25.5274, 212.886, 0.03017, 0.00098574, 0.00324771, 0.0052162, 63.5053, 122.311, 1.18816E-05, 0.000987248, 0.0021428, 0.00342083, 43.1235, 79.8218, 1.10458E-06, 0.000987929, -0.338865, -32.6445, -333.949, -1.5261, -34.7577, -203.182, 0.00192147, 0.00130531, -0.00521141, 0.00122713, 0.00122713, 0.00122713
338, 1,0.00171203, -0.000895863, 0.000644049, 25.8274, -54.4687, 0.00385701, 52.0368, 174.97, 0, 0.00102031, 0.00208812, 0.00339197, 31.7352, 90.2762, 0, 0.00102171, 0.00134198, 0.0021231, 20.2183, 58.0684, 0, 0.00102225, -9.95109, -3.64814, -257.229, -8.76824, -5.2043, -160.233, 0.00121176, 0.00138676, -0.00406339, 0.000729595, 0.000729595, 0.000729595
339, 1,0.00127028, -0.000716831, 0.000529213, 21.1728, -43.3954, 0.00351105, 40.8132, 168.071, 0, 0.00105461, 0.00161155, 0.00249211, 28.0243, 65.1154, 0, 0.00105637, 0.000929248, 0.00143524, 14.3227, 39.8501, 0, 0.0010568, -15.3086, -2.06365, -177.974, -12.6024, -2.91395, -104.034, 0.000701869, 0.00101819, -0.00277669, 0.000361268, 0.000361268, 0.000361268
340, 1,0.00172687, -0.000738512, 0.000590006, 55.912, -42.1437, 0.00295522, 6.36956, 178.538, 0, 0.0010887, 0.00215765, 0.00270446, 69.1059, 45.1748, 0, 0.00109106, 0.00130408, 0.00155328, 43.2089, 26.0308, 0, 0.0010914, -16.3598, -11.9844, -107.18, -15.499, -13.8247, -48.7686, 0.000365857, 0.000509535, -0.00160847, 8.25721E-05, 8.25721E-05, 8.25721E-05
341, 1,0.00212925, -0.0010776, 0.000779661, 37.3536, -64.8294, 0.00310835, 10.8085, 182.393, 0, 0.000987299, 0.00259006, 0.00423702, 45.4035, 104.662, 0, 0.000988545, 0.00168023, 0.00272966, 29.9854, 67.8634, 0, 0.000989135, -0.415362, -57.5461, -256.026, -1.85415, -51.4655, -150.27, 0.00164102, 0.000502826, -0.00384208, 0.00103113, 0.00103113, 0.00103113
342, 1,0.00123545, -0.000780446, 0.000546662, 11.9483, -48.0872, 0.00259617, 12.1666, 148.5, 0, 0.0010207, 0.00154828, 0.00275507, 15.8122, 77.5001, 0, 0.00102187, 0.000922644, 0.00166238, 8.08777, 47.7823, 0, 0.00102237, -2.8057, -19.369, -210.326, -2.14714, -13.7831, -127.417, 0.00116135, 0.000851595, -0.00327047, 0.000707287, 0.000707287, 0.000707287
343, 1,0.000937862, -0.000625962, 0.000448271, 12.0688, -38.4568, 0.00242734, 17.3737, 130.754, 0, 0.00105463, 0.0012065, 0.00198968, 16.1548, 55.1359, 0, 0.00105593, 0.000670816, 0.00109866, 8.01665, 31.5881, 0, 0.00105633, -8.81385, -12.2727, -144.321, -7.02859, -6.18484, -81.5509, 0.000682379, 0.000643273, -0.00222034, 0.000349306, 0.000349306, 0.000349306
344, 1,0.00161396, -0.000651165, 0.000522334, 59.2898, -36.9327, 0.00220221, 4.72336, 132.255, 0, 0.00108966, 0.00199316, 0.00241475, 71.1226, 31.6821, 0, 0.00109144, 0.00124533, 0.00141019, 48.0884, 15.4797, 0, 0.00109173, -8.3375, -26.7008, -60.0081, -8.22923, -20.9, -17.31, 0.000323485, -7.44199E-06, -0.00083019, 7.05354E-05, 7.05354E-05, 7.05354E-05
345, 1,0.00172204, -0.000944982, 0.000664503, 34.1521, -57.931, 0.00245887, 3.13094, 151.227, 0, 0.000988881, 0.00209468, 0.00336385, 38.7109, 81.1176, 0, 0.000990006, 0.00135573, 0.00206068, 29.9986, 46.0051, 0, 0.000990571, 3.97943, -47.2812, -200.051, 3.22576, -33.6045, -107.636, 0.00136341, 0.000352325, -0.00303198, 0.000794542, 0.000794542, 0.000794542
346, 1,0.00113621, -0.000726247, 0.00049583, 17.7456, -45.2461, 0.00177742, -6.03244, 121.047, 0, 0.00102279, 0.00139636, 0.00238665, 19.3537, 63.0717, 0, 0.00102375, 0.000877015, 0.00140103, 16.1972, 34.0846, 0, 0.00102423, 3.94519, -23.3896, -169.771, 4.0885, -12.9202, -93.4222, 0.00107691, 0.000535574, -0.00263591, 0.000623455, 0.000623455, 0.000623455
347, 1,0.000786705, -0.000591212, 0.000414699, 9.2756, -36.6205, 0.0016515, 2.02486, 102.263, 0, 0.00105742, 0.00102193, 0.00177968, 11.9167, 49.2802, 0, 0.00105833, 0.000553833, 0.000955149, 6.72446, 26.2249, 0, 0.00105873, -2.30952, -20.079, -125.452, -1.73148, -9.77334, -67.1698, 0.000727713, 0.000379922, -0.00190729, 0.00037685, 0.00037685, 0.00037685
348, 1,0.001263, -0.000583149, 0.000455279, 40.9841, -33.672, 0.00172506, 15.2571, 88.4327, 0, 0.00109243, 0.0015843, 0.00203983, 50.1729, 33.3375, 0, 0.00109341, 0.00094652, 0.00114626, 32.115, 17.2336, 0, 0.0010937, -6.25735, -35.1521, -58.6031, -6.31358, -23.3874, -21.9997, 0.000393571, -0.000167592, -0.000766978, 0.000138682, 0.000138682, 0.000138682
349, 1,0.0013325, -0.000861165, 0.00059915, 21.8701, -53.0867, 0.00253938, 26.0916, 125.752, 0, 0.000990808, 0.00166153, 0.002786, 25.244, 71.1369, 0, 0.000991686, 0.00100945, 0.00160983, 18.9134, 38.3955, 0, 0.000992213, 1.12165, -46.6586, -167.874, 0.369106, -31.7992, -83.7564, 0.00114613, 0.000210619, -0.00251107, 0.000614599, 0.000614599, 0.000614599
350, 1,0.000889306, -0.000688767, 0.000465837, 12.0114, -42.9276, 0.00166568, 9.74753, 92.6631, 0, 0.00102498, 0.00113116, 0.00204412, 13.2633, 54.5284, 0, 0.00102561, 0.000648228, 0.00111598, 10.8413, 27.0012, 0, 0.00102607, 5.26202, -27.5309, -141.316, 4.55365, -15.268, -70.2892, 0.000970461, 0.000311877, -0.00216717, 0.000521949, 0.000521949, 0.000521949
351, 1,0.000754888, -0.000573639, 0.00039887, 11.5855, -35.5327, 0.00124655, 7.27472, 69.3755, 0, 0.00105947, 0.000975049, 0.00168503, 13.6985, 43.9578, 0, 0.00105991, 0.000537774, 0.00089501, 9.65436, 21.5807, 0, 0.00106029, 1.48849, -26.5534, -106.808, 1.11978, -14.5252, -51.3366, 0.000724237, 0.000157931, -0.00159548, 0.00036401, 0.00036401, 0.00036401
352, 1,0.00117409, -0.000546319, 0.000414873, 38.4006, -32.0999, 0.00185856, 50.6642, 49.5632, 0, 0.00109438, 0.0014473, 0.00191095, 45.1316, 30.8567, 0, 0.00109471, 0.000908415, 0.00110891, 32.1325, 14.3042, 0, 0.001095, -2.32917, -39.8878, -50.3532, -2.46015, -25.8695, -14.583, 0.000437877, -0.000306366, -0.000632247, 0.000174336, 0.000174336, 0.000174336
353, 1,0.00110662, -0.000791941, 0.000549059, 12.0062, -48.9383, 0.00268871, 35.9756, 122.234, 0, 0.000991842, 0.00140708, 0.00246111, 14.929, 67.9404, 0, 0.000992717, 0.000810545, 0.00137853, 9.42235, 37.5722, 0, 0.000993206, -0.973652, -48.2822, -154.566, -1.54776, -33.54, -77.6289, 0.00105145, 0.000133588, -0.00228747, 0.000561052, 0.000561052, 0.000561052
354, 1,0.000783818, -0.00065178, 0.000443415, 4.96649, -40.5095, 0.00179834, 24.2709, 81.5015, 0, 0.00102647, 0.00101058, 0.00193195, 6.14771, 56.2123, 0, 0.00102689, 0.000563686, 0.00106057, 4.1704, 30.5023, 0, 0.00102732, 2.09817, -35.6496, -135.085, 1.24376, -23.6332, -69.1175, 0.000930196, 0.000171894, -0.00201424, 0.00050719, 0.00050719, 0.00050719
355, 1,0.000722852, -0.000549005, 0.000377847, 7.98017, -33.9537, 0.00122495, 17.3502, 54.3062, 0, 0.0010611, 0.000927632, 0.0016379, 9.78376, 45.899, 0, 0.00106125, 0.000519828, 0.000889673, 6.30502, 24.6508, 0, 0.00106161, -1.05924, -33.7058, -102.932, -1.77437, -21.5676, -50.6106, 0.000700844, 4.2346E-05, -0.001488, 0.00035104, 0.00035104, 0.00035104
356, 1,0.00100092, -0.000510662, 0.000377549, 25.8466, -30.4513, 0.0027512, 105.832, 32.2941, 0, 0.00109595, 0.00123624, 0.00175523, 30.7734, 35.9314, 0, 0.00109589, 0.000772256, 0.00102499, 21.3573, 19.3325, 0, 0.00109618, -4.90096, -46.336, -56.5573, -5.13875, -31.5715, -21.2873, 0.000463391, -0.000352618, -0.000693855, 0.000196835, 0.000196835, 0.000196835
357, 1,0.00101206, -0.000728826, 0.000504275, 8.71664, -45.0852, 0.00252357, 38.6778, 108.288, 0, 0.000993225, 0.00128674, 0.00229615, 11.3046, 64.9623, 0, 0.000993924, 0.00074119, 0.00130124, 6.43024, 36.9239, 0, 0.000994376, -1.75936, -47.7256, -145.402, -2.1392, -33.6541, -74.9782, 0.000987464, 9.54622E-05, -0.00213703, 0.000537876, 0.000537876, 0.000537876
358, 1,0.000745828, -0.000609262, 0.00041751, 4.81896, -37.7756, 0.0014449, 7.66393, 81.4392, 0, 0.00102769, 0.000968189, 0.0018365, 6.52341, 52.9178, 0, 0.00102816, 0.000527791, 0.00101193, 3.41609, 29.1615, 0, 0.00102856, 2.29068, -37.4395, -123.605, 1.67493, -25.7771, -63.3824, 0.000882255, 8.28386E-05, -0.00182377, 0.000495086, 0.000495086, 0.000495086
359, 1,0.000693599, -0.000519642, 0.000358153, 8.06857, -32.0469, 0.00108738, 11.0709, 54.1457, 0, 0.00106239, 0.000885228, 0.00156273, 9.75507, 43.099, 0, 0.00106258, 0.000505131, 0.00085962, 6.59155, 23.2526, 0, 0.00106293, -0.39854, -35.3036, -93.5949, -0.947704, -23.6492, -45.1608, 0.000670386, -3.38992E-05, -0.00133585, 0.000346167, 0.000346167, 0.000346167
360, 1,0.000898719, -0.00047974, 0.000351003, 20.7099, -28.7744, 0.0033353, 138.002, 26.3642, 0, 0.0010974, 0.0011084, 0.00161949, 24.6022, 35.6944, 0, 0.00109723, 0.000698035, 0.000951339, 17.4043, 19.6946, 0, 0.00109752, -5.23252, -48.3975, -53.4532, -5.37437, -34.3325, -19.3768, 0.000451982, -0.000395416, -0.000635796, 0.000196875, 0.000196875, 0.000196875
361, 1,0.000938424, -0.000669348, 0.000462167, 9.11896, -41.4465, 0.00251216, 62.6946, 75.3415, 0, 0.000995113, 0.00118973, 0.00212507, 11.4499, 58.5292, 0, 0.000995385, 0.000689927, 0.00121089, 7.01765, 32.6839, 0, 0.000995802, -0.0485498, -43.0082, -132.531, -0.238238, -29.416, -68.3974, 0.000921937, 8.72028E-05, -0.00195886, 0.000510918, 0.000510918, 0.000510918
362, 1,0.000725603, -0.000562783, 0.00038717, 6.36006, -34.853, 0.00123123, 7.30105, 68.3441, 0, 0.00102943, 0.000933233, 0.00172079, 8.11456, 48.518, 0, 0.00102976, 0.000520579, 0.000956349, 4.78781, 26.7156, 0, 0.00103013, 2.04241, -36.5672, -111.029, 1.66705, -25.122, -56.6919, 0.000807767, 3.12791E-05, -0.00162633, 0.000456484, 0.000456484, 0.000456484
363, 1,0.000634774, -0.000482481, 0.000335704, 8.29794, -29.6661, 0.000940448, 2.72182, 56.0244, 0, 0.001064, 0.000817507, 0.00144577, 10.2076, 38.4362, 0, 0.00106431, 0.000456242, 0.000787922, 6.64677, 20.2852, 0, 0.00106462, 1.67284, -33.8621, -83.1193, 1.3615, -22.5092, -39.7079, 0.000640571, -7.83294E-05, -0.00118594, 0.00034811, 0.00034811, 0.00034811
364, 1,0.000783243, -0.00044946, 0.000330224, 20.2092, -26.9118, 0.00223976, 81.4794, 32.7574, 0, 0.00109892, 0.000983113, 0.0014415, 24.0703, 29.04, 0, 0.00109899, 0.000592099, 0.000811396, 16.9138, 14.1629, 0, 0.00109925, -0.512352, -41.662, -44.9455, -0.506302, -28.0865, -13.8959, 0.00044635, -0.000369615, -0.000547974, 0.000212095, 0.000212095, 0.000212095
365, 1,0.000867492, -0.000616068, 0.000425558, 9.02645, -38.1393, 0.00212873, 56.9906, 58.6826, 0, 0.000997118, 0.00109935, 0.0019558, 11.2052, 53.2978, 0, 0.000997205, 0.000638036, 0.00111337, 7.04202, 29.5176, 0, 0.00099759, 0.472724, -40.7479, -119.618, 0.399928, -27.385, -61.5677, 0.000850159, 4.24894E-05, -0.00175748, 0.000474132, 0.000474132, 0.000474132
366, 1,0.000693667, -0.000515764, 0.000355354, 6.9165, -31.957, 0.00129397, 23.0314, 51.1915, 0, 0.0010316, 0.000885708, 0.00160503, 8.61223, 44.484, 0, 0.00103171, 0.000503587, 0.000900926, 5.36907, 24.483, 0, 0.00103205, 1.38635, -33.7609, -101.078, 1.24338, -22.3833, -52.3092, 0.000730378, 2.82477E-05, -0.00148045, 0.000412379, 0.000412379, 0.000412379
367, 1,0.000580541, -0.000442147, 0.000309632, 6.80128, -27.1591, 0.00103324, 15.1587, 45.2131, 0, 0.00106615, 0.000754912, 0.00133986, 8.94487, 35.9184, 0, 0.00106631, 0.000408699, 0.000727195, 4.84093, 19.4115, 0, 0.00106659, 1.12516, -32.8566, -76.0237, 1.03005, -21.496, -37.7684, 0.000589437, -9.19746E-05, -0.0010803, 0.000327443, 0.000327443, 0.000327443
368, 1,0.00067454, -0.000415902, 0.000309211, 16.3891, -24.7509, 0.00188918, 64.0011, 34.0064, 0, 0.00110087, 0.000870502, 0.00130317, 20.6859, 26.8179, 0, 0.00110099, 0.000484294, 0.000703039, 12.5014, 13.5062, 0, 0.00110123, 0.332382, -39.8073, -40.9787, 0.349333, -26.3225, -14.5456, 0.000429261, -0.000367866, -0.000496571, 0.000219914, 0.000219914, 0.000219914
369, 1,0.000774262, -0.000566336, 0.000391796, 7.4908, -35.0428, 0.00154453, 28.7243, 59.5665, 0, 0.000998834, 0.000989116, 0.00177401, 9.60498, 48.8056, 0, 0.000999008, 0.000561266, 0.000997007, 5.5323, 26.9944, 0, 0.000999362, 0.343525, -39.5408, -107.219, 0.365318, -26.2261, -55.1223, 0.000776461, -1.18808E-05, -0.00155652, 0.000433434, 0.000433434, 0.000433434
370, 1,0.000638951, -0.000474434, 0.000328665, 7.00364, -29.342, 0.00106692, 13.1871, 50.027, 0, 0.00103347, 0.000819268, 0.00146663, 8.79675, 39.9178, 0, 0.00103364, 0.000460629, 0.000816158, 5.36673, 21.6829, 0, 0.00103395, 0.963313, -33.2766, -87.4401, 0.972945, -22.0038, -44.018, 0.00064938, -3.38724E-05, -0.00126323, 0.000362413, 0.000362413, 0.000362413
371, 1,0.00057093, -0.000406904, 0.000287913, 8.87171, -24.8965, 0.0010397, 17.7705, 42.1487, 0, 0.00106813, 0.000737561, 0.00125259, 11.2496, 31.5609, 0, 0.00106831, 0.000406225, 0.000683308, 6.65069, 16.6662, 0, 0.00106857, 0.981436, -31.9667, -63.6973, 1.0068, -20.7189, -30.2866, 0.000517803, -0.000139879, -0.000890052, 0.000283747, 0.000283747, 0.000283747
372, 1,0.000659188, -0.000383891, 0.000289731, 17.5607, -22.6654, 0.0016643, 53.1861, 34.2917, 0, 0.00110282, 0.000850091, 0.00123365, 22.2203, 23.7106, 0, 0.001103, 0.000472322, 0.000667531, 13.2086, 11.948, 0, 0.00110322, 0.299439, -38.2605, -33.1706, 0.341452, -24.832, -11.3536, 0.000379811, -0.000386411, -0.000378151, 0.000195402, 0.000195402, 0.000195402
373, 1,0.000705654, -0.000520168, 0.000361184, 6.84279, -32.1392, 0.00127569, 18.0101, 56.8645, 0, 0.00100058, 0.000905788, 0.00162343, 8.98234, 44.711, 0, 0.00100078, 0.000507158, 0.000906826, 4.84445, 24.8305, 0, 0.0010011, 0.0709529, -38.8842, -95.3198, 0.135909, -25.7427, -48.8847, 0.00070614, -6.7551E-05, -0.00136408, 0.000394425, 0.000394425, 0.000394425
374, 1,0.000585823, -0.000433732, 0.000302232, 6.68512, -26.7668, 0.000946492, 7.95291, 49.4176, 0, 0.00103528, 0.000754294, 0.00133716, 8.56999, 36.1643, 0, 0.0010355, 0.000419183, 0.000739029, 4.9499, 19.6798, 0, 0.00103578, 0.393129, -32.9186, -75.9675, 0.474002, -21.7475, -37.7659, 0.000578147, -8.63171E-05, -0.00107865, 0.000320249, 0.000320249, 0.000320249
375, 1,0.000540014, -0.00037221, 0.000266469, 9.51309, -22.6509, 0.000922123, 12.1945, 42.1871, 0, 0.00107, 0.000698222, 0.00115057, 12.0937, 28.0151, 0, 0.00107025, 0.000383949, 0.000624821, 7.10397, 14.7481, 0, 0.00107048, 0.414304, -31.8258, -52.6338, 0.483392, -20.6286, -24.0991, 0.00044998, -0.000193756, -0.000710815, 0.000242487, 0.000242487, 0.000242487
376, 1,0.000654094, -0.000354923, 0.000273199, 19.4191, -20.7174, 0.0013468, 37.485, 35.207, 0, 0.00110474, 0.000840903, 0.00116964, 24.4615, 20.4494, 0, 0.001105, 0.000471268, 0.000636559, 14.6721, 10.23, 0, 0.00110518, 0.0336587, -37.7239, -23.6579, 0.0933672, -24.3363, -6.44703, 0.000322857, -0.00043102, -0.00022367, 0.000163137, 0.000163137, 0.000163137
377, 1,0.000651054, -0.000476035, 0.000332259, 6.68632, -29.3434, 0.00117621, 18.8807, 49.3608, 0, 0.00100241, 0.00083775, 0.00148963, 8.89735, 40.6702, 0, 0.00100255, 0.000465787, 0.000830124, 4.60238, 22.6858, 0, 0.00100284, -0.0683817, -38.0322, -83.9099, 0.0149966, -25.0934, -42.9788, 0.000639503, -0.000116502, -0.00118293, 0.000358034, 0.000358034, 0.000358034
378, 1,0.000543669, -0.000394607, 0.000277028, 6.85506, -24.272, 0.000921359, 10.8931, 43.87, 0, 0.00103717, 0.000700945, 0.00122145, 8.85268, 32.4477, 0, 0.00103736, 0.000388176, 0.000673529, 5.00542, 17.6937, 0, 0.00103761, 0.0928022, -32.3574, -65.0786, 0.193634, -21.3505, -31.9243, 0.000513259, -0.000134066, -0.000905703, 0.000283033, 0.000283033, 0.000283033
379, 1,0.000512289, -0.00033852, 0.000245748, 10.2852, -20.458, 0.000865933, 12.0929, 38.739, 0, 0.00107193, 0.000662615, 0.00105636, 13.0901, 24.539, 0, 0.00107217, 0.000364234, 0.000572431, 7.66067, 12.8861, 0, 0.00107238, 0.138344, -31.4692, -42.2861, 0.21643, -20.3737, -18.5012, 0.000389452, -0.000241987, -0.00054565, 0.000207574, 0.000207574, 0.000207574
380, 1,0.000651859, -0.000328165, 0.000258832, 21.5788, -18.8727, 0.00116154, 29.9902, 33.4736, 0, 0.0011067, 0.00083632, 0.0011087, 27.0833, 16.9491, 0, 0.001107, 0.000471677, 0.000605385, 16.381, 8.27907, 0, 0.00110716, -0.0131753, -37.2418, -13.5924, 0.0471539, -23.896, -0.988405, 0.00026677, -0.000479229, -6.25756E-05, 0.000131474, 0.000131474, 0.000131474
381, 1,0.000604469, -0.000433686, 0.000304825, 6.82571, -26.6406, 0.00108557, 19.5788, 42.6659, 0, 0.00100422, 0.000778897, 0.00136571, 9.14958, 36.6377, 0, 0.00100432, 0.000431273, 0.000760362, 4.614, 20.5169, 0, 0.00100458, -0.12959, -36.9752, -72.8084, -0.0400714, -24.262, -37.2486, 0.00057465, -0.000160868, -0.00100827, 0.000322655, 0.000322655, 0.000322655
382, 1,0.000505585, -0.000356749, 0.000252846, 7.15204, -21.8395, 0.000890109, 14.026, 37.6816, 0, 0.00103906, 0.000652505, 0.00111287, 9.29547, 28.7662, 0, 0.00103921, 0.000360332, 0.000612876, 5.14823, 15.7249, 0, 0.00103943, -0.01958, -31.5303, -54.7487, 0.0772273, -20.7181, -26.5338, 0.000452884, -0.00017644, -0.000743214, 0.00024954, 0.00024954, 0.00024954
383, 1,0.000488786, -0.000306283, 0.000226261, 11.1858, -18.3368, 0.000869204, 16.305, 33.2757, 0, 0.00107389, 0.000632294, 0.000969613, 14.2598, 21.0815, 0, 0.0010741, 0.000347622, 0.00052487, 8.29677, 11.0272, 0, 0.00107428, 0.0470428, -30.8721, -32.4195, 0.115774, -19.9202, -13.2773, 0.000333114, -0.000285175, -0.00039002, 0.000176213, 0.000176213, 0.000176213
384, 1,0.00065473, -0.000303568, 0.000246402, 23.8111, -17.1424, 0.00111513, 30.7699, 29.4436, 0, 0.00110872, 0.000838494, 0.00105653, 29.8445, 13.5612, 0, 0.00110901, 0.000475589, 0.000579287, 18.1002, 6.41214, 0, 0.00110914, -0.0306411, -36.8147, -3.83817, 0.0306058, -23.528, 4.26097, 0.000213085, -0.000525593, 9.24492E-05, 0.000101765, 0.000101765, 0.000101765
385, 1,0.000562936, -0.000393074, 0.000278888, 7.14148, -24.0293, 0.00101062, 20.4789, 36.7025, 0, 0.00100603, 0.000726334, 0.00124937, 9.62563, 32.6642, 0, 0.0010061, 0.000400585, 0.000695247, 4.75506, 18.3792, 0, 0.00100633, -0.148443, -35.8404, -62.0038, -0.0586301, -23.3888, -31.69, 0.000511632, -0.000202539, -0.000839106, 0.000288549, 0.000288549, 0.000288549
386, 1,0.000472559, -0.000320439, 0.000230014, 7.67409, -19.4856, 0.000844589, 15.9677, 32.19, 0, 0.00104094, 0.000610275, 0.00101174, 10.0098, 25.107, 0, 0.00104106, 0.000336389, 0.000556979, 5.46829, 13.7585, 0, 0.00104125, -0.0433031, -30.5421, -44.7355, 0.0405651, -19.968, -21.3482, 0.000394729, -0.000215635, -0.000586487, 0.000217767, 0.000217767, 0.000217767
387, 1,0.000471195, -0.00027587, 0.000208415, 12.3326, -16.3062, 0.000857837, 19.6701, 28.0321, 0, 0.00107585, 0.000609382, 0.000891538, 15.7393, 17.641, 0, 0.00107603, 0.000335394, 0.000482601, 9.11161, 9.16663, 0, 0.00107618, 0.0469354, -30.0384, -22.9315, 0.0997453, -19.2738, -8.32578, 0.000278942, -0.000323848, -0.000241347, 0.000146582, 0.000146582, 0.000146582
388, 1,0.000666013, -0.000281282, 0.000236068, 26.2988, -15.5304, 0.00111937, 34.7145, 24.3959, 0, 0.00111076, 0.000851065, 0.00101588, 32.9471, 10.2461, 0, 0.00111101, 0.000485811, 0.000560194, 19.9823, 4.59286, 0, 0.00111112, -0.0475986, -36.1624, 5.47177, 0.0114971, -22.9792, 9.18912, 0.000160532, -0.000566123, 0.000239325, 7.27233E-05, 7.27233E-05, 7.27233E-05
389, 1,0.000526155, -0.00035423, 0.000254507, 7.63697, -21.5112, 0.000958627, 22.2861, 30.9817, 0, 0.00100784, 0.000679869, 0.0011402, 10.3354, 28.7474, 0, 0.00100788, 0.000373301, 0.000634184, 5.02184, 16.2723, 0, 0.00100808, -0.148341, -34.6002, -51.4938, -0.0605729, -22.4477, -26.3087, 0.000449919, -0.000240992, -0.000675385, 0.000255294, 0.000255294, 0.000255294
390, 1,0.000444387, -0.000285865, 0.000208749, 8.4164, -17.2211, 0.000805151, 17.9555, 27.0215, 0, 0.00104282, 0.000574311, 0.000917786, 11.0037, 21.4747, 0, 0.00104291, 0.000315877, 0.000505086, 5.94857, 11.7988, 0, 0.00104307, -0.0224817, -29.4164, -34.9852, 0.0463262, -19.1174, -16.3254, 0.000337948, -0.000251717, -0.000434685, 0.000187005, 0.000187005, 0.000187005
391, 1,0.000461276, -0.000247697, 0.000192641, 13.8299, -14.3885, 0.000841027, 22.4648, 23.2108, 0, 0.00107781, 0.000596042, 0.000823738, 17.6516, 14.2254, 0, 0.00107796, 0.000328932, 0.000446471, 10.1937, 7.3103, 0, 0.00107809, 0.0741072, -29.0332, -13.7171, 0.110429, -18.4981, -3.54323, 0.000225724, -0.000358886, -9.76683E-05, 0.00011757, 0.00011757, 0.00011757
392, 1,0.000686286, -0.000261561, 0.000228082, 29.1487, -14.049, 0.00112658, 38.6411, 19.5716, 0, 0.00111279, 0.000874807, 0.000987319, 36.506, 6.97487, 0, 0.00111302, 0.00050278, 0.000548324, 22.1285, 2.79026, 0, 0.00111309, -0.0415842, -35.3305, 14.4475, 0.0149255, -22.2963, 13.9106, 0.000109134, -0.000602588, 0.000380268, 4.43992E-05, 4.43992E-05, 4.43992E-05
393, 1,0.000494362, -0.000317351, 0.000231895, 8.33274, -19.0956, 0.000926698, 24.9291, 25.4126, 0, 0.00100965, 0.00063996, 0.00103854, 11.3106, 24.8859, 0, 0.00100966, 0.000349444, 0.000577106, 5.42404, 14.1962, 0, 0.00100984, -0.139741, -33.2563, -41.2618, -0.0549595, -21.4388, -21.0948, 0.000389263, -0.000276373, -0.000516689, 0.000222689, 0.000222689, 0.000222689
394, 1,0.000422125, -0.000253354, 0.000189388, 9.41904, -15.062, 0.000778361, 20.5018, 21.9048, 0, 0.0010447, 0.000546009, 0.000832228, 12.3331, 17.8817, 0, 0.00104477, 0.000299517, 0.000457768, 6.61369, 9.85763, 0, 0.0010449, 0.0079945, -28.1762, -25.4768, 0.0625727, -18.1859, -11.4496, 0.000281994, -0.000284885, -0.000287259, 0.000156762, 0.000156762, 0.000156762
395, 1,0.000460037, -0.000222167, 0.000179346, 15.7194, -12.6041, 0.000833737, 25.711, 18.3869, 0, 0.00107976, 0.000593686, 0.000767576, 20.0572, 10.846, 0, 0.00107989, 0.00032885, 0.00041705, 11.5671, 5.4684, 0, 0.00107999, 0.107976, -27.9012, -4.74463, 0.12952, -17.6303, 1.0956, 0.000173213, -0.000390869, 4.16627E-05, 8.89577E-05, 8.89577E-05, 8.89577E-05
396, 1,0.000715141, -0.000244509, 0.000222547, 32.3632, -12.7042, 0.0011428, 42.9024, 14.8716, 0, 0.00111483, 0.000909419, 0.000970459, 40.5284, 3.754, 0, 0.00111503, 0.000525982, 0.000543089, 24.537, 1.01072, 0, 0.00111508, -0.0314814, -34.3582, 23.1277, 0.0223606, -21.5136, 18.4591, 5.8609E-05, -0.000635494, 0.000515963, 1.65167E-05, 1.65167E-05, 1.65167E-05
397, 1,0.000468318, -0.000282745, 0.000211363, 9.26897, -16.7971, 0.000914526, 28.4014, 19.9836, 0, 0.00101146, 0.000607676, 0.000945372, 12.6064, 21.0781, 0, 0.00101144, 0.000329465, 0.000524396, 5.98712, 12.1497, 0, 0.00101159, -0.128731, -31.8148, -31.2907, -0.0473197, -20.365, -16.0366, 0.000329505, -0.00030886, -0.000362655, 0.000190596, 0.000190596, 0.000190596
398, 1,0.000407199, -0.000223343, 0.00017237, 10.747, -13.0296, 0.000767327, 23.7619, 16.8288, 0, 0.00104658, 0.000527227, 0.000756842, 14.0837, 14.3296, 0, 0.00104663, 0.000288311, 0.000415946, 7.5088, 7.93651, 0, 0.00104674, 0.0377765, -26.8356, -16.1909, 0.0800931, -17.1842, -6.70537, 0.000226672, -0.00031538, -0.000143805, 0.000126865, 0.000126865, 0.000126865
399, 1,0.000468918, -0.000199684, 0.000168934, 18.0626, -10.9726, 0.000840493, 29.6152, 13.5707, 0, 0.00108172, 0.000604161, 0.000724888, 23.0369, 7.50846, 0, 0.00108182, 0.000336177, 0.000395355, 13.2735, 3.64634, 0, 0.00108189, 0.138453, -26.6645, 4.00066, 0.14755, -16.6887, 5.60211, 0.000121288, -0.000420114, 0.00017699, 6.06343E-05, 6.06343E-05, 6.06343E-05
400, 1,0.000752083, -0.000230119, 0.000219456, 35.9154, -11.4961, 0.0011729, 47.8091, 10.1876, 0, 0.00111687, 0.000954419, 0.000964929, 44.9881, 0.593811, 0, 0.00111704, 0.000554902, 0.000544079, 27.1803, -0.735581, 0, 0.00111707, -0.0236315, -33.2721, 31.5143, 0.0276153, -20.6546, 22.8337, 8.99027E-06, -0.000665154, 0.00064652, -1.089E-05, -1.089E-05, -1.089E-05
401, 1,0.000449122, -0.00025083, 0.000193334, 10.5018, -14.6359, 0.000922775, 32.7287, 14.7009, 0, 0.00101327, 0.000584528, 0.000862173, 14.2988, 17.322, 0, 0.00101322, 0.000314067, 0.000476718, 6.74833, 10.1309, 0, 0.00101334, -0.116788, -30.2885, -21.5606, -0.038791, -19.2356, -11.1183, 0.000270582, -0.000338754, -0.000212891, 0.00015896, 0.00015896, 0.00015896
402, 1,0.000401342, -0.00019637, 0.000158236, 12.4821, -11.1497, 0.000775873, 27.9037, 11.8108, 0, 0.00104847, 0.00052023, 0.000693857, 16.3624, 10.8185, 0, 0.00104849, 0.000283469, 0.000380799, 8.691, 6.03559, 0, 0.00104857, 0.0633975, -25.409, -7.11001, 0.0957423, -16.1233, -2.07924, 0.000171909, -0.000343468, -3.98312E-06, 9.72464E-05, 9.72464E-05, 9.72464E-05
403, 1,0.000489074, -0.000180599, 0.000161757, 20.91, -9.51127, 0.000865924, 34.3947, 8.76448, 0, 0.00108367, 0.000628984, 0.000697196, 26.6587, 4.21504, 0, 0.00108375, 0.000351696, 0.000382176, 15.3458, 1.84617, 0, 0.0010838, 0.163263, -25.3419, 12.5335, 0.162434, -15.6888, 9.98787, 6.99361E-05, -0.000446932, 0.000308599, 3.25888E-05, 3.25888E-05, 3.25888E-05
404, 1,0.000796631, 0.000219142, 0.000218724, 39.7867, 10.5028, 0.00121834, 53.4328, 5.51615, 0, 0.00111891, 0.00100925, 0.000970133, 49.8626, -2.51004, 0, 0.00111905, 0.000589146, 0.000550863, 30.0445, -2.45306, 0, 0.00111905, -0.0149612, -32.0884, 39.6334, 0.0338624, -19.7327, 27.058, -3.97242E-05, -0.000691934, 0.000772379, -3.78218E-05, -3.78218E-05, -3.78218E-05
405, 1,0.000438174, -0.000222112, 0.000178311, 12.101, -12.6362, 0.000952519, 37.9625, 9.56271, 0, 0.00101507, 0.000572411, 0.000790815, 16.4809, 13.6166, 0, 0.00101501, 0.000304165, 0.00043497, 7.75447, 8.13904, 0, 0.0010151, -0.104447, -28.6931, -12.0522, -0.0298471, -18.0626, -6.32467, 0.000212467, -0.000366385, -6.70197E-05, 0.000127757, 0.000127757, 0.000127757
406, 1,0.000406469, -0.000173032, 0.000147584, 14.7155, -9.45115, 0.000807327, 33.0716, 6.86772, 0, 0.00105035, 0.00052752, 0.000645768, 19.2885, 7.34873, 0, 0.00105034, 0.000286329, 0.000353656, 10.2245, 4.15499, 0, 0.0010504, 0.0839541, -23.9126, 1.78246, 0.10879, -15.0157, 2.44192, 0.000117688, -0.000369457, 0.000132529, 6.78934E-05, 6.78934E-05, 6.78934E-05
407, 1,0.000521088, -0.00016514, 0.000158043, 24.2891, -8.23109, 0.000912837, 40.1654, 3.99131, 0, 0.00108564, 0.000668979, 0.000685315, 30.9618, 0.964552, 0, 0.00108569, 0.00037574, 0.000377835, 17.7997, 0.0667939, 0, 0.00108571, 0.183034, -23.9488, 20.8721, 0.174844, -14.6431, 14.2679, 1.91536E-05, -0.000471621, 0.000436815, 4.81826E-06, 4.81826E-06, 4.81826E-06
408, 1,0.000847863, 0.000231469, 0.000220188, 43.934, 11.5911, 0.00128006, 59.8171, 0.858238, 0, 0.00112094, 0.00107281, 0.000984993, 55.1006, -5.55621, 0, 0.00112106, 0.000627966, 0.000562705, 33.0949, -4.14033, 0, 0.00112103, -0.00645917, -30.8246, 47.4997, 0.040049, -18.7628, 31.1438, -8.75344E-05, -0.000716145, 0.00089383, -6.42793E-05, -6.42793E-05, -6.42793E-05
409, 1,0.000437118, -0.000197133, 0.000166841, 14.1476, -10.824, 0.00100421, 44.1246, 4.56724, 0, 0.00101689, 0.000573504, 0.000733469, 19.2593, 9.96118, 0, 0.0010168, 0.000300871, 0.000400254, 9.06175, 6.1735, 0, 0.00101686, -0.0918107, -27.045, -2.74673, -0.0205638, -16.8588, -1.64109, 0.000155145, -0.000392087, 7.53167E-05, 9.69762E-05, 9.69762E-05, 9.69762E-05
410, 1,0.000424386, -0.000153879, 0.000140962, 17.5344, -7.96018, 0.000863791, 39.36, 2.0059, 0, 0.00105222, 0.000551442, 0.000614911, 22.9746, 3.91947, 0, 0.00105219, 0.000298168, 0.000335786, 12.1714, 2.29409, 0, 0.00105222, 0.0996668, -22.3619, 10.5038, 0.11947, -13.8736, 6.87186, 6.40029E-05, -0.000393651, 0.000266053, 3.88006E-05, 3.88006E-05, 3.88006E-05
411, 1,0.000564719, 0.000162305, 0.000157822, 28.1884, 7.96808, 0.000982576, 46.9863, -0.742737, 0, 0.00108759, 0.000723945, 0.00068904, 35.9366, -2.24283, 0, 0.00108762, 0.000408024, 0.000382043, 20.6219, -1.69165, 0, 0.00108761, 0.197402, -22.5012, 29.0323, 0.184476, -13.5645, 18.455, -3.10648E-05, -0.00049448, 0.000561937, -2.26816E-05, -2.26816E-05, -2.26816E-05
412, 1,0.00090474, 0.000245546, 0.00022362, 48.3108, 12.7528, 0.00135805, 66.9604, -3.78373, 0, 0.00112298, 0.00114384, 0.00100823, 60.6444, -8.54549, 0, 0.00112307, 0.000670573, 0.00057881, 36.2972, -5.79818, 0, 0.00112302, 0.00223218, -29.4952, 55.1295, 0.04659, -17.7564, 35.1043, -0.000134445, -0.000738063, 0.00101116, -9.02661E-05, -9.02661E-05, -9.02661E-05
413, 1,0.000447652, -0.000176385, 0.000159415, 16.7253, -9.22243, 0.00107712, 51.1819, -0.287083, 0, 0.00101869, 0.000589999, 0.000692315, 22.7409, 6.35522, 0, 0.00101858, 0.00030539, 0.00037377, 10.7311, 4.23382, 0, 0.00101862, -0.0788805, -25.3605, 6.37372, -0.0109591, -15.6368, 2.94628, 9.86085E-05, -0.000416183, 0.00021446, 6.66104E-05, 6.66104E-05, 6.66104E-05
414, 1,0.000456259, -0.000139242, 0.000138704, 20.9946, -6.69268, 0.000945312, 46.7695, -2.77301, 0, 0.0010541, 0.000593488, 0.000602776, 27.4921, 0.530601, 0, 0.00105404, 0.000319829, 0.00032803, 14.5726, 0.452734, 0, 0.00105404, 0.110428, -20.7723, 19.0701, 0.127673, -12.7092, 11.2233, 1.08484E-05, -0.000416348, 0.000396894, 9.963E-06, 9.963E-06, 9.963E-06
415, 1,0.000618942, 0.000176801, 0.000160901, 32.5611, 9.18568, 0.00107459, 54.829, -5.43483, 0, 0.00108954, 0.000792667, 0.000707152, 41.5271, -5.40757, 0, 0.00108954, 0.000447718, 0.000393967, 23.7748, -3.42962, 0, 0.00108951, 0.206495, -21.0135, 37.0298, 0.191468, -12.4642, 22.5616, -8.07237E-05, -0.000515784, 0.000684252, -4.99148E-05, -4.99148E-05, -4.99148E-05
416, 1,0.00096617, 0.000261111, 0.000228758, 52.8679, 13.9755, 0.00145161, 74.8306, -8.41098, 0, 0.00112501, 0.00122096, 0.00103846, 66.4316, -11.4782, 0, 0.00112507, 0.000716164, 0.000598369, 39.6159, -7.42681, 0, 0.001125, 0.0110996, -28.1139, 62.5373, 0.0534436, -16.7246, 38.9516, -0.000180461, -0.000757949, 0.00112465, -0.000115787, -0.000115787, -0.000115787
417, 1,0.000471169, -0.000160163, 0.000156329, 19.9023, -7.84536, 0.00116924, 59.0402, -5.00173, 0, 0.0010205, 0.000623597, 0.000669044, 27.0077, 2.79792, 0, 0.00102037, 0.000318801, 0.000356589, 12.8168, 2.31949, 0, 0.00102038, -0.0655744, -23.6545, 15.3263, -0.00102756, -14.4081, 7.45064, 4.28464E-05, -0.000438972, 0.000350732, 3.66512E-05, 3.66512E-05, 3.66512E-05
418, 1,0.000502117, 0.000152465, 0.000140778, 25.0973, 7.8302, 0.00104969, 55.1967, -7.46968, 0, 0.00105599, 0.000653655, 0.000609356, 32.8402, -2.81811, 0, 0.00105591, 0.000351375, 0.000330447, 17.4309, -1.36934, 0, 0.00105588, 0.116294, -19.1583, 27.4964, 0.133367, -11.5335, 15.5082, -4.17775E-05, -0.000437827, 0.000525335, -1.86238E-05, -1.86238E-05, -1.86238E-05
419, 1,0.000682175, 0.000194051, 0.000166896, 37.3339, 10.5266, 0.00118665, 63.5895, -10.0861, 0, 0.00109151, 0.000873175, 0.000737676, 47.6415, -8.52997, 0, 0.00109148, 0.000493634, 0.000412415, 27.204, -5.14738, 0, 0.00109142, 0.210248, -19.4994, 44.879, 0.195748, -11.3529, 26.5993, -0.000129829, -0.000535794, 0.000804033, -7.68873E-05, -7.68873E-05, -7.68873E-05
420, 1,0.0010311, 0.000277888, 0.000235324, 57.5576, 15.246, 0.00155944, 83.3643, -13.0222, 0, 0.00112706, 0.00130284, 0.00107435, 72.4007, -14.3546, 0, 0.00112708, 0.000763985, 0.000620625, 43.0176, -9.02654, 0, 0.00112698, 0.0199997, -26.6935, 69.7373, 0.0605202, -15.6776, 42.6967, -0.000225589, -0.000776048, 0.00123456, -0.000140846, -0.000140846, -0.000140846
421, 1,0.000508301, 0.000166685, 0.000157567, 23.708, 8.40281, 0.0012777, 67.5678, -9.58042, 0, 0.00102231, 0.000674922, 0.000664277, 32.0882, -0.711123, 0, 0.00102216, 0.00034174, 0.000349339, 15.3491, 0.430173, 0, 0.00102214, -0.0517522, -21.941, 24.1261, 0.00923926, -13.1836, 11.8839, -1.21445E-05, -0.000460724, 0.000484413, 7.09396E-06, 7.09396E-06, 7.09396E-06
422, 1,0.00056074, 0.000170528, 0.000146772, 29.7834, 9.24798, 0.00117309, 64.4658, -12.0903, 0, 0.00105786, 0.000730315, 0.000633021, 38.9406, -6.1267, 0, 0.00105776, 0.000391988, 0.000342212, 20.706, -3.17222, 0, 0.00105771, 0.116835, -17.5336, 35.7969, 0.13612, -10.3573, 19.7379, -9.38848E-05, -0.000458349, 0.000651651, -4.69709E-05, -4.69709E-05, -4.69709E-05
423, 1,0.000752611, 0.00021357, 0.000175324, 42.4225, 11.9676, 0.00131537, 73.1095, -14.7001, 0, 0.00109346, 0.000963169, 0.000778309, 54.172, -11.6099, 0, 0.00109341, 0.000544465, 0.000436073, 30.8491, -6.84484, 0, 0.00109332, 0.208102, -17.9716, 52.5933, 0.196807, -10.2407, 30.5784, -0.000178391, -0.000554756, 0.000921534, -0.000103608, -0.000103608, -0.000103608
424, 1,0.00109858, 0.000295612, 0.000243053, 62.337, 16.5514, 0.00167984, 92.4836, -17.6207, 0, 0.00112908, 0.00138824, 0.00111466, 78.4958, -17.1754, 0, 0.00112907, 0.000813368, 0.000644902, 46.4726, -10.5978, 0, 0.00112895, 0.0291714, -25.246, 76.7432, 0.0679442, -14.6248, 46.3502, -0.000269837, -0.000792591, 0.00134112, -0.000165449, -0.000165449, -0.000165449
425, 1,0.000558609, 0.000184648, 0.000162766, 28.1176, 9.84935, 0.00139975, 76.6465, -14.0374, 0, 0.00102412, 0.000743175, 0.000677217, 37.9404, -4.17163, 0, 0.00102396, 0.00037412, 0.000351936, 18.3205, -1.43405, 0, 0.00102391, -0.0377961, -20.2337, 32.7863, 0.0194298, -11.9744, 16.2571, -6.63683E-05, -0.000481693, 0.000615757, -2.20696E-05, -2.20696E-05, -2.20696E-05
426, 1,0.000630014, 0.000191688, 0.000156017, 34.9515, 10.8053, 0.00131081, 74.3615, -16.6442, 0, 0.00105975, 0.000820699, 0.000670987, 45.6607, -9.39568, 0, 0.00105962, 0.000440199, 0.000361844, 24.327, -4.95642, 0, 0.00105955, 0.11166, -15.9098, 43.9851, 0.135609, -9.18961, 23.9233, -0.00014549, -0.000478141, 0.000776092, -7.50936E-05, -7.50936E-05, -7.50936E-05
427, 1,0.000828501, 0.000234854, 0.000185679, 47.7463, 13.4843, 0.00145659, 83.1974, -19.2837, 0, 0.00109542, 0.00106039, 0.000826771, 61.0136, -14.6487, 0, 0.00109534, 0.000598974, 0.000463689, 34.6538, -8.52311, 0, 0.00109523, 0.199852, -16.4397, 60.186, 0.194583, -9.1346, 34.5093, -0.000226434, -0.000572862, 0.00103699, -0.000130096, -0.000130096, -0.000130096
428, 1,0.00116775, 0.000314035, 0.000251695, 67.1668, 17.88, 0.00181084, 102.09, -22.2, 0, 0.00113111, 0.00147606, 0.00115826, 84.6653, -19.9409, 0, 0.00113107, 0.000863712, 0.000670599, 49.9538, -12.1407, 0, 0.00113092, 0.0385808, -23.7821, 83.5663, 0.0757533, -13.574, 49.9203, -0.000313206, -0.000807776, 0.00144455, -0.000189597, -0.000189597, -0.000189597
429, 1,0.000620608, 0.000205766, 0.000171311, 33.0558, 11.4366, 0.00153415, 86.2485, -18.4147, 0, 0.00102594, 0.000826253, 0.000705778, 44.4595, -7.58305, 0, 0.00102576, 0.000415077, 0.000363522, 21.6842, -3.27315, 0, 0.00102569, -0.0230169, -18.5461, 41.3182, 0.0303148, -10.7915, 20.5806, -0.000119804, -0.000502111, 0.000744964, -5.08248E-05, -5.08248E-05, -5.08248E-05
430, 1,0.000707553, 0.000215211, 0.000167778, 40.4883, 12.4668, 0.00145755, 84.6489, -21.1516, 0, 0.00106164, 0.000921697, 0.000720122, 52.8528, -12.6252, 0, 0.00106149, 0.000494336, 0.000387648, 28.2141, -6.72221, 0, 0.00106139, 0.0993114, -14.2986, 52.075, 0.130748, -8.03983, 28.0757, -0.000196631, -0.000497419, 0.000898914, -0.000103022, -0.000103022, -0.000103022
431, 1,0.000908255, 0.000257445, 0.000197502, 53.2308, 15.0548, 0.00160492, 93.6025, -23.8426, 0, 0.00109737, 0.00116279, 0.000881013, 68.0697, -17.6455, 0, 0.00109726, 0.000656038, 0.000494143, 38.5655, -10.1813, 0, 0.00109713, 0.185175, -14.9145, 67.6659, 0.18876, -8.04247, 38.3975, -0.000273952, -0.000590294, 0.00115057, -0.000156343, -0.000156343, -0.000156343
432, 1,0.00123784, 0.00033294, 0.000261032, 72.0125, 19.2212, 0.00195071, 112.114, -26.7784, 0, 0.00113313, 0.00156529, 0.00120417, 90.8642, -22.6508, 0, 0.00113305, 0.000914477, 0.000697177, 53.4372, -13.6546, 0, 0.00113288, 0.0475237, -22.3116, 90.2164, 0.0830941, -12.5326, 53.4134, -0.000355707, -0.000821758, 0.001545, -0.000213296, -0.000213296, -0.000213296
433, 1,0.000692313, 0.000229317, 0.000182485, 38.4253, 13.1298, 0.00168329, 96.53, -22.7693, 0, 0.00102778, 0.000921453, 0.000747235, 51.5145, -10.945, 0, 0.00102758, 0.000463342, 0.000382795, 25.376, -5.08783, 0, 0.00102749, -0.0105168, -16.8937, 49.7391, 0.039374, -9.6481, 24.8722, -0.000172516, -0.000522221, 0.000872338, -7.92413E-05, -7.92413E-05, -7.92413E-05
434, 1,0.000791062, 0.000240421, 0.000181377, 46.2915, 14.2, 0.00160634, 94.9236, -25.5126, 0, 0.00106353, 0.00103035, 0.000777436, 60.3832, -15.8247, 0, 0.00106337, 0.000552758, 0.000417952, 32.2955, -8.47854, 0, 0.00106324, 0.091504, -12.6992, 60.0817, 0.133268, -6.90583, 32.2082, -0.000247209, -0.000516273, 0.00102026, -0.000130654, -0.000130654, -0.000130654
435, 1,0.000990607, 0.000280939, 0.000210387, 58.8228, 16.6593, 0.00175266, 103.853, -28.2304, 0, 0.00109932, 0.0012687, 0.000939287, 75.2681, -20.6102, 0, 0.00109919, 0.000714789, 0.000526485, 42.5498, -11.8288, 0, 0.00109903, 0.171541, -13.3888, 75.0478, 0.18657, -6.95649, 42.2564, -0.000320939, -0.000607048, 0.00126242, -0.000182345, -0.000182345, -0.000182345
436, 1,0.00130818, 0.000352131, 0.000270868, 76.8446, 20.5657, 0.00209798, 122.384, -31.218, 0, 0.00113514, 0.00165508, 0.00125151, 97.0537, -25.3105, 0, 0.00113503, 0.000965167, 0.000724135, 56.9022, -15.1452, 0, 0.00113484, 0.0639271, -20.8335, 96.7011, 0.0978054, -11.4968, 56.8347, -0.000397256, -0.00083461, 0.00164257, -0.000236465, -0.000236465, -0.000236465
437, 1,0.000771853, 0.000254613, 0.000195605, 44.1431, 14.8965, 0.00185622, 107.914, -27.0941, 0, 0.00102965, 0.00102623, 0.000799032, 58.9912, -14.2687, 0, 0.00102943, 0.000517706, 0.00040853, 29.3426, -6.8896, 0, 0.00102931, 0.0151401, -15.2943, 58.0852, 0.0621626, -8.56045, 29.1671, -0.000224359, -0.000542525, 0.000998416, -0.000107176, -0.000107176, -0.000107176
438, 1,0.000878934, 0.000266755, 0.000196253, 52.2732, 15.9779, 0.00175171, 104.724, -29.4524, 0, 0.00106543, 0.0011445, 0.000840813, 68.1377, -18.9834, 0, 0.00106525, 0.000614405, 0.000451729, 36.5088, -10.2146, 0, 0.0010651, 0.0793708, -11.1422, 68.0129, 0.133855, -5.81798, 36.328, -0.000297257, -0.00053523, 0.00114052, -0.000158026, -0.000158026, -0.000158026
439, 1,0.00107406, 0.000305003, 0.000224004, 64.4452, 18.2819, 0.00189061, 113.331, -32.2024, 0, 0.00110127, 0.00137628, 0.00100004, 82.5159, -23.5419, 0, 0.00110112, 0.000774062, 0.000559814, 46.5447, -13.4642, 0, 0.00110094, 0.186285, -11.8705, 82.3099, 0.213609, -5.88418, 46.0632, -0.00036681, -0.000623368, 0.00137218, -0.000207536, -0.000207536, -0.000207536
440, 1,0.00137805, 0.000371442, 0.000281037, 81.616, 21.9059, 0.00225858, 133.263, -35.6268, 0, 0.00113716, 0.00174455, 0.0012995, 103.18, -27.9091, 0, 0.00113701, 0.00101524, 0.000751006, 60.3089, -16.6007, 0, 0.00113681, 0.0771566, -19.3555, 103.006, 0.108347, -10.4722, 60.166, -0.000437898, -0.000846427, 0.00173719, -0.000259158, -0.000259158, -0.000259158
441, 1,0.000858911, 0.000281122, 0.000210123, 50.1917, 16.7128, 0.00206559, 120.761, -31.0624, 0, 0.0010315, 0.00113975, 0.000859734, 66.8494, -17.5653, 0, 0.00103128, 0.000578352, 0.000440336, 33.5879, -8.6873, 0, 0.00103113, 0.0147762, -13.7683, 66.4494, 0.0595827, -7.54758, 33.5499, -0.000276336, -0.000563776, 0.00112514, -0.000135594, -0.000135594, -0.000135594
442, 1,0.000969746, 0.00029365, 0.000211846, 58.4162, 17.7736, 0.00189202, 113.205, -31.9255, 0, 0.0010673, 0.0012622, 0.000908182, 76.0761, -22.2117, 0, 0.00106713, 0.000678324, 0.000487876, 40.8566, -12.0396, 0, 0.00106696, 0.220804, -9.51154, 75.926, 0.287621, -4.67214, 40.5032, -0.000345161, -0.000554144, 0.00125972, -0.000183566, -0.000183566, -0.000183566
443, 1,0.00115746, 0.000329228, 0.000237966, 70.0079, 19.9016, 0.00201196, 120.457, -34.0502, 0, 0.00110317, 0.00148404, 0.00106188, 89.7069, -26.4549, 0, 0.00110304, 0.000833001, 0.000593344, 50.4732, -15.1025, 0, 0.00110283, 0.259562, -10.3046, 89.4098, 0.297542, -4.78013, 49.7902, -0.000411166, -0.000639168, 0.0014796, -0.000231589, -0.000231589, -0.000231589
444, 1,0.00144812, 0.000390718, 0.000291392, 86.3256, 23.2335, 0.00244104, 144.272, -38.8101, 0, 0.00113913, 0.00183422, 0.00134892, 109.234, -30.4736, 0, 0.00113898, 0.00106547, 0.000778824, 63.6615, -18.0493, 0, 0.00113875, 0.154166, -17.8893, 109.156, 0.181441, -9.46771, 63.4341, -0.000476642, -0.000858942, 0.00183007, -0.000280407, -0.000280407, -0.000280407
445, 1,0.000953973, 0.000308504, 0.000225666, 56.6088, 18.5638, 0.00234036, 136.076, -34.1793, 0, 0.00103333, 0.00126217, 0.000929858, 75.1137, -20.9331, 0, 0.00103311, 0.000646071, 0.000479412, 38.1606, -10.5769, 0, 0.00103294, 0.163782, -12.3264, 74.9619, 0.212051, -6.61681, 38.1354, -0.000326268, -0.000588934, 0.00125487, -0.000162176, -0.000162176, -0.000162176
446, 1,0.00105937, 0.000320685, 0.000227757, 64.1582, 19.5651, 0.00208502, 123.06, -32.8781, 0, 0.00106916, 0.00137893, 0.000976748, 83.6152, -25.1168, 0, 0.00106902, 0.000740789, 0.000524362, 44.7971, -13.5652, 0, 0.00106882, 0.0869108, -8.05506, 83.3184, 0.169725, -3.7167, 44.2427, -0.000393753, -0.000573712, 0.00137502, -0.000210096, -0.000210096, -0.000210096
447, 1,0.00123756, 0.000353237, 0.000251924, 75.2278, 21.5032, 0.00224533, 132.177, -34.9407, 0, 0.00110507, 0.00158836, 0.00112322, 96.5418, -29.2844, 0, 0.00110497, 0.000888709, 0.000626135, 54.0684, -16.6766, 0, 0.00110475, 0.496909, -8.735, 96.0912, 0.535007, -3.69657, 53.1912, -0.000450758, -0.000656037, 0.00158198, -0.0002514, -0.0002514, -0.0002514
448, 1,0.00151867, 0.00040979, 0.000301712, 90.9735, 24.5501, 0.0028146, 165.182, -43.1606, 0, 0.00114113, 0.00192432, 0.00139967, 115.221, -33.0383, 0, 0.00114094, 0.00111611, 0.000807619, 66.954, -19.5127, 0, 0.00114069, 0.30968, -16.3786, 115.184, 0.323384, -8.44134, 66.656, -0.000513811, -0.000871947, 0.00192186, -0.000300514, -0.000300514, -0.000300514
449, 1,0.00107072, 0.000336533, 0.00024187, 64.05, 20.453, 0.00291951, 169.803, -42.7045, 0, 0.00103524, 0.00140699, 0.00101865, 84.446, -24.4482, 0, 0.00103494, 0.000734699, 0.000535628, 43.7069, -12.6108, 0, 0.00103474, 0.155918, -11.1797, 84.3683, 0.206186, -6.00846, 43.6346, -0.000381751, -0.000624123, 0.00140258, -0.000194298, -0.000194298, -0.000194298
450, 1,0.00114773, 0.000347238, 0.000243336, 69.5801, 21.3292, 0.00259496, 153.047, -40.7613, 0, 0.0010711, 0.00149404, 0.00104703, 90.8152, -27.8768, 0, 0.00107088, 0.000802222, 0.000562885, 48.4286, -14.9665, 0, 0.00107065, 0.0377395, -6.73201, 90.3248, 0.142195, -2.94872, 47.706, -0.000438276, -0.000596738, 0.00148736, -0.00023276, -0.00023276, -0.00023276
451, 1,0.00130576, 0.000376165, 0.000265141, 79.3076, 23.0392, 0.0028769, 171.741, -47.9737, 0, 0.00110716, 0.00167995, 0.00117877, 102.182, -31.4659, 0, 0.00110687, 0.000933151, 0.000653983, 56.5699, -17.6578, 0, 0.00110662, 0.376499, -7.57454, 101.596, 0.432704, -3.04802, 55.5888, -0.000487784, -0.000673562, 0.00167193, -0.000269132, -0.000269132, -0.000269132
452, 1,0.00157562, 0.000428892, 0.000312329, 94.2626, 25.8652, 0.00366398, 219.378, -62.029, 0, 0.00114339, 0.00200067, 0.00144712, 119.828, -34.6148, 0, 0.00114288, 0.00115344, 0.000833026, 68.9255, -20.0261, 0, 0.00114261, -0.0424862, -15.92, 119.807, -0.0370202, -8.396, 68.5114, -0.000546261, -0.000891607, 0.00199954, -0.000316392, -0.000316392, -0.000316392
453, 1,0.00120409, 0.000364904, 0.000258441, 72.5335, 22.3669, 0.00416934, 249.813, -70.8419, 0, 0.00103749, 0.00156891, 0.00112794, 94.8563, -28.3327, 0, 0.00103677, 0.000839351, 0.000611279, 50.2494, -15.0353, 0, 0.00103655, 1.01407, -10.8129, 94.797, 1.0982, -6.16195, 50.1698, -0.000424609, -0.000680823, 0.00156517, -0.000213461, -0.000213461, -0.000213461
454, 1,0.00122859, 0.00037352, 0.00025906, 73.6452, 23.0615, 0.0037437, 224.713, -64.1091, 0, 0.00107331, 0.00160119, 0.00111131, 96.6062, -29.2685, 0, 0.00107271, 0.000856787, 0.000597035, 50.7743, -15.088, 0, 0.00107246, -2.1131, -5.86729, 95.7857, -1.91842, -2.54621, 49.7287, -0.000505763, -0.000609179, 0.00158986, -0.000278337, -0.000278337, -0.000278337
455, 1,0.00135496, 0.000399899, 0.00027937, 82.0256, 24.5953, 0.00396576, 239.717, -70.171, 0, 0.00110943, 0.00175266, 0.00122076, 106.427, -32.9102, 0, 0.00110876, 0.000959091, 0.000669185, 57.793, -17.9779, 0, 0.00110849, -0.467577, -6.25339, 105.452, -0.319471, -2.08321, 56.3363, -0.000528682, -0.000676687, 0.00173938, -0.000290376, -0.000290376, -0.000290376
456, 1,0.00167434, 0.000450509, 0.000325235, 100.91, 27.3025, 0.0048802, 300.835, -94.2889, 0, 0.00114596, 0.00212032, 0.00151837, 127.848, -37.8882, 0, 0.00114491, 0.00123169, 0.000880368, 74.2455, -22.2495, 0, 0.00114462, 0.383241, -14.488, 127.769, 0.441264, -7.21073, 73.518, -0.000588985, -0.000916263, 0.00212004, -0.000341468, -0.000341468, -0.000341468
457, 1,0.00133145, 0.000396501, 0.000277457, 78.7828, 24.4565, 0.00590617, 357.827, -105.654, 0, 0.00103993, 0.00172795, 0.00124071, 103.206, -29.6901, 0, 0.00103864, 0.000934952, 0.000685799, 54.387, -14.8935, 0, 0.0010384, -1.47915, -12.6116, 103.161, -1.2596, -8.38153, 54.3215, -0.000498339, -0.000744163, 0.00172425, -0.000260736, -0.000260736, -0.000260736
458, 1,0.00133604, 0.0004038, 0.00027841, 78.6928, 24.981, 0.0055554, 324.199, -82.7359, 0, 0.00107553, 0.00173784, 0.00120652, 103.467, -30.2325, 0, 0.00107461, 0.000935946, 0.000658603, 54.1032, -14.8204, 0, 0.00107434, -5.17838, -5.96897, 101.845, -4.77281, -2.78075, 52.0147, -0.000585499, -0.000639937, 0.00171599, -0.000334224, -0.000334224, -0.000334224
459, 1,0.00151011, 0.000429641, 0.000299166, 87.1232, 26.4683, 0.00575063, 325.129, -71.5982, 0, 0.00111139, 0.00193292, 0.00136136, 113.085, -30.7204, 0, 0.00111065, 0.00109259, 0.000787593, 61.5683, -14.6073, 0, 0.00111036, -8.32003, -9.97333, 110.455, -8.08107, -5.71771, 57.6208, -0.000660841, -0.000734384, 0.0018937, -0.000402016, -0.000402016, -0.000402016
460, 1,0.00190489, 0.000479073, 0.000343729, 113.458, 29.1665, 0.00664839, 388.316, -99.5072, 0, 0.00114807, 0.0023756, 0.00170745, 142, -40.793, 0, 0.00114698, 0.00143967, 0.00104383, 85.3347, -23.8752, 0, 0.00114666, -1.55773, -17.6275, 141.564, -1.52743, -10.4332, 83.5861, -0.000676378, -0.00103472, 0.00237302, -0.000409303, -0.000409303, -0.000409303
461, 1,0.00154229, 0.000442716, 0.000308507, 91.0084, 27.3983, 0.00910397, 437.33, -110.14, 0.031599, 0.00104192, 0.00198288, 0.0014394, 118.132, -34.0721, 0, 0.0010406, 0.00110334, 0.000827379, 64.1009, -17.4084, 0, 0.00104032, -0.332721, -15.2392, 117.788, -0.0719263, -10.778, 63.0753, -0.000542001, -0.000887573, 0.00198242, -0.000274165, -0.000274165, -0.000274165
462, 1,0.00167304, 0.000440494, 0.000302285, 93.8912, 27.3186, 0.00970352, 426.975, -94.0827, 0.0429294, 0.0010777, 0.00210636, 0.00147317, 120.613, -30.8174, 0, 0.00107656, 0.00124461, 0.000901867, 67.599, -13.9702, 0, 0.00107626, -14.9575, -9.42056, 116.83, -14.3121, -6.16205, 62.3846, -0.000800879, -0.000754121, 0.00205503, -0.000521944, -0.000521944, -0.000521944
463, 1,0.00195254, 0.000456128, 0.000315207, 112.949, 28.2238, 0.0113312, 436.81, -106.993, 0.0750233, 0.00111411, 0.00240007, 0.0016717, 140.479, -39.29, 0, 0.0011128, 0.00151023, 0.00107275, 85.8615, -22.0729, 0, 0.00111249, -11.277, -7.16851, 136.316, -10.7182, -3.03271, 79.9697, -0.000859172, -0.000846348, 0.00234304, -0.000576198, -0.000576198, -0.000576198
464, 1,0.00225365, 0.000507942, 0.000362835, 134.086, 31.0926, 0.0138072, 457.041, -136.916, 0.124683, 0.00115103, 0.00275124, 0.00193956, 164.294, -47.8376, 0, 0.00114918, 0.00176209, 0.00124232, 104.41, -29.7735, 0, 0.00114884, -4.39339, -15.2658, 163.172, -4.2323, -7.75379, 101.307, -0.000848248, -0.00111955, 0.00274402, -0.000560373, -0.000560373, -0.000560373
465, 1,0.00197363, 0.000490205, 0.000341078, 114.606, 30.4139, 0.0187372, 476.678, -165.075, 0.221775, 0.00104521, 0.00245953, 0.00172229, 144.452, -41.0462, -6.77626E-21, 0.00104271, 0.0014905, 0.00104853, 85.1508, -22.7847, -6.77626E-21, 0.00104241, -8.30794, -11.8963, 143.343, -7.60497, -6.65084, 82.6099, -0.000817434, -0.000973254, 0.00245667, -0.00051517, -0.00051517, -0.00051517
466, 1,0.00219332, 0.000470874, 0.000321669, 127.83, 29.2106, 0.0207321, 492.838, -190.826, 0.261988, 0.00108197, 0.00265936, 0.00183558, 156.404, -46.3274, 0, 0.00107886, 0.00172995, 0.00121222, 99.6391, -28.8094, 0, 0.00107856, -12.9653, 1.33286, 150.615, -10.919, 4.85118, 92.4961, -0.00100278, -0.000842417, 0.00259686, -0.000683662, -0.000683662, -0.000683662
467, 1,0.00242086, 0.000485607, 0.000334226, 140.015, 30.01, 0.0230182, 503.276, -206.326, 0.306522, 0.0011187, 0.00289946, 0.00203308, 169.2, -48.0748, 0, 0.00111506, 0.0019458, 0.00138733, 111.279, -30.4295, 0, 0.00111474, -16.4692, -1.92114, 162.615, -14.4136, 2.89671, 102.806, -0.00110782, -0.000942553, 0.00283038, -0.000786467, -0.000786467, -0.000786467
468, 1,0.00271213, 0.000547418, 0.000387961, 164.167, 33.6751, 0.024937, 490.226, -183.022, 0.341146, 0.00115464, 0.00325184, 0.00223035, 196.917, -61.8088, 0, 0.00115156, 0.00217651, 0.00149838, 131.94, -42.4109, 0, 0.0011512, -5.13882, -4.63844, 195.204, -4.30374, 3.45787, 128.079, -0.00108228, -0.0011574, 0.00324256, -0.000759189, -0.000759189, -0.000759189
469, 1,0.00252886, 0.000555177, 0.000385696, 154.681, 34.2432, 0.0274421, 486.793, -175.886, 0.388076, 0.00104777, 0.00308124, 0.00212551, 188.425, -62.4304, 0, 0.00104501, 0.0019781, 0.00138083, 121.266, -42.5127, 0, 0.00104468, -5.97104, 6.06181, 187.2, -3.74775, 12.5291, 118.757, -0.00110407, -0.000960692, 0.00307769, -0.000743517, -0.000743517, -0.000743517
470, 1,0.00261775, 0.000530866, 0.000366348, 153.678, 32.5565, 0.0292595, 490.472, -181.662, 0.423113, 0.00108416, 0.00314637, 0.00225562, 185.623, -53.6744, 0, 0.00108092, 0.00209034, 0.00152669, 122.088, -35.353, 0, 0.0010806, -24.2402, 8.50242, 176.761, -19.0321, 12.6992, 112.392, -0.00135747, -0.000833915, 0.00306222, -0.000958807, -0.000958807, -0.000958807
471, 1,0.00290866, 0.000548194, 0.000380836, 174.181, 33.6749, 0.030214, 483.449, -169.575, 0.440178, 0.00112027, 0.00345489, 0.00244353, 207.309, -63.1543, 0, 0.00111734, 0.00236339, 0.00168653, 141.338, -44.1342, 0, 0.00111699, -17.9012, 8.38264, 198.982, -12.9214, 13.0272, 132.297, -0.00137409, -0.000979836, 0.0033786, -0.000969255, -0.000969255, -0.000969255
472, 1,0.00336028, 0.000630377, 0.000439961, 200.227, 38.8973, 0.0307717, 477.122, -158.173, 0.449337, 0.00115646, 0.00398403, 0.00278164, 238.22, -71.0359, 0, 0.00115384, 0.00273967, 0.0019231, 162.686, -48.4386, 0, 0.00115342, -10.7938, -12.3098, 236.211, -8.81971, -4.51278, 158.648, -0.00134304, -0.00147825, 0.00397386, -0.000945496, -0.000945496, -0.000945496
473, 1,0.00343061, 0.000691653, 0.000468526, 199.042, 43.0612, 0.0294082, 475.43, -155.533, 0.423144, 0.00104944, 0.00411283, 0.00287141, 241.089, -65.6488, 0, 0.00104709, 0.00275302, 0.00194842, 157.507, -39.36, 0, 0.00104665, -22.347, -18.754, 238.047, -19.5697, -14.3573, 152.007, -0.00150108, -0.00152485, 0.00409106, -0.00102841, -0.00102841, -0.00102841
474, 1,0.00352698, 0.00067536, 0.000475392, 209.883, 41.7879, 0.0308212, 474.797, -154.047, 0.449461, 0.00108538, 0.0041997, 0.00301956, 251.092, -71.8874, 0, 0.00108302, 0.00285552, 0.00207239, 168.958, -47.1473, 0, 0.00108259, -33.0408, 10.2411, 238.462, -25.4784, 10.841, 156.079, -0.00183079, -0.00105506, 0.00405223, -0.0012812, -0.0012812, -0.0012812
475, 1,0.00365767, 0.000697787, 0.000493025, 217.685, 43.0422, 0.0315215, 476.83, -157.173, 0.462851, 0.00112178, 0.00435061, 0.00312359, 259.956, -73.2141, 0, 0.00111926, 0.00296701, 0.00214509, 175.785, -48.0051, 0, 0.0011188, -33.469, 7.39476, 245.716, -25.8297, 8.89885, 160.946, -0.00186129, -0.00113003, 0.00417923, -0.0013027, -0.0013027, -0.0013027
476, 1,0.004057, 0.000769765, 0.000525449, 250.627, 47.8991, 0.0318514, 478.763, -159.822, 0.469024, 0.00115855, 0.00480686, 0.00329483, 296.724, -94.3459, 0, 0.00115626, 0.00331632, 0.00227728, 205.368, -65.1479, 0, 0.00115571, -5.94564, -2.59524, 291.579, -3.14321, 2.48133, 196.106, -0.00160701, -0.00162304, 0.00476087, -0.00108795, -0.00108795, -0.00108795
477, 1,0.00389088, 0.000836876, 0.000577327, 254.083, 53.2133, 0.0283658, 477.809, -160.734, 0.40405, 0.00105222, 0.00472382, 0.00326114, 306.689, -113.987, 2.1684E-19, 0.00105062, 0.00306022, 0.00211365, 201.842, -78.6371, 2.1684E-19, 0.00105002, -0.230027, 37.544, 304.646, 3.31568, 34.36, 198.236, -0.00179471, -0.0010684, 0.00471264, -0.00116305, -0.00116305, -0.00116305
478, 1,0.00419309, 0.000868838, 0.000624887, 258.456, 54.3696, 0.02946, 475.024, -160.078, 0.425759, 0.00108799, 0.00506145, 0.003764, 312.576, -98.5567, 0, 0.00108602, 0.00332499, 0.00251617, 204.477, -64.2668, 0, 0.00108542, -42.9001, 37.1389, 301.431, -32.7599, 30.9029, 194.657, -0.00245967, -0.000864137, 0.00492294, -0.0017051, -0.0017051, -0.0017051
479, 1,0.0043877, 0.000879573, 0.000635589, 267.655, 54.9271, 0.0297714, 477.002, -160.476, 0.430747, 0.00112426, 0.00526678, 0.00394555, 322.338, -98.8101, 0, 0.00112221, 0.00350886, 0.00267551, 213.102, -64.4066, 0, 0.00112158, -47.8816, 32.3315, 311.98, -37.1502, 26.3879, 203.982, -0.00256966, -0.000964297, 0.0051372, -0.0018008, -0.0018008, -0.0018008
480, 1,0.00432904, 0.000891181, 0.00061508, 278.785, 56.4409, 0.0296417, 474.576, -161.613, 0.430245, 0.00116102, 0.00521372, 0.00366876, 334.401, -120.124, 0, 0.00115927, 0.00344793, 0.00244749, 223.635, -83.1006, 0, 0.00115858, -8.99119, 36.8205, 332.542, -4.8042, 33.9148, 220.191, -0.00207787, -0.00116222, 0.00518918, -0.00140624, -0.00140624, -0.00140624
481, 1,0.00452967, 0.00102379, 0.000721383, 275.664, 65.3232, 0.0259559, 437.352, -151.375, 0.375356, 0.00105488, 0.00553779, 0.00402165, 339.76, -105.526, 0, 0.00105341, 0.00353031, 0.00261342, 212.264, -61.176, 0, 0.00105266, -35.3795, 16.1501, 335.807, -30.0593, 8.30464, 205.283, -0.00240374, -0.00136657, 0.00548248, -0.00159277, -0.00159277, -0.00159277
482, 1,0.00557913, 0.00112497, 0.000810945, 295.185, 69.2054, 0.0267036, 426.644, -144.143, 0.391902, 0.00109024, 0.00669332, 0.00497376, 363.657, -108.065, 0.0147403, 0.0010889, 0.00447025, 0.00336655, 227.139, -63.8042, 0.0146081, 0.00108811, -50.6774, 24.8417, 350.031, -38.1241, 16.5257, 213.011, -0.00321337, -0.0014845, 0.00646575, -0.00224074, -0.00224074, -0.00224074
483, 1,0.00608869, 0.00113602, 0.000815627, 300.911, 69.5175, 0.0265182, 429.973, -145.538, 0.38733, 0.00112645, 0.00720916, 0.00531186, 369.681, -114.274, 0.0245626, 0.00112518, 0.00497502, 0.00370021, 232.569, -69.554, 0.0245626, 0.00112435, -41.4007, 26.6575, 357.566, -29.1752, 18.006, 219.831, -0.00339629, -0.00171271, 0.00698885, -0.00241604, -0.00241604, -0.00241604
484, 1,0.00605075, 0.00108184, 0.00074784, 306.359, 66.8626, 0.0255054, 432.26, -134.237, 0.363033, 0.00116317, 0.00709884, 0.00515003, 371.697, -109.688, 0.0194426, 0.00116209, 0.00501637, 0.00370369, 241.778, -64.957, 0.0194426, 0.00116124, -40.8453, 1.76298, 368.147, -35.7601, -5.0828, 235.714, -0.00312801, -0.00209936, 0.00702658, -0.00230246, -0.00230246, -0.00230246
485, 1,0.00813116, 0.00126053, 0.000892436, 331.072, 76.6018, 0.024036, 373.934, -109.268, 0.35548, 0.00105711, 0.00937915, 0.00664463, 407.422, -154.42, 0.0639309, 0.00105752, 0.00688753, 0.00492208, 254.886, -102.207, 0.0639309, 0.00105659, 25.0427, 31.9445, 406.272, 27.7974, 25.7277, 253.095, -0.00346591, -0.00329059, 0.00935479, -0.00248244, -0.00248244, -0.00248244
486, 1,0.00922944, 0.00143892, 0.00101488, 349.002, 85.5011, 0.0250763, 355.901, -104.378, 0.382681, 0.00109197, 0.0106547, 0.00747709, 434.273, -168.312, 0.0827039, 0.00109274, 0.0078089, 0.00546903, 263.903, -111.909, 0.0827039, 0.0010917, 26.3324, 49.8177, 428.787, 32.6869, 44.3462, 258.695, -0.00422317, -0.00342888, 0.0105152, -0.00310441, -0.00310441, -0.00310441
487, 1,0.00964988, 0.00144274, 0.00101228, 351.516, 84.8283, 0.024817, 344.844, -99.5064, 0.382337, 0.00112785, 0.0110759, 0.00771728, 436.102, -170.72, 0.0909938, 0.00112883, 0.00822924, 0.00574012, 267.107, -115.233, 0.0909938, 0.00112776, 32.9411, 48.3487, 430.871, 39.5257, 44.1079, 262.064, -0.0042699, -0.00374287, 0.010931, -0.00311663, -0.00311663, -0.00311663
488, 1,0.00950158, 0.00130794, 0.000901599, 368.926, 76.7002, 0.0238175, 371.962, -117.258, 0.356164, 0.00116536, 0.0107792, 0.00756213, 445.172, -182.036, 0.0844969, 0.00116621, 0.00823307, 0.00581969, 292.962, -131.158, 0.0844969, 0.0011652, 43.66, 58.1467, 444.301, 47.7669, 54.3906, 291.316, -0.00407363, -0.00358354, 0.0107571, -0.0031004, -0.0031004, -0.0031004
489, 1,0.0117714, 0.00152415, 0.00106069, 342.139, 87.2826, 0.0291986, 380.125, -107.743, 0.454308, 0.00106098, 0.0132433, 0.00984854, 429.014, -160.074, 0.134481, 0.00106148, 0.0103127, 0.00789471, 255.541, -97.5715, 0.134481, 0.00106031, 40.7316, 20.7585, 418.732, 31.7885, 15.0586, 245.867, -0.00451365, -0.00551788, 0.0128398, -0.00347825, -0.00347825, -0.00347825
490, 1,0.0137002, 0.00177005, 0.00121257, 354.334, 99.3081, 0.0293027, 333.013, -82.5661, 0.473934, 0.00109628, 0.0154103, 0.0115161, 453.291, -169.702, 0.16993, 0.00109762, 0.0120049, 0.00931113, 255.644, -97.3411, 0.16993, 0.0010962, 55.5645, 7.28302, 446.26, 38.761, 4.50016, 248.762, -0.00477938, -0.00728821, 0.0151098, -0.00364802, -0.00364802, -0.00364802
491, 1,0.0136763, 0.00175614, 0.00119524, 352.054, 98.1002, 0.0289748, 320.618, -73.6581, 0.471842, 0.00113245, 0.0153692, 0.0115107, 449.77, -163.054, 0.168438, 0.00113392, 0.0119988, 0.00930735, 254.622, -92.4483, 0.168438, 0.00113248, 40.3816, 6.3353, 442.446, 27.9108, 2.17991, 247.254, -0.005183, -0.00695588, 0.0150593, -0.00400431, -0.00400431, -0.00400431
492, 1,0.0117079, 0.00150545, 0.00104299, 350.533, 86.1008, 0.0282878, 365.62, -88.4264, 0.43786, 0.00116981, 0.0131562, 0.0098457, 436.057, -143.782, 0.123785, 0.00117053, 0.0102744, 0.00788196, 265.358, -83.6476, 0.123785, 0.0011693, -4.37464, 8.89313, 426.828, -6.80762, 2.29183, 255.459, -0.00539051, -0.00492971, 0.0128265, -0.00437181, -0.00437181, -0.00437181
493, 1,0.0130458, -0.00449492, 0.00306083, -2.18554, -184.213, 0.0317563, -19.1941, 295.295, 0.927159, 0.000935142, 0.0146533, 0.0229208, -4.00991, 274.962, 0.361148, 0.000939213, 0.0114432, 0.0168376, -0.267384, 142.89, 0.326074, 0.000941801, -63.8687, -29.415, -731.601, -39.6563, -16.4493, -372.563, 0.0110038, 0.0132359, -0.0298278, 0.00801949, 0.00801949, 0.00801949
494, 1,0.0130407, -0.00410053, 0.00278467, -8.35696, -194.402, 0.0338291, -28.4302, 347.29, 0.880046, 0.000969433, 0.0144872, 0.0213349, -10.6614, 326.2, 0.296808, 0.000974032, 0.0116009, 0.0158128, -5.90988, 178.115, 0.276682, 0.000976884, -146.019, -41.5651, -791.015, -94.8279, -26.0876, -413.429, 0.00735731, 0.0130034, -0.0267048, 0.00501528, 0.00501528, 0.00501528
495, 1,0.012081, -0.00388179, 0.00261117, -8.35694, -194.973, 0.0331839, -19.8383, 336.66, 0.860484, 0.00100314, 0.0134012, 0.0200479, -12.1982, 322.038, 0.270569, 0.00100752, 0.0107679, 0.0148746, -4.35817, 172.749, 0.256588, 0.00101043, -134.751, -48.0247, -783.339, -85.2636, -27.6424, -405.342, 0.00728632, 0.0117577, -0.0251991, 0.00506883, 0.00506883, 0.00506883
496, 1,0.010797, -0.00385037, 0.00257988, -8.81008, -184.635, 0.0291465, -30.7925, 305.704, 0.860453, 0.00103417, 0.0120912, 0.0195842, -12.9705, 276.79, 0.286677, 0.00103852, 0.00950718, 0.0144558, -4.55106, 143.015, 0.269262, 0.00104124, -57.0322, -41.6537, -731.683, -33.7793, -22.7059, -372.561, 0.00977542, 0.0107096, -0.0258319, 0.00730751, 0.00730751, 0.00730751
497, 1,0.00926277, -0.0036882, 0.00251946, 1.48528, -171.967, 0.0263672, -3.80458, 257.323, 0.809767, 0.000983802, 0.0105358, 0.0175483, 2.55722, 242.249, 0.250847, 0.000986804, 0.00800045, 0.0126234, 0.655211, 127.269, 0.231413, 0.000988976, -20.2314, -30.9237, -675.593, -15.2771, -22.6986, -343.831, 0.00942159, 0.00907133, -0.0230635, 0.00691263, 0.00691263, 0.00691263
498, 1,0.00915227, -0.0033403, 0.00225393, 17.5831, -172.365, 0.0265375, 1.62844, 266.945, 0.76873, 0.0010189, 0.0102876, 0.0160587, 21.577, 250.956, 0.199667, 0.00102197, 0.00802185, 0.0116008, 13.7449, 134.273, 0.18974, 0.00102416, -56.2269, -6.0067, -690.635, -42.1262, -4.54141, -356.15, 0.00691337, 0.00925849, -0.0207546, 0.00468219, 0.00468219, 0.00468219
499, 1,0.00840308, -0.00316699, 0.00212169, 6.42184, -170.609, 0.0258067, 3.01853, 267.304, 0.739544, 0.00105317, 0.00947086, 0.0153086, 9.53787, 254.212, 0.185483, 0.00105611, 0.0073375, 0.0110844, 3.39662, 139.182, 0.179721, 0.00105832, -46.6782, -18.8359, -697.121, -36.6549, -14.8592, -366.033, 0.00712168, 0.00844737, -0.0201704, 0.00502921, 0.00502921, 0.00502921
500, 1,0.00804924, -0.0031976, 0.00216892, 7.37147, -166.404, 0.0247, -2.9425, 258.346, 0.747616, 0.0010866, 0.00916384, 0.0153717, 10.9862, 231.336, 0.199469, 0.00108983, 0.0069408, 0.0110788, 3.93235, 122.7, 0.191816, 0.001092, -11.0419, -23.4582, -659.508, -10.1738, -18.5965, -339.331, 0.0082108, 0.00784005, -0.0202748, 0.00608634, 0.00608634, 0.00608634
501, 1,0.00567137, -0.002922, 0.0019859, 6.12519, -163.901, 0.0220682, -1.91033, 251.288, 0.672109, 0.000985367, 0.00668838, 0.0117849, 10.1938, 225.311, 0.113064, 0.000987955, 0.00466658, 0.00785785, 2.47317, 120.088, 0.108521, 0.000989762, -3.47106, -33.9495, -638.512, -6.99656, -24.6487, -328.619, 0.00622837, 0.00540775, -0.0155382, 0.00424323, 0.00424323, 0.00424323
502, 1,0.0057712, -0.0027273, 0.00185614, 16.2554, -157.095, 0.0223127, 6.49157, 247.896, 0.661733, 0.00101972, 0.00665697, 0.0115714, 20.5433, 212.651, 0.110681, 0.00102247, 0.00488805, 0.00796574, 12.1072, 113.979, 0.109935, 0.00102422, 5.63785, -18.4066, -625.185, -3.37354, -13.1117, -325.451, 0.00616221, 0.00553853, -0.0153783, 0.00420599, 0.00420599, 0.00420599
503, 1,0.00543907, -0.00264294, 0.00179538, 11.7843, -153.572, 0.0223878, 7.82918, 248.43, 0.658604, 0.00105379, 0.00629512, 0.0110812, 15.177, 214.337, 0.100638, 0.00105663, 0.00458369, 0.00758942, 8.47435, 116.899, 0.099802, 0.0010584, 3.0003, -22.5684, -623.443, -4.66286, -15.7677, -330.267, 0.00589646, 0.00525291, -0.0148341, 0.00401561, 0.00401561, 0.00401561
504, 1,0.00549548, -0.00266351, 0.00180408, 23.6191, -154.716, 0.0219115, 0.714884, 247.085, 0.66872, 0.00108798, 0.00642438, 0.0109357, 28.9234, 208.252, 0.0950636, 0.00109106, 0.00457346, 0.00736445, 18.6498, 109.322, 0.0940215, 0.00109292, -0.443909, -26.9947, -597.318, -2.50606, -18.7157, -306.743, 0.0055012, 0.00486891, -0.0139385, 0.00373317, 0.00373317, 0.00373317
505, 1,0.00484766, -0.00256362, 0.00172498, 14.3218, -151.182, 0.0198962, -1.88851, 247.242, 0.605109, 0.000986632, 0.0057267, 0.0101492, 17.7462, 208.647, 0.0799852, 0.000989115, 0.00397237, 0.00671775, 11.1273, 111.139, 0.0789417, 0.000990755, 6.18701, -47.605, -584.523, 2.88174, -31.4645, -304.834, 0.00538522, 0.00398176, -0.0129106, 0.00366597, 0.00366597, 0.00366597
506, 1,0.00406222, -0.0023947, 0.00162686, 13.4308, -143.089, 0.0202842, 1.4598, 256.483, 0.586189, 0.00102055, 0.00491082, 0.00889401, 18.0486, 202.283, 0.052207, 0.00102342, 0.00322124, 0.00565566, 8.99726, 111.356, 0.0510273, 0.00102498, 15.7012, -39.4278, -583.123, 6.67262, -25.9422, -314.8, 0.00484724, 0.00355029, -0.0117782, 0.0031371, 0.0031371, 0.0031371
507, 1,0.00371588, -0.00231623, 0.00157887, 20.0213, -139.19, 0.0206571, 4.65577, 253.329, 0.596939, 0.00105477, 0.00455581, 0.00824261, 25.0463, 192.376, 0.0387095, 0.00105791, 0.00287699, 0.00508893, 15.0562, 103.918, 0.0373111, 0.00105946, 23.4004, -34.9721, -565.558, 14.155, -21.0507, -304.859, 0.00451669, 0.00322375, -0.0109309, 0.00285571, 0.00285571, 0.00285571
508, 1,0.00361236, -0.00232279, 0.00157099, 20.6447, -140.336, 0.0203329, -4.16632, 250.145, 0.620963, 0.00108911, 0.00441637, 0.00801452, 23.6515, 194.993, 0.0331735, 0.00109237, 0.0028162, 0.00490395, 18.1071, 104.392, 0.0317578, 0.00109401, 13.9905, -52.9043, -546.064, 11.1736, -36.2475, -288.103, 0.00419059, 0.00274776, -0.010162, 0.00264595, 0.00264595, 0.00264595
509, 1,0.00375566, -0.00227953, 0.00153015, 22.2015, -138.397, 0.0186826, -4.93537, 253.108, 0.556157, 0.000988082, 0.00453163, 0.00812947, 24.2935, 194.063, 0.0365924, 0.000990794, 0.00298218, 0.00508341, 20.3177, 103.656, 0.0354074, 0.00099228, 16.8604, -60.7288, -538.32, 14.3949, -40.3413, -285.022, 0.00434633, 0.00261201, -0.0101729, 0.00281783, 0.00281783, 0.00281783
510, 1,0.00313151, -0.00214637, 0.0014565, 23.1351, -131.189, 0.0193641, 0.787796, 266.033, 0.535128, 0.00102195, 0.00389227, 0.00711785, 26.7801, 186.357, 0.0148805, 0.00102512, 0.00237334, 0.00421306, 19.6229, 102.126, 0.0134634, 0.00102654, 24.2617, -48.7481, -534.583, 16.8787, -31.6345, -291.621, 0.00383715, 0.00238506, -0.00927137, 0.00230828, 0.00230828, 0.00230828
511, 1,0.00290522, -0.002068, 0.00140703, 31.3235, -127.191, 0.0191293, 2.16663, 264.022, 0.527468, 0.00105627, 0.00364012, 0.00658754, 35.0212, 175.019, 0.00539185, 0.00105968, 0.00217528, 0.00379262, 27.8018, 93.63, 0.00415613, 0.00106108, 34.0841, -50.3064, -508.836, 26.8524, -33.5562, -274.186, 0.00361988, 0.00200853, -0.0084769, 0.00215174, 0.00215174, 0.00215174
512, 1,0.00264913, -0.0020278, 0.0013689, 24.3726, -126.812, 0.0180596, -8.18613, 253.983, 0.540941, 0.00109093, 0.00335244, 0.00621281, 27.1706, 176.177, 0.000306407, 0.00109426, 0.00194808, 0.00348572, 21.809, 94.6165, 7.73697E-05, 0.00109571, 19.9493, -62.2218, -486.26, 16.8128, -43.7189, -256.943, 0.00320426, 0.00171402, -0.00777754, 0.00184785, 0.00184785, 0.00184785
513, 1,0.00248036, -0.00203477, 0.00136446, 7.662, -128.083, 0.0163689, -1.22884, 255.231, 0.456944, 0.000990297, 0.00316963, 0.00612198, 9.49698, 187.369, 6.30109E-07, 0.000992794, 0.00179383, 0.00340337, 6.23067, 104.204, 6.30109E-07, 0.000994135, 1.59894, -69.2114, -494.495, -1.18865, -49.6107, -261.814, 0.00299345, 0.00175761, -0.00779139, 0.00162508, 0.00162508, 0.00162508
514, 1,0.00274968, -0.00194094, 0.00131342, 32.3946, -120.652, 0.0172039, -1.9609, 274.473, 0.451307, 0.00102409, 0.00343557, 0.00621223, 35.544, 167.538, 0.0015589, 0.0010274, 0.00206379, 0.00358765, 29.2476, 90.0541, 0.000868447, 0.0010287, 35.0867, -54.856, -482.844, 28.9191, -37.8824, -261.199, 0.00342767, 0.00173553, -0.00788411, 0.00205878, 0.00205878, 0.00205878
515, 1,0.00239054, -0.0018709, 0.00126662, 18.7816, -117.365, 0.0172214, 2.23258, 272.108, 0.446231, 0.00105851, 0.00304923, 0.00575005, 21.9277, 164.161, 0, 0.00106191, 0.00173402, 0.00322394, 15.7273, 88.9571, 0, 0.00106321, 21.804, -55.9904, -458.297, 15.7157, -38.8768, -243.71, 0.00304646, 0.00164022, -0.00735043, 0.00173354, 0.00173354, 0.00173354
516, 1,0.00225155, -0.00181821, 0.00122307, 6.85679, -114.707, 0.0160271, -3.85415, 255.769, 0.450151, 0.00109336, 0.00287622, 0.00550834, 8.70491, 170.905, 0, 0.00109639, 0.00162901, 0.00306982, 5.37168, 96.1249, 0, 0.00109772, -2.21594, -70.878, -439.621, -3.98743, -50.3617, -234.026, 0.0026436, 0.00146161, -0.00687839, 0.00142867, 0.00142867, 0.00142867
517, 1,0.00249237, -0.0018661, 0.00124794, 22.7385, -117.779, 0.0123494, -5.21225, 246.987, 0.332092, 0.000992926, 0.00311784, 0.00582911, 23.5528, 165.664, 0, 0.000995144, 0.0018673, 0.00334327, 21.9555, 88.512, 0, 0.00099639, 22.5547, -66.0344, -453.511, 21.2759, -46.5094, -240.303, 0.003095, 0.00145689, -0.00724001, 0.00185314, 0.00185314, 0.00185314
518, 1,0.00207235, -0.00177443, 0.00119493, 5.34152, -111.572, 0.0128861, 6.00135, 264.05, 0.30197, 0.00102709, 0.002687, 0.00525836, 7.55929, 160.038, 0, 0.00102972, 0.00145889, 0.00287298, 3.15853, 87.8931, 0, 0.00103092, 6.99368, -59.2859, -427.82, 2.66759, -41.6157, -224.731, 0.00267355, 0.00147415, -0.00674454, 0.00144595, 0.00144595, 0.00144595
519, 1,0.00214201, -0.00171307, 0.00115403, 13.6873, -107.688, 0.0130583, 3.39096, 265.655, 0.310621, 0.00106144, 0.00273619, 0.00521304, 15.9041, 152.335, 0, 0.00106436, 0.0015485, 0.0029119, 11.5404, 82.8437, 0, 0.00106556, 14.87, -59.8278, -412.046, 10.7463, -42.8047, -216.473, 0.00271214, 0.00134832, -0.00653231, 0.00153074, 0.00153074, 0.00153074
520, 1,0.00211909, -0.00165852, 0.00111215, 17.9471, -104.629, 0.0126238, 3.66991, 243.57, 0.328786, 0.00109634, 0.00268075, 0.00504589, 19.0789, 144.117, 0, 0.00109909, 0.00155834, 0.00283091, 16.8967, 75.9023, 0, 0.00110031, 17.4515, -63.7205, -386.083, 15.9098, -44.211, -199.406, 0.002637, 0.00117258, -0.00614808, 0.00153028, 0.00153028, 0.00153028
521, 1,0.00203896, -0.00171295, 0.00114355, 1.6301, -107.994, 0.00788517, 6.46541, 235.838, 0.154849, 0.00099547, 0.00261082, 0.00508175, 2.51209, 160.578, 0, 0.000997048, 0.00146905, 0.00280346, 1.02099, 89.7104, 0, 0.000998195, -4.48818, -67.7636, -409.483, -5.27844, -48.5687, -215.284, 0.00243969, 0.00127424, -0.00631955, 0.00130702, 0.00130702, 0.00130702
522, 1,0.00202811, -0.00163479, 0.00109586, 11.9363, -102.857, 0.00764363, 2.39975, 234.23, 0.153289, 0.00102984, 0.00258119, 0.00493638, 13.1056, 146.335, 0, 0.00103167, 0.00147566, 0.0027543, 10.7928, 79.3363, 0, 0.00103279, 12.3464, -58.4046, -392.948, 9.82634, -41.0598, -206.775, 0.00256969, 0.00122516, -0.00616935, 0.00146127, 0.00146127, 0.00146127
523, 1,0.00182517, -0.00157097, 0.00105384, 7.14027, -98.7538, 0.00747124, 5.1761, 235.145, 0.141479, 0.00106435, 0.00235454, 0.00461315, 8.28473, 138.712, 0, 0.00106636, 0.00129957, 0.00252127, 6.17251, 74.5762, 0, 0.00106747, 7.92771, -56.2995, -367.765, 5.17509, -39.2386, -189.665, 0.00235036, 0.00114947, -0.00575064, 0.00128222, 0.00128222, 0.00128222
524, 1,0.00184136, -0.00151823, 0.00101565, 8.62946, -95.6789, 0.00770868, 17.8647, 229.446, 0.138873, 0.00109919, 0.00235193, 0.00449874, 9.51474, 135.376, 0, 0.00110121, 0.00133264, 0.00247671, 7.93714, 72.7457, 0, 0.00110233, 5.06059, -61.7964, -349.393, 4.06171, -42.8584, -179.44, 0.0022369, 0.00100573, -0.00543932, 0.00122954, 0.00122954, 0.00122954
525, 1,0.00183823, -0.00157203, 0.00104945, 4.16926, -99.0579, 0.00514923, 26.5658, 215.923, 0.0446183, 0.000997761, 0.00236043, 0.00466876, 4.56049, 143.054, 0, 0.000999031, 0.00131707, 0.00258158, 3.83955, 77.9009, 0, 0.00100009, 3.76258, -60.4979, -372.427, 3.39982, -41.9938, -195.109, 0.00233589, 0.0011074, -0.00576456, 0.0013022, 0.0013022, 0.0013022
526, 1,0.0017491, -0.0015016, 0.00100272, 4.08059, -94.4704, 0.00549504, 58.859, 194.699, 0.0416749, 0.00103253, 0.0022522, 0.00441368, 4.92045, 135.989, 0, 0.0010336, 0.00124672, 0.0024151, 3.30537, 74.1546, 0, 0.00103463, 3.80091, -57.0251, -354.744, 2.34617, -39.8643, -184.946, 0.00222417, 0.00104939, -0.0054802, 0.00121962, 0.00121962, 0.00121962
527, 1,0.0017029, -0.00144396, 0.000964513, 7.42927, -90.757, 0.00530709, 72.3778, 183.338, 0.0306744, 0.0010674, 0.00218685, 0.00423704, 8.2439, 127.695, -3.38813E-21, 0.00106842, 0.00121941, 0.002317, 6.64034, 68.4357, -3.38813E-21, 0.00106945, 7.94719, -56.419, -334.612, 6.36574, -39.6589, -172.014, 0.00217804, 0.000929637, -0.00517972, 0.00121141, 0.00121141, 0.00121141
528, 1,0.00152772, -0.00139743, 0.000935328, -0.0199232, -87.9093, 0.00416485, 45.58, 196.26, 0.00405828, 0.00110206, 0.00199499, 0.0039603, 0.665784, 124.89, 0, 0.00110334, 0.00106511, 0.00210705, -0.344719, 67.2945, 0, 0.00110438, -1.56129, -62.1258, -310.983, -2.0939, -43.7959, -155.994, 0.00193261, 0.000775929, -0.00473509, 0.00101434, 0.00101434, 0.00101434
529, 1,0.00166817, -0.00144225, 0.000963405, 1.55226, -90.8382, 0.0037396, 33.5337, 192.415, 0, 0.0010001, 0.00214716, 0.00424443, 2.08253, 132.665, 0, 0.00100107, 0.00119241, 0.00233291, 1.30373, 72.911, 0, 0.00100204, -1.09186, -60.1801, -336.723, -1.19881, -42.4361, -175.098, 0.00206818, 0.000929655, -0.00515053, 0.00112492, 0.00112492, 0.00112492
530, 1,0.00157955, -0.00137652, 0.000918195, 3.87775, -86.6281, 0.00402938, 65.9126, 167.285, 0, 0.00103504, 0.00203585, 0.00401433, 4.29904, 123.341, 0, 0.00103578, 0.00112334, 0.00218915, 3.46562, 66.5043, 0, 0.00103674, 4.07508, -55.3063, -318.792, 3.36549, -38.7685, -164.11, 0.00202997, 0.00087237, -0.00490374, 0.00111989, 0.00111989, 0.00111989
531, 1,0.00148756, -0.00132128, 0.000882284, 3.28339, -83.1165, 0.00389621, 60.5691, 166.017, 0, 0.00106976, 0.00192581, 0.00381041, 3.72335, 117.249, 0, 0.0010706, 0.00104987, 0.00205906, 2.87144, 62.8027, 0, 0.00107155, 3.61547, -54.2393, -301.124, 2.78445, -37.9224, -153.27, 0.00192262, 0.000798356, -0.00462353, 0.00104762, 0.00104762, 0.00104762
532, 1,0.00142425, -0.00127959, 0.000857209, 4.40331, -80.5035, 0.00340339, 24.5649, 183.123, 0, 0.00110428, 0.00185082, 0.0036422, 4.92721, 110.404, 0, 0.00110559, 0.00100203, 0.00194784, 4.17782, 57.6668, 0, 0.00110653, 3.52372, -55.8673, -278.867, 3.29993, -38.4338, -137.867, 0.0018128, 0.000666797, -0.00427108, 0.000977555, 0.000977555, 0.000977555
533, 1,0.00150643, -0.00131592, 0.000879713, 1.87049, -82.8793, 0.00303355, 12.9744, 175.191, 0, 0.00100195, 0.00194377, 0.00386426, 2.40835, 119.492, 0, 0.00100285, 0.00107375, 0.00212224, 1.72628, 64.991, 0, 0.00100374, 0.700137, -56.3369, -302.838, 0.745637, -39.5075, -156.211, 0.00189804, 0.00079261, -0.00462958, 0.00104072, 0.00104072, 0.00104072
534, 1,0.00141418, -0.0012535, 0.000837167, 1.93538, -78.9231, 0.00313709, 28.5166, 160.871, 0, 0.00103687, 0.00182849, 0.00364332, 2.32024, 112.652, 0, 0.00103769, 0.0010024, 0.00198523, 1.7419, 60.8232, 0, 0.00103856, 1.6604, -52.434, -287.182, 1.34813, -36.7643, -147.053, 0.00181021, 0.000759163, -0.00439733, 0.000987391, 0.000987391, 0.000987391
535, 1,0.00133536, -0.00120016, 0.000802157, 2.68592, -75.5564, 0.00309239, 29.6917, 156.461, 0, 0.0010717, 0.00173204, 0.00344589, 2.96974, 105.965, 0, 0.00107258, 0.000940007, 0.00185751, 2.47396, 56.3882, 0, 0.00107345, 2.78551, -50.9534, -269.727, 2.37242, -35.2942, -136.243, 0.00172766, 0.000684502, -0.00413162, 0.000938175, 0.000938175, 0.000938175
536, 1,0.001259, -0.00115925, 0.000776929, 1.40153, -72.9567, 0.00285564, 14.7158, 161.572, 0, 0.00110642, 0.00164753, 0.00327121, 2.04353, 101.487, 0, 0.0011075, 0.000875151, 0.00173412, 1.14726, 53.6943, 0, 0.00110836, 0.408922, -54.6414, -250.229, 0.318534, -37.773, -123.628, 0.00160685, 0.000542878, -0.00379653, 0.000852274, 0.000852274, 0.000852274
537, 1,0.00135114, -0.00119119, 0.000796675, 0.912983, -75.0293, 0.00256407, 7.66217, 152.513, 0, 0.00100391, 0.0017472, 0.00348273, 1.42553, 108.58, 0, 0.00100463, 0.000959774, 0.0019065, 0.801564, 59.2595, 0, 0.00100543, -0.337546, -54.1081, -271.296, -0.226045, -38.1215, -139.431, 0.00170396, 0.000657501, -0.00412333, 0.000929601, 0.000929601, 0.000929601
538, 1,0.00126106, -0.00113149, 0.00075634, 1.06164, -71.2643, 0.0026066, 15.8837, 144.159, 0, 0.00103884, 0.0016353, 0.00327034, 1.45352, 101.644, 0, 0.00103955, 0.000890455, 0.00177485, 0.972262, 54.8313, 0, 0.00104034, 0.920081, -50.0989, -255.754, 0.807423, -35.2278, -130.073, 0.00162097, 0.000627749, -0.00389805, 0.00088136, 0.00088136, 0.00088136
539, 1,0.00118504, -0.00108003, 0.000722542, 1.24983, -68.0104, 0.00255423, 16.0811, 140.577, 0, 0.00107372, 0.00154484, 0.00308485, 1.7262, 95.6731, 0, 0.0010745, 0.000830061, 0.00165523, 1.11572, 51.048, 0, 0.00107528, 1.0734, -48.684, -239.409, 0.848041, -33.8249, -120.167, 0.00152945, 0.000563188, -0.00364509, 0.000821914, 0.000821914, 0.000821914
540, 1,0.00113359, -0.00103853, 0.000696606, 1.96919, -65.3534, 0.0024051, 7.75276, 142.319, 0, 0.00110854, 0.00148289, 0.00293056, 2.66922, 90.346, 0, 0.00110948, 0.000789053, 0.00155304, 1.68299, 47.5808, 0, 0.00111025, 0.417018, -51.0228, -220.432, 0.375265, -34.9599, -108.158, 0.00143172, 0.000434331, -0.00333206, 0.000757341, 0.000757341, 0.000757341
541, 1,0.00120888, -0.0010678, 0.000714413, 0.9384, -67.2621, 0.00219986, 4.30576, 133.895, 0, 0.00100581, 0.00156422, 0.00311707, 1.42869, 97.091, 0, 0.00100641, 0.000858109, 0.00170434, 0.839636, 52.896, 0, 0.00100713, -0.279293, -50.5727, -240.421, -0.136531, -35.5063, -123.045, 0.00152406, 0.000542742, -0.00364224, 0.000831089, 0.000831089, 0.000831089
542, 1,0.00112214, -0.00100991, 0.000675495, 0.875872, -63.6202, 0.00220013, 8.62346, 128.104, 0, 0.00104078, 0.00145751, 0.00291092, 1.30719, 90.6796, 0, 0.00104141, 0.000791446, 0.00157594, 0.850313, 48.8944, 0, 0.00104212, 0.243812, -46.8556, -225.427, 0.220247, -32.8798, -114.024, 0.00143387, 0.000516279, -0.00342156, 0.000775322, 0.000775322, 0.000775322
543, 1,0.0010515, -0.000959529, 0.000642489, 1.26247, -60.427, 0.00215062, 8.6394, 124.948, 0, 0.00107572, 0.00137196, 0.00273207, 1.7443, 84.7521, 0, 0.00107642, 0.000735472, 0.00146174, 1.1271, 45.1282, 0, 0.00107711, 0.623454, -45.5522, -209.328, 0.479609, -31.5809, -104.283, 0.00134801, 0.000449867, -0.00317311, 0.000720953, 0.000720953, 0.000720953
544, 1,0.000999047, -0.000917661, 0.000616375, 1.97143, -57.7271, 0.0020568, 4.24256, 124.912, 0, 0.00111063, 0.00130893, 0.00257905, 2.68724, 79.4649, 0, 0.00111145, 0.000693821, 0.0013615, 1.65874, 41.7707, 0, 0.00111213, 0.075403, -48.0089, -190.461, 0.0478976, -32.8387, -92.5212, 0.00125319, 0.000317837, -0.00286048, 0.000658975, 0.000658975, 0.000658975
545, 1,0.0010691, -0.000945274, 0.000632734, 0.822762, -59.5425, 0.00189924, 2.94484, 116.639, 0, 0.00100769, 0.00138409, 0.00275646, 1.29384, 85.8797, 0, 0.00100819, 0.000758356, 0.00150576, 0.71512, 46.7859, 0, 0.00100883, -0.388984, -46.9271, -210.323, -0.236996, -32.856, -107.265, 0.00134507, 0.000435494, -0.00317408, 0.000732619, 0.000732619, 0.000732619
546, 1,0.000985356, -0.000888703, 0.000594824, 0.844358, -55.9881, 0.00186258, 4.2392, 112.56, 0, 0.0010427, 0.0012811, 0.00255529, 1.2509, 79.5964, 0, 0.00104326, 0.000694047, 0.00138044, 0.807546, 42.8455, 0, 0.00104388, 0.0820101, -43.2581, -195.613, 0.0976576, -30.2677, -98.3664, 0.00125584, 0.000410587, -0.002958, 0.0006774, 0.0006774, 0.0006774
547, 1,0.000917444, -0.00083886, 0.000562289, 1.30126, -52.823, 0.00181404, 4.00391, 109.804, 0, 0.00107771, 0.00119853, 0.00237983, 1.78211, 73.7536, 0, 0.00107834, 0.000640417, 0.00126883, 1.14268, 39.1585, 0, 0.00107894, 0.387406, -42.0026, -179.646, 0.275433, -29.0118, -88.7391, 0.00116985, 0.000344434, -0.00271105, 0.000622659, 0.000622659, 0.000622659
548, 1,0.000865278, -0.000796668, 0.000536129, 2.22876, -50.0852, 0.00177954, 2.87503, 109.132, 0, 0.00111269, 0.00113594, 0.0022264, 2.9704, 68.2327, 0, 0.00111343, 0.000599058, 0.00116856, 1.86975, 35.6295, 0, 0.00111402, 0.102018, -44.4003, -160.4, 0.0721731, -30.1997, -76.7609, 0.00107689, 0.000209276, -0.00239336, 0.000562801, 0.000562801, 0.000562801
549, 1,0.000932207, -0.000823286, 0.000551444, 0.818486, -51.8496, 0.00162859, 2.47897, 100.084, 0, 0.00100956, 0.00120716, 0.00240048, 1.27724, 74.6823, 0, 0.00100997, 0.000661072, 0.00131081, 0.686073, 40.6755, 0, 0.00101053, -0.369181, -42.9197, -180.758, -0.21632, -29.9258, -91.8843, 0.00116906, 0.000335864, -0.00271674, 0.000636736, 0.000636736, 0.000636736
550, 1,0.000850138, -0.000767663, 0.000514253, 0.857997, -48.3577, 0.00157166, 2.03018, 97.0593, 0, 0.00104463, 0.0011063, 0.00220233, 1.24952, 68.5222, 0, 0.00104511, 0.000598007, 0.0011872, 0.797693, 36.8111, 0, 0.00104565, 0.0162138, -39.2958, -166.287, 0.0477897, -27.3747, -83.1063, 0.00108, 0.00031225, -0.00250412, 0.000581257, 0.000581257, 0.000581257
551, 1,0.000784052, -0.000718258, 0.000482189, 1.44565, -45.2129, 0.00153735, 2.13009, 94.7515, 0, 0.0010797, 0.00102594, 0.00202878, 1.93246, 62.638, 0, 0.00108026, 0.000545816, 0.00107674, 1.24907, 33.0851, 0, 0.00108078, 0.369562, -38.0317, -150.252, 0.267872, -26.1024, -73.4206, 0.000994431, 0.000245738, -0.00225656, 0.000526858, 0.000526858, 0.000526858
552, 1,0.000732834, -0.000676072, 0.000456303, 2.5381, -42.4565, 0.00154423, 3.20687, 93.7316, 0, 0.00111475, 0.00096476, 0.00187485, 3.32806, 56.9619, 0, 0.00111542, 0.000505124, 0.000975745, 2.10928, 29.4539, 0, 0.00111592, 0.125473, -40.4302, -130.581, 0.0866311, -27.2689, -61.1794, 0.000899885, 0.000107868, -0.00193205, 0.000465842, 0.000465842, 0.000465842
553, 1,0.000796993, -0.000701717, 0.000470497, 0.853757, -44.1757, 0.00137304, 2.55471, 83.7603, 0, 0.00101142, 0.00103224, 0.00204726, 1.31199, 63.5362, 0, 0.00101175, 0.000565053, 0.00111774, 0.678938, 34.6093, 0, 0.00101223, -0.34886, -38.6369, -151.623, -0.199844, -26.7942, -76.8338, 0.000993883, 0.000242463, -0.0022673, 0.000541474, 0.000541474, 0.000541474
554, 1,0.000716144, -0.000646824, 0.000433869, 0.945557, -40.7318, 0.00131821, 1.7578, 81.3397, 0, 0.00104656, 0.000932933, 0.00185125, 1.33372, 57.4258, 0, 0.00104696, 0.000502939, 0.000995342, 0.850362, 30.7581, 0, 0.00104742, 0.027508, -35.0085, -137.297, 0.0647731, -24.232, -68.1072, 0.000905439, 0.000219825, -0.00205708, 0.00048624, 0.00048624, 0.00048624
555, 1,0.00065253, -0.000597978, 0.000402441, 1.68918, -37.6114, 0.00129635, 2.23813, 79.3006, 0, 0.00108169, 0.000855579, 0.00167998, 2.20265, 51.4967, 0, 0.00108218, 0.000452799, 0.000886243, 1.43869, 26.9926, 0, 0.00108261, 0.389039, -33.7198, -121.159, 0.287832, -22.9252, -58.3404, 0.000819362, 0.00015317, -0.00180814, 0.000431307, 0.000431307, 0.000431307
556, 1,0.000604901, -0.000556465, 0.000377449, 3.06925, -34.8706, 0.00130982, 3.84168, 77.9887, 0, 0.00111682, 0.000798992, 0.00152857, 3.94673, 45.6651, 0, 0.00111741, 0.000414882, 0.000786421, 2.53523, 23.25, 0, 0.00111782, 0.178041, -36.0956, -101.078, 0.127549, -24.0457, -45.8319, 0.00072305, 1.31901E-05, -0.00147723, 0.000368964, 0.000368964, 0.000368964
557, 1,0.000663636, -0.000580623, 0.000389981, 0.963027, -36.5231, 0.00112649, 2.93068, 67.6051, 0, 0.00101329, 0.00085964, 0.00169676, 1.43906, 52.408, 0, 0.00101353, 0.000470383, 0.000926349, 0.723435, 28.5566, 0, 0.00101393, -0.314105, -34.0909, -122.819, -0.17134, -23.4643, -62.0341, 0.000819297, 0.000154521, -0.0018242, 0.000446683, 0.000446683, 0.000446683
558, 1,0.000583839, -0.000526313, 0.000353818, 1.11287, -33.1169, 0.00107249, 1.96724, 65.4582, 0, 0.00104849, 0.000761603, 0.00150231, 1.51613, 46.3276, 0, 0.00104882, 0.000409202, 0.000804915, 0.965825, 24.7068, 0, 0.00104918, 0.0512002, -30.4541, -108.58, 0.0884209, -20.8868, -53.3221, 0.000731109, 0.000132502, -0.00161534, 0.000391387, 0.000391387, 0.000391387
559, 1,0.000524617, -0.000478409, 0.000323433, 2.11348, -30.0388, 0.00105509, 2.6027, 63.4901, 0, 0.00108369, 0.000689493, 0.00133539, 2.68713, 40.339, 0, 0.0010841, 0.000362872, 0.000698726, 1.78284, 20.8872, 0, 0.00108444, 0.428652, -29.1269, -92.3188, 0.323169, -19.5318, -43.4529, 0.000644441, 6.56591E-05, -0.00136466, 0.000335858, 0.000335858, 0.000335858
560, 1,0.000484985, -0.000438698, 0.000300397, 3.98374, -27.3702, 0.00107469, 4.68594, 61.9189, 0, 0.0011189, 0.000642797, 0.00119197, 5.01671, 34.3794, 0, 0.0011194, 0.000331346, 0.000603821, 3.28967, 17.0517, 0, 0.00111972, 0.227925, -31.4826, -71.8834, 0.164702, -20.6093, -30.7106, 0.000546312, -7.61015E-05, -0.00102807, 0.000272077, 0.000272077, 0.000272077
561, 1,0.000532777, -0.000460266, 0.000310169, 1.17824, -28.9044, 0.000889829, 3.67822, 51.5797, 0, 0.00101515, 0.00069026, 0.00134969, 1.7041, 41.2938, 0, 0.00101532, 0.000377449, 0.000736854, 0.838945, 22.5149, 0, 0.00101563, -0.277964, -29.3249, -94.2785, -0.143353, -19.9689, -47.4324, 0.000644961, 7.11099E-05, -0.00138611, 0.000352055, 0.000352055, 0.000352055
562, 1,0.000454586, -0.000406463, 0.000274436, 1.42697, -25.5296, 0.000831709, 2.46856, 49.4981, 0, 0.00105042, 0.000593975, 0.00115704, 1.8774, 35.2217, 0, 0.00105067, 0.000317928, 0.000616925, 1.1992, 18.6514, 0, 0.00105095, 0.0834618, -25.672, -80.0767, 0.11675, -17.3685, -38.7025, 0.000556837, 4.94579E-05, -0.00117781, 0.000296565, 0.000296565, 0.000296565
563, 1,0.000403903, -0.000360314, 0.000245921, 2.88314, -22.5325, 0.000817978, 3.32436, 47.4623, 0, 0.00108569, 0.000531895, 0.000999215, 3.57863, 29.176, 0, 0.00108602, 0.000279135, 0.000517291, 2.42413, 14.7789, 0, 0.00108627, 0.471014, -24.3098, -63.6892, 0.358068, -15.9684, -28.7263, 0.000469483, -1.76792E-05, -0.000925229, 0.000240345, 0.000240345, 0.000240345
564, 1,0.000381934, -0.000324539, 0.000226912, 5.71261, -20.0406, 0.000849875, 6.15818, 45.6582, 0, 0.00112099, 0.000506411, 0.000875375, 7.03243, 23.1055, 0, 0.0011214, 0.000262378, 0.000435882, 4.76052, 10.8596, 0, 0.00112162, 0.27959, -26.6452, -42.9509, 0.202891, -17.0045, -15.7772, 0.000369792, -0.00016097, -0.000583752, 0.000175301, 0.000175301, 0.000175301
565, 1,0.000406334, -0.000341323, 0.000231742, 1.59072, -21.3526, 0.000669994, 5.14785, 35.6559, 0, 0.00101701, 0.000526679, 0.00100856, 2.23024, 30.188, 0, 0.0010171, 0.000287531, 0.000550478, 1.08682, 16.479, 0, 0.00101732, -0.239351, -24.3819, -65.9426, -0.114446, -16.341, -32.9817, 0.000470808, -8.69658E-06, -0.000951945, 0.000257538, 0.000257538, 0.000257538
566, 1,0.000331918, -0.00028815, 0.000196595, 2.05278, -18.0126, 0.000602316, 3.53047, 33.5089, 0, 0.00105236, 0.00043434, 0.000819683, 2.61819, 24.1086, 0, 0.00105252, 0.000232014, 0.000434218, 1.68443, 12.5922, 0, 0.00105272, 0.11939, -20.7102, -51.735, 0.145381, -13.7147, -24.2072, 0.000382525, -3.02188E-05, -0.000743499, 0.000201688, 0.000201688, 0.000201688
567, 1,0.000300915, -0.000245758, 0.000171963, 4.5024, -15.1917, 0.000595465, 4.81147, 31.332, 0, 0.0010877, 0.000394973, 0.000683651, 5.4582, 18.0063, 0, 0.00108793, 0.000210816, 0.000351193, 3.80732, 8.66617, 0, 0.0010881, 0.516732, -19.3151, -35.2204, 0.393619, -12.2719, -14.1203, 0.000294487, -9.77233E-05, -0.000488944, 0.000144773, 0.000144773, 0.000144773
568, 1,0.000322484, -0.000218754, 0.000161754, 9.5203, -13.1096, 0.000654858, 9.11019, 29.2969, 0, 0.00112306, 0.000420245, 0.000609207, 11.4331, 11.8461, 0, 0.00112338, 0.000231985, 0.000306629, 8.07284, 4.67606, 0, 0.00112351, 0.329737, -21.6342, -14.2339, 0.239018, -13.2726, -0.994587, 0.000193465, -0.000242303, -0.000143392, 7.86139E-05, 7.86139E-05, 7.86139E-05
569, 1,0.000290154, -0.000225813, 0.000156722, 2.46949, -13.9652, 0.000492142, 8.5431, 19.8171, 0, 0.00101886, 0.000376708, 0.000681145, 3.38019, 19.0886, 0, 0.00101887, 0.000204572, 0.000371126, 1.64621, 10.4475, 0, 0.00101902, -0.199485, -19.3101, -37.7563, -0.0856924, -12.618, -18.6387, 0.000296781, -8.5858E-05, -0.000520655, 0.000163083, 0.000163083, 0.000163083
570, 1,0.000228831, -0.000174427, 0.000123335, 3.60141, -10.7125, 0.000409054, 6.30797, 17.512, 0, 0.00105429, 0.000298358, 0.000505882, 4.47528, 12.9859, 0, 0.00105437, 0.000162123, 0.000267439, 2.92276, 6.5272, 0, 0.00105448, 0.159305, -15.6159, -23.5012, 0.174912, -9.96252, -9.79398, 0.000208145, -0.000107459, -0.000311398, 0.000106738, 0.000106738, 0.000106738
571, 1,0.000255993, -0.000142237, 0.000109039, 8.8696, -8.37444, 0.000424898, 8.7986, 15.1391, 0, 0.0010897, 0.000325415, 0.000435391, 10.5275, 6.82998, 0, 0.00108985, 0.000192467, 0.000235007, 7.5473, 2.54927, 0, 0.00108993, 0.564354, -14.193, -6.86129, 0.428662, -8.48218, 0.405701, 0.000119426, -0.000175409, -5.48465E-05, 4.91236E-05, 4.91236E-05, 4.91236E-05
572, 1,0.000382264, -0.000135591, 0.000119169, 18.871, -7.25724, 0.000551236, 16.4306, 12.8639, 0, 0.00112514, 0.000473953, 0.000483106, 22.3781, 0.599312, 0, 0.00112537, 0.000299831, 0.000275716, 15.872, -1.50072, 0, 0.0011254, 0.379229, -16.499, 14.3219, 0.274061, -9.45291, 13.681, 1.7321E-05, -0.000321044, 0.000293989, -1.79902E-05, -1.79902E-05, -1.79902E-05
573, 1,0.00020934, -0.000122137, 9.35184E-05, 4.9855, -7.14795, 0.000464402, 18.9795, 4.05489, 0, 0.00102072, 0.000273641, 0.000400708, 6.7158, 7.9939, 0, 0.00102065, 0.000145653, 0.000215861, 3.3101, 4.41855, 0, 0.00102071, -0.158344, -14.1579, -9.66551, -0.0570105, -8.83793, -4.3607, 0.000122854, -0.000161332, -9.12269E-05, 6.86699E-05, 6.86699E-05, 6.86699E-05
574, 1,0.000215254, -8.15151E-05, 7.08656E-05, 9.35403, -4.40863, 0.000394813, 17.5492, 1.51493, 0, 0.00105621, 0.000271267, 0.000300855, 11.4605, 1.85258, 0, 0.0010562, 0.000163028, 0.000171354, 7.47178, 0.455493, 0, 0.00105623, 0.202875, -10.4381, 4.67752, 0.205081, -6.1506, 4.57904, 3.36728E-05, -0.000183213, 0.000119482, 1.16956E-05, 1.16956E-05, 1.16956E-05
575, 1,0.000388033, 9.35881E-05, 8.62064E-05, 21.4945, 4.75445, 0.000494054, 24.1543, -1.1007, 0, 0.00109171, 0.000474422, 0.000405622, 25.8474, -4.35451, 0, 0.00109176, 0.000306536, 0.000251184, 17.4082, -3.57326, 0, 0.00109175, 0.614069, -8.99216, 21.4416, 0.463479, -4.63791, 14.8942, -5.57204E-05, -0.00025168, 0.000378055, -4.66202E-05, -4.66202E-05, -4.66202E-05
576, 1,0.000623765, 0.00014872, 0.000124614, 36.5955, 8.19406, 0.000725852, 36.9647, -3.63679, 0, 0.00112722, 0.000763064, 0.000592583, 44.2629, -10.6362, 0, 0.00112735, 0.000490671, 0.00036789, 29.2693, -7.67156, 0, 0.00112729, 0.427595, -11.2895, 42.7703, 0.307575, -5.58528, 28.2924, -0.000158669, -0.00039815, 0.000729397, -0.000114533, -0.000114533, -0.000114533
577, 1,0.000285774, 9.06662E-05, 7.88214E-05, 15.0126, 4.89148, 0.000824025, 47.6431, -11.6347, 0, 0.00102256, 0.000375515, 0.000325265, 19.8279, -3.09773, 0, 0.00102242, 0.000196949, 0.000170837, 10.2749, -1.6089, 0, 0.00102239, -0.115974, -8.97378, 18.383, -0.0284765, -5.03891, 9.89408, -5.1E-05, -0.000236069, 0.00033734, -2.57231E-05, -2.57231E-05, -2.57231E-05
578, 1,0.000451174, 0.000119768, 8.99969E-05, 26.8733, 7.082, 0.000865726, 51.7073, -14.4797, 0, 0.00105813, 0.000567366, 0.000418891, 33.7295, -9.29266, 0, 0.00105804, 0.000337678, 0.000248911, 20.1873, -5.62401, 0, 0.00105798, 0.249889, -5.22588, 32.854, 0.235716, -2.31745, 18.9538, -0.000140914, -0.000258429, 0.000550132, -8.34601E-05, -8.34601E-05, -8.34601E-05
579, 1,0.000703424, 0.000175202, 0.000127274, 42.7332, 10.5248, 0.0010271, 61.4787, -17.3841, 0, 0.0010937, 0.000873695, 0.000626035, 52.9574, -15.5485, 0, 0.00109367, 0.000536471, 0.000383169, 32.7109, -9.70246, 0, 0.00109356, 0.665516, -3.76208, 49.742, 0.497772, -0.778164, 29.3878, -0.00023098, -0.00032749, 0.000810763, -0.00014248, -0.00014248, -0.00014248
580, 1,0.000968935, 0.000237984, 0.000173402, 59.2186, 14.3237, 0.00126661, 74.8753, -20.2048, 0, 0.00112929, 0.00120005, 0.000850087, 73.1315, -21.8618, 0, 0.00112932, 0.000742335, 0.00052096, 45.5756, -13.8377, 0, 0.00112918, 0.474438, -6.05509, 71.1659, 0.339279, -1.70895, 42.8829, -0.000334535, -0.000474579, 0.00116384, -0.000211041, -0.000211041, -0.000211041
581, 1,0.000593288, 0.000182326, 0.000130024, 36.0499, 11.1454, 0.00144888, 88.7851, -27.2532, 0, 0.00102441, 0.00077392, 0.000546391, 47.0533, -14.1871, 0, 0.00102419, 0.000414182, 0.000291766, 25.1763, -7.63564, 0, 0.00102408, -0.0729973, -3.80612, 46.4406, -0.00065867, -1.2589, 24.1665, -0.000224805, -0.000311002, 0.000766018, -0.000120119, -0.000120119, -0.000120119
582, 1,0.00081806, 0.000226545, 0.000156355, 50.6018, 14.0571, 0.00155816, 96.3341, -30.4719, 0, 0.00106006, 0.0010413, 0.000714625, 64.4285, -20.4509, 0, 0.00105989, 0.00059738, 0.000411416, 36.9548, -11.7124, 0, 0.00105974, 0.299982, -0.0275747, 61.0804, 0.266554, 1.49876, 33.3718, -0.000315642, -0.000334044, 0.000981532, -0.00017875, -0.00017875, -0.00017875
583, 1,0.00108087, 0.000283859, 0.000195428, 66.9519, 17.589, 0.00173789, 107.229, -33.7083, 0, 0.00109571, 0.00136018, 0.000933559, 84.2382, -26.7531, 0, 0.00109558, 0.000804816, 0.000553493, 49.8833, -15.8392, 0, 0.00109539, 0.717727, 1.44819, 78.0934, 0.530662, 3.05824, 43.9288, -0.000406391, -0.000403788, 0.00124428, -0.000238487, -0.000238487, -0.000238487
584, 1,0.00135039, 0.00034529, 0.00024028, 83.6065, 21.3171, 0.0019664, 120.348, -36.8421, 0, 0.00113137, 0.0016896, 0.00116027, 104.532, -33.0796, 0, 0.0011313, 0.00101536, 0.000695449, 62.9514, -20.0008, 0, 0.00113106, 0.519871, -0.844769, 99.5637, 0.369235, 2.13726, 57.4959, -0.000510308, -0.000551283, 0.00159835, -0.000307534, -0.000307534, -0.000307534
585, 1,0.00097149, 0.000294633, 0.000201879, 60.3338, 18.3784, 0.00214379, 133.198, -42.8064, 0, 0.00102625, 0.0012637, 0.000858924, 78.5092, -25.2753, 0, 0.00102596, 0.000681396, 0.000462685, 42.3377, -13.6629, 0, 0.00102577, -0.028932, 1.29815, 74.5568, 0.02703, 2.46515, 38.4965, -0.000398567, -0.000387039, 0.00119574, -0.000214523, -0.000214523, -0.000214523
586, 1,0.00121256, 0.000343101, 0.000232466, 75.6458, 21.4983, 0.00229325, 142.976, -46.4599, 0, 0.00106198, 0.00155202, 0.001047, 96.8745, -31.6225, 0, 0.00106172, 0.00087598, 0.000592707, 54.6324, -17.8098, 0, 0.00106148, 0.351043, 5.10842, 89.408, 0.295642, 5.25981, 47.874, -0.000490558, -0.00041098, 0.00141466, -0.000274219, -0.000274219, -0.000274219
587, 1,0.00147689, 0.000399826, 0.000270928, 92.0777, 25.0018, 0.00248883, 154.903, -50.0705, 0, 0.0010977, 0.00187191, 0.00126621, 116.741, -37.9702, 0, 0.00109749, 0.00108543, 0.000736004, 67.6677, -21.9852, 0, 0.0010972, 0.770866, 6.59103, 106.549, 0.562456, 6.83392, 58.5593, -0.000581979, -0.000481502, 0.0016796, -0.000334662, -0.000334662, -0.000334662
588, 1,0.00174562, 0.00045914, 0.000313745, 108.673, 28.6212, 0.00271651, 168.241, -53.5444, 0, 0.00113343, 0.00219871, 0.00149012, 136.883, -44.2911, 0, 0.00113326, 0.00129684, 0.000878416, 80.7597, -26.1616, 0, 0.00113293, 0.562526, 4.29231, 128.018, 0.396179, 5.91442, 72.1743, -0.000686039, -0.000629207, 0.00203392, -0.000404056, -0.000404056, -0.000404056
589, 1,0.00136588, 0.000411898, 0.000278702, 85.3463, 25.8447, 0.00285899, 178.535, -58.3088, 0, 0.0010281, 0.00177467, 0.00119266, 110.93, -36.3607, 0, 0.00102774, 0.000959792, 0.000644784, 59.9903, -19.6893, 0, 0.00102746, 0.0116016, 6.29079, 102.78, 0.0501442, 6.09487, 52.9229, -0.000572359, -0.000465078, 0.00162744, -0.00030901, -0.00030901, -0.00030901
590, 1,0.0016154, 0.000462305, 0.000311185, 101.095, 29.0651, 0.00304037, 190.191, -62.4532, 0, 0.0010639, 0.00207357, 0.00139002, 129.843, -42.8102, 0, 0.00106356, 0.00116055, 0.000779836, 72.6045, -23.9191, 0, 0.00106323, 0.404422, 10.1364, 117.89, 0.32473, 8.92999, 62.5027, -0.000665678, -0.000490143, 0.00185048, -0.000369875, -0.000369875, -0.000369875
591, 1,0.00188032, 0.000518353, 0.000348999, 117.571, 32.5359, 0.00325294, 203.22, -66.4627, 0, 0.0010997, 0.00239343, 0.00160852, 149.724, -49.1984, 0, 0.00109939, 0.00137118, 0.000923555, 85.7122, -28.1384, 0, 0.00109901, 0.819403, 11.6164, 135.159, 0.587909, 10.5089, 73.3186, -0.000757836, -0.000561555, 0.0021177, -0.000431083, -0.000431083, -0.000431083
592, 1,0.00214699, 0.000575708, 0.000389963, 134.047, 36.0517, 0.00348649, 217.126, -70.3206, 0, 0.0011355, 0.00271641, 0.00182863, 169.653, -55.4985, 0, 0.00113523, 0.00158217, 0.00106527, 98.7701, -32.3221, 0, 0.0011348, 0.60445, 9.30907, 156.582, 0.422353, 9.58539, 86.9586, -0.000861718, -0.00070927, 0.00247152, -0.000500585, -0.000500585, -0.000500585
593, 1,0.00176567, 0.000530778, 0.000357158, 110.607, 33.3844, 0.00358385, 224.341, -73.8257, 0, 0.00102996, 0.00229269, 0.00153347, 143.676, -47.4508, 0, 0.00102952, 0.00124188, 0.000830568, 77.8103, -25.723, 0, 0.00102915, 0.0592513, 11.131, 131.162, 0.0797388, 9.59915, 67.4903, -0.000746074, -0.000546003, 0.00206204, -0.000403474, -0.000403474, -0.000403474
594, 1,0.00202193, 0.000582524, 0.000390873, 126.727, 36.6789, 0.0037919, 237.599, -78.4246, 0, 0.00106582, 0.00259979, 0.00173752, 163.04, -54.0087, 0, 0.0010654, 0.00144785, 0.000969536, 90.7126, -30.0351, 0, 0.00106499, 0.446384, 15.0063, 146.573, 0.340875, 12.4691, 77.2952, -0.000841213, -0.000572402, 0.00228998, -0.000465909, -0.000465909, -0.000465909
595, 1,0.0022874, 0.000637999, 0.000428178, 143.257, 40.1219, 0.00402188, 251.782, -82.8765, 0, 0.00110169, 0.00291969, 0.0019554, 182.95, -60.447, 0, 0.00110129, 0.00165952, 0.00111357, 103.898, -34.3082, 0, 0.00110082, 0.873795, 16.488, 163.979, 0.617788, 14.0561, 88.2505, -0.000933891, -0.000644748, 0.00255948, -0.000527668, -0.000527668, -0.000527668
596, 1,0.00255142, 0.000693543, 0.000467478, 159.572, 43.5389, 0.0042673, 266.552, -87.1399, 0, 0.00113755, 0.00323834, 0.00217144, 202.626, -66.6979, 0, 0.00113717, 0.00186943, 0.00125408, 116.881, -38.4775, 0, 0.00113665, 0.6354, 14.1572, 185.301, 0.43763, 13.1115, 101.883, -0.0010375, -0.000792324, 0.00291209, -0.000597259, -0.000597259, -0.000597259
597, 1,0.00216811, 0.000650254, 0.000436231, 135.98, 40.9483, 0.00432161, 270.847, -89.4635, 0, 0.00103183, 0.00281403, 0.00187749, 176.564, -58.526, 0, 0.00103131, 0.00152589, 0.00101821, 95.7099, -31.7453, 0, 0.00103087, 0.0717788, 15.7543, 159.752, 0.0743751, 12.9243, 82.2373, -0.000920303, -0.000630798, 0.00250077, -0.0004985, -0.0004985, -0.0004985
598, 1,0.0024306, 0.000703206, 0.000470978, 152.486, 44.3131, 0.00454469, 285.064, -94.3927, 0, 0.00106776, 0.00312863, 0.00208731, 196.387, -65.243, 0, 0.00106726, 0.00173677, 0.00116054, 108.922, -36.1822, 0, 0.00106675, 0.512458, 19.6873, 175.529, 0.380209, 15.8554, 92.3112, -0.00101681, -0.000658688, 0.00273416, -0.00056195, -0.00056195, -0.00056195
599, 1,0.0026967, 0.000758212, 0.000507895, 169.042, 47.7327, 0.00479006, 300.238, -99.198, 0, 0.00110367, 0.00344874, 0.002305, 216.302, -71.6845, 0, 0.00110318, 0.00194947, 0.00130515, 122.154, -40.4623, 0, 0.00110262, 0.890535, 21.1307, 193.032, 0.609179, 17.4107, 103.367, -0.00111057, -0.000732049, 0.0030058, -0.000624821, -0.000624821, -0.000624821
600, 1,0.00295721, 0.000811995, 0.000545631, 185.174, 51.0511, 0.00505493, 316.455, -104.169, 0, 0.0011396, 0.00376224, 0.00251642, 235.704, -77.9003, 0, 0.00113912, 0.00215743, 0.00144379, 135.041, -44.6382, 0, 0.0011385, 0.683912, 18.7956, 214.222, 0.470326, 16.4606, 116.984, -0.00121295, -0.000879292, 0.00335629, -0.000693643, -0.000693643, -0.000693643
601, 1,0.00257203, 0.000769904, 0.0005155, 161.483, 48.5165, 0.00508693, 318.921, -105.458, 0, 0.00103375, 0.00333712, 0.00222306, 209.593, -69.677, 0, 0.00103315, 0.00181105, 0.00120661, 113.724, -37.8463, 0, 0.00103261, 0.179876, 20.1786, 188.672, 0.165265, 16.097, 97.2767, -0.00109371, -0.000720478, 0.0029448, -0.000592733, -0.000592733, -0.000592733
602, 1,0.00284101, 0.000824121, 0.000551269, 178.304, 51.9559, 0.00530108, 332.218, -109.714, 0, 0.0010697, 0.0036595, 0.00243899, 229.807, -76.4493, 0, 0.00106912, 0.00202711, 0.00135293, 127.174, -42.297, 0, 0.00106853, 0.490152, 24.0929, 204.765, 0.331811, 19.0119, 107.547, -0.00119385, -0.00074979, 0.00318414, -0.000659355, -0.000659355, -0.000659355
603, 1,0.00310694, 0.000878681, 0.000587833, 194.938, 55.3525, 0.00555021, 347.931, -115.002, 0, 0.00110566, 0.00397906, 0.00265553, 249.78, -83.0164, 0, 0.00110508, 0.00224, 0.00149698, 140.501, -46.707, 0, 0.00110443, 1.01714, 25.6047, 222.427, 0.709598, 20.6366, 118.775, -0.00128641, -0.000823798, 0.00345727, -0.000721101, -0.000721101, -0.000721101
604, 1,0.00336376, 0.000930706, 0.000624067, 210.782, 58.5705, 0.00585188, 366.441, -120.718, 0, 0.00114164, 0.00428721, 0.00286252, 268.8, -89.0614, 0, 0.00114105, 0.00244584, 0.00163393, 153.192, -50.7611, 0, 0.00114034, 0.657404, 23.1638, 243.363, 0.429876, 19.5812, 132.272, -0.00138933, -0.000970855, 0.00380534, -0.000790973, -0.000790973, -0.000790973
605, 1,0.00298148, 0.000889644, 0.000594849, 187.136, 56.0858, 0.00589377, 369.149, -121.708, 0, 0.00103566, 0.00386592, 0.00257403, 242.778, -80.6757, 0, 0.00103498, 0.00210146, 0.00140091, 131.873, -43.7955, 0, 0.00103436, -0.111601, 24.1403, 217.998, -0.141104, 18.8742, 112.653, -0.00127316, -0.000817133, 0.00339937, -0.000692969, -0.000692969, -0.000692969
606, 1,0.00325378, 0.000945114, 0.000631608, 204.371, 59.5988, 0.00606678, 379.03, -123.979, 0, 0.00107161, 0.00419288, 0.00279134, 263.483, -87.8627, 0, 0.00107098, 0.00231959, 0.00154543, 145.661, -48.6148, 0, 0.0010703, 0.747257, 28.3025, 234.538, 0.565265, 22.0261, 123.253, -0.00136825, -0.000847802, 0.00364176, -0.000754002, -0.000754002, -0.000754002
607, 1,0.00351857, 0.000999295, 0.000667885, 220.716, 62.9729, 0.00627989, 392.489, -128.525, 0, 0.0011076, 0.00451094, 0.00300788, 283.147, -94.1272, 0, 0.00110698, 0.00253168, 0.00169017, 158.718, -52.7292, 0, 0.00110623, 0.886552, 29.5249, 251.97, 0.555227, 23.3647, 134.268, -0.00146429, -0.000922975, 0.00391462, -0.000819337, -0.000819337, -0.000819337
608, 1,0.00376997, 0.00104953, 0.000702636, 236.436, 66.0886, 0.00661046, 415.248, -138.114, 0, 0.00114368, 0.004812, 0.00320939, 301.945, -100.315, 0, 0.00114298, 0.0027337, 0.00182429, 171.379, -56.976, 0, 0.00114218, 0.893799, 27.2293, 272.822, 0.648777, 22.4474, 147.832, -0.00156161, -0.00106939, 0.00425876, -0.000884258, -0.000884258, -0.000884258
609, 1,0.00339292, 0.00100947, 0.000674171, 213.514, 63.6576, 0.00670611, 418.722, -136.71, 0, 0.00103757, 0.00439697, 0.00292388, 276.706, -92.5641, 0, 0.00103683, 0.00239345, 0.00159092, 150.721, -50.6248, 0, 0.00103612, 0.890254, 28.3396, 248.462, 0.857767, 21.9369, 129.08, -0.00143918, -0.00092246, 0.00386363, -0.00077938, -0.00077938, -0.00077938
610, 1,0.00367363, 0.00106594, 0.000711749, 230.471, 67.227, 0.00685015, 421.843, -131.719, 0, 0.00107342, 0.00473334, 0.00315307, 297.19, -98.9622, 0, 0.00107285, 0.00261901, 0.0017473, 164.17, -54.6199, 0, 0.00107208, 0.209065, 31.9166, 264.761, 0.0186451, 24.492, 139.349, -0.0015544, -0.000953798, 0.00411401, -0.000860092, -0.000860092, -0.000860092
611, 1,0.00392247, 0.00111963, 0.000747683, 246.532, 70.5718, 0.00704216, 431.341, -132.281, 0, 0.00110937, 0.00503502, 0.00335266, 316.545, -105.927, 0, 0.0011089, 0.00281558, 0.00187565, 176.972, -59.4464, 0, 0.00110806, 1.89066, 33.9049, 281.986, 1.53821, 26.5741, 150.227, -0.00162907, -0.00102437, 0.00437228, -0.000904501, -0.000904501, -0.000904501
612, 1,0.00418025, 0.00116818, 0.000781076, 262.056, 73.5889, 0.00744268, 453.603, -141.523, 0.00148941, 0.00114548, 0.00534089, 0.00356051, 335.052, -111.415, 0, 0.00114492, 0.00302543, 0.00201884, 189.525, -63.0547, 0, 0.00114402, 0.568686, 31.0105, 302.666, 0.323738, 25.0912, 163.749, -0.00174354, -0.00117318, 0.0047246, -0.000987098, -0.000987098, -0.000987098
613, 1,0.00384455, 0.00113013, 0.000754125, 241.284, 71.2831, 0.00799198, 455.021, -141.729, 0.0119158, 0.00103931, 0.00496904, 0.00330721, 312.072, -103.938, 0, 0.00103865, 0.00272474, 0.00181422, 170.91, -56.9224, 0, 0.00103786, -0.000223475, 31.3207, 280.494, -0.00869869, 23.9604, 146.815, -0.00163691, -0.00104977, 0.00437324, -0.000896658, -0.000896658, -0.000896658
614, 1,0.00408314, 0.00118676, 0.000791717, 256.379, 74.8558, 0.00821277, 452.509, -137.359, 0.0160276, 0.00107521, 0.00526373, 0.00350072, 330.715, -110.711, 0, 0.00107472, 0.00290758, 0.00193432, 182.474, -61.2954, 0, 0.00107386, 1.19662, 35.7415, 295.194, 1.05927, 27.2372, 155.59, -0.00171837, -0.00107155, 0.00458638, -0.000943047, -0.000943047, -0.000943047
615, 1,0.00434996, 0.00123913, 0.00082664, 272.261, 78.1479, 0.00889423, 456.093, -141.737, 0.0294546, 0.00111128, 0.00558204, 0.00372443, 349.824, -116.392, 0, 0.00111078, 0.00312349, 0.0020883, 195.169, -64.8562, 0, 0.00110985, 0.0827518, 37.0905, 312.003, -0.242145, 28.6937, 166.117, -0.00183246, -0.00113997, 0.00486107, -0.00102769, -0.00102769, -0.00102769
616, 1,0.00458012, 0.00128542, 0.000857939, 288.53, 81.0913, 0.00980812, 466.069, -156.432, 0.0480028, 0.00114755, 0.00585863, 0.0038903, 369.02, -124.498, 0, 0.00114687, 0.003307, 0.00219241, 208.517, -71.0615, 0, 0.00114588, 3.03373, 36.7055, 333.754, 2.74258, 29.6032, 180.839, -0.00189808, -0.00127894, 0.00519719, -0.00106268, -0.00106268, -0.00106268
617, 1,0.00431291, 0.00124975, 0.000832351, 271.057, 78.9668, 0.0113764, 466.953, -155.838, 0.0785256, 0.00104126, 0.00555809, 0.00370892, 349.539, -117.195, 0, 0.00104049, 0.00307147, 0.00205386, 192.978, -64.9911, 0, 0.00103961, -0.305745, 36.326, 315.565, -0.300836, 27.9139, 167.36, -0.00185154, -0.00117981, 0.00493302, -0.00102934, -0.00102934, -0.00102934
618, 1,0.00452706, 0.00130682, 0.000870838, 283.083, 82.5134, 0.0116243, 463.045, -149.169, 0.0829996, 0.00107717, 0.00582812, 0.00389438, 365.041, -121.77, 0, 0.00107656, 0.00323069, 0.00216487, 201.587, -67.2828, 0, 0.00107561, -1.17927, 40.1504, 326.34, -1.19062, 30.6589, 172.38, -0.00194277, -0.00118654, 0.00510522, -0.00108491, -0.00108491, -0.00108491
619, 1,0.00475157, 0.00135728, 0.000904383, 296.513, 85.6311, 0.0121736, 465.311, -152.253, 0.0938567, 0.00111324, 0.00610275, 0.00407291, 381.555, -126.596, 0, 0.00111262, 0.00340527, 0.00227604, 211.949, -70.2216, 0, 0.0011116, -0.448272, 39.2435, 340.993, -0.40913, 29.9421, 181.132, -0.00200524, -0.00128644, 0.00534589, -0.00111655, -0.00111655, -0.00111655
620, 1,0.00501549, 0.00140554, 0.000937637, 312.079, 88.6408, 0.0131068, 466.904, -153.786, 0.112033, 0.00114929, 0.00641416, 0.0042835, 400.054, -130.963, 1.32563E-05, 0.00114867, 0.00362213, 0.00242408, 224.628, -72.7488, 7.43866E-06, 0.00114759, -3.0555, 34.757, 361.188, -2.95326, 27.1663, 194.033, -0.00212953, -0.00144565, 0.00570028, -0.00121042, -0.00121042, -0.00121042
621, 1,0.00483797, 0.00137457, 0.000915702, 302.129, 86.8836, 0.0169937, 470.23, -155.66, 0.187414, 0.00104301, 0.00620889, 0.00415493, 388.497, -128.165, 0, 0.00104223, 0.00346995, 0.00232864, 216.177, -70.9701, 0, 0.00104127, -3.72534, 36.6565, 351.563, -3.20565, 27.9324, 188.184, -0.00209584, -0.00138164, 0.00555714, -0.0011842, -0.0011842, -0.0011842
622, 1,0.00502769, 0.0014333, 0.000955776, 309.981, 90.2033, 0.0169579, 470.432, -156.103, 0.186825, 0.00107907, 0.00645516, 0.00435083, 399.522, -129.467, 0.000228189, 0.00107829, 0.00360489, 0.00244948, 220.982, -70.3405, 9.74529E-05, 0.00107726, -8.59876, 40.4917, 356.508, -7.89701, 30.8763, 188.042, -0.00222586, -0.00134812, 0.00567504, -0.00127664, -0.00127664, -0.00127664
623, 1,0.00523973, 0.00149005, 0.000995011, 317.317, 93.1547, 0.0174286, 466.166, -148.554, 0.195354, 0.00111495, 0.0067218, 0.00454583, 409.683, -131.253, 0.00184945, 0.00111431, 0.00376397, 0.00257281, 225.596, -70.0216, 0.00133101, 0.0011132, -10.152, 40.1028, 363.807, -10.0435, 30.2618, 189.847, -0.00233038, -0.00141021, 0.00587256, -0.00135068, -0.00135068, -0.00135068
624, 1,0.00577416, 0.00154211, 0.0010295, 330.054, 95.9447, 0.0195402, 472.871, -157.994, 0.236527, 0.00115124, 0.00730804, 0.00492911, 425.324, -141.138, 0.0104572, 0.00115049, 0.00424621, 0.0028908, 235.339, -77.737, 0.00991591, 0.0011493, -1.37021, 40.2666, 384.517, -1.66521, 31.1409, 203.735, -0.00250886, -0.001703, 0.00651549, -0.00149903, -0.00149903, -0.00149903
625, 1,0.00544248, 0.00152512, 0.00101723, 323.357, 95.0067, 0.0271015, 479.255, -163.367, 0.380526, 0.00104505, 0.00696385, 0.00468167, 417.748, -135.988, 0.00530814, 0.00104384, 0.00392398, 0.00265296, 229.469, -73.1044, 0.00437022, 0.00104277, -6.11494, 36.1699, 377.909, -6.10082, 26.5158, 198.898, -0.00239608, -0.00166223, 0.00627145, -0.00138074, -0.00138074, -0.00138074
626, 1,0.00599621, 0.00158767, 0.00105931, 329.98, 97.7801, 0.0294646, 476.903, -158.659, 0.425117, 0.00108122, 0.00757371, 0.00513868, 426.899, -140.481, 0.0142938, 0.00108005, 0.00442586, 0.00303918, 233.779, -76.1418, 0.0132719, 0.00107891, -5.24013, 46.8049, 379.88, -4.65234, 35.9328, 197.145, -0.00267368, -0.00169798, 0.00666949, -0.00161749, -0.00161749, -0.00161749
627, 1,0.00659887, 0.00163822, 0.00109734, 334.757, 100.194, 0.033032, 478.973, -159.678, 0.49091, 0.00111748, 0.00822142, 0.00560893, 434.025, -143.833, 0.0251933, 0.00111614, 0.00498642, 0.00345003, 236.283, -78.0202, 0.0244089, 0.00111493, -1.94841, 49.263, 384.186, -1.44033, 38.0506, 197.45, -0.0029259, -0.00188925, 0.00718233, -0.00184476, -0.00184476, -0.00184476
628, 1,0.00677423, 0.00167164, 0.0011167, 339.363, 103.196, 0.0366347, 479.46, -157.352, 0.555137, 0.00115362, 0.00843707, 0.00574516, 441.916, -146.882, 0.0276641, 0.00115214, 0.00511698, 0.0035387, 237.375, -78.6479, 0.0272138, 0.00115085, -0.10337, 40.3884, 400.361, -0.326687, 30.244, 206.026, -0.00298714, -0.00219236, 0.00760022, -0.00188908, -0.00188908, -0.00188908
629, 1,0.00662881, 0.00167525, 0.00111977, 337.574, 103.192, 0.0455476, 486.635, -163.729, 0.712282, 0.00104758, 0.00829915, 0.00567293, 440.176, -145.516, 0.0253077, 0.00104547, 0.00496169, 0.00344109, 235.491, -77.1814, 0.0243445, 0.0010443, -6.10204, 42.0716, 400.58, -5.29208, 30.9257, 205.91, -0.00304523, -0.00212948, 0.00756969, -0.00192023, -0.00192023, -0.00192023
630, 1,0.00723635, 0.0017324, 0.00116401, 340.124, 105.025, 0.0506955, 505.394, -193.124, 0.803738, 0.00108527, 0.00895588, 0.00614729, 444.317, -146.652, 0.0364144, 0.00108174, 0.0055245, 0.00386202, 236.669, -78.1638, 0.0355076, 0.00108052, -3.22385, 47.5255, 395.656, -0.726301, 35.5807, 199.637, -0.00326762, -0.00226222, 0.00795881, -0.00208177, -0.00208177, -0.00208177
631, 1,0.00771601, 0.00176854, 0.00118971, 344.416, 106.676, 0.0552736, 516.665, -207.893, 0.877924, 0.00112247, 0.00947133, 0.00649403, 450.35, -150.58, 0.0456044, 0.00111787, 0.00596815, 0.00416255, 239.157, -81.4702, 0.0449098, 0.00111659, 2.05711, 48.6776, 401.005, 4.74219, 37.1179, 202.551, -0.00343258, -0.00247141, 0.00841113, -0.00222294, -0.00222294, -0.00222294
632, 1,0.00827724, 0.0018093, 0.0012088, 345.603, 109.523, 0.058008, 508.012, -189.73, 0.915946, 0.00115809, 0.0100771, 0.00697727, 454.599, -148.66, 0.0559937, 0.00115368, 0.00648239, 0.00457205, 237.095, -77.1117, 0.0556046, 0.0011523, -5.23152, 38.0859, 413.125, -3.49722, 27.6284, 207.204, -0.00382515, -0.00285435, 0.00916946, -0.0026171, -0.0026171, -0.0026171
633, 1,0.00842527, 0.00184161, 0.0012394, 348.104, 110.53, 0.0629425, 511.137, -188.847, 0.988466, 0.00105148, 0.0102591, 0.00707552, 458.174, -151.084, 0.0588134, 0.00104697, 0.00659556, 0.00462652, 238.465, -79.8389, 0.0581816, 0.00104572, -3.39557, 38.1409, 418.507, 0.623524, 28.4496, 210.444, -0.00388736, -0.0029765, 0.00939851, -0.0026148, -0.0026148, -0.0026148
634, 1,0.00857083, 0.00189974, 0.00129637, 348.849, 111.274, 0.0657575, 574.527, -214.877, 1, 0.00108939, 0.0104563, 0.00723399, 459.452, -151.39, 0.0624929, 0.00108359, 0.00669299, 0.00470912, 238.886, -81.5409, 0.0611498, 0.00108231, -3.53961, 48.6536, 409.055, 4.40456, 37.423, 202.795, -0.00399149, -0.00277956, 0.00931624, -0.00261003, -0.00261003, -0.00261003
635, 1,0.00909717, 0.00196136, 0.00133968, 346.687, 111.969, 0.0669505, 596.722, -211.7, 1, 0.0011257, 0.0110457, 0.00768435, 458.086, -148.45, 0.0740712, 0.00111979, 0.0071552, 0.0050583, 235.832, -77.7418, 0.0709648, 0.00111845, -5.34224, 43.2853, 407.408, 1.06333, 31.7251, 200.437, -0.00425122, -0.00305443, 0.00981823, -0.00283718, -0.00283718, -0.00283718
636, 1,0.00953015, 0.00203568, 0.00137759, 349.926, 113.468, 0.0672032, 590.447, -197.951, 1, 0.00116089, 0.0115597, 0.00804853, 463.043, -155.899, 0.0846245, 0.00115555, 0.00750369, 0.00532005, 237.149, -81.3696, 0.0785517, 0.00115408, 2.21774, 41.7316, 423.748, 3.67801, 29.794, 210.637, -0.00446828, -0.00346007, 0.0105833, -0.00305399, -0.00305399, -0.00305399
637, 1,0.00997283, 0.00218496, 0.001486, 349.771, 114.651, 0.0668543, 578.833, -192.38, 1, 0.0010533, 0.0121503, 0.00854664, 464.083, -156.833, 0.0961408, 0.0010487, 0.00779939, 0.0055932, 235.795, -80.6924, 0.0851858, 0.00104733, -1.89197, 45.995, 426.395, 0.174185, 31.3973, 210.506, -0.00492695, -0.00351828, 0.0111342, -0.00335472, -0.00335472, -0.00335472
638, 1,0.0107552, 0.00229067, 0.00157368, 348.156, 114.568, 0.0695219, 653.384, -217.03, 1, 0.00109122, 0.0130283, 0.00919812, 462.229, -153.232, 0.113871, 0.00108543, 0.00849103, 0.00610471, 234.566, -78.5881, 0.100459, 0.00108402, -2.94207, 51.0037, 411.636, 1.12023, 34.4208, 200.223, -0.0052896, -0.0035413, 0.0114859, -0.00357995, -0.00357995, -0.00357995
639, 1,0.0110407, 0.00235836, 0.00162704, 348.762, 114.638, 0.0703917, 676.902, -224.146, 1, 0.00112798, 0.0133879, 0.00941488, 463.023, -154.097, 0.12088, 0.00112174, 0.00869928, 0.00618957, 234.872, -79.4814, 0.104704, 0.00112027, 0.820587, 47.4968, 413.975, 3.88102, 31.9419, 202.621, -0.00534382, -0.00382101, 0.0118461, -0.00358693, -0.00358693, -0.00358693
640, 1,0.0113222, 0.00241514, 0.00166002, 347.932, 115.313, 0.0704713, 679.555, -226.03, 1, 0.00116382, 0.0137322, 0.00975724, 463.006, -153.899, 0.127042, 0.00115731, 0.00891485, 0.0064525, 233.094, -76.9948, 0.108191, 0.00115574, -3.77697, 38.1245, 427.35, -2.81036, 23.8622, 209.933, -0.00566628, -0.00427259, 0.0126265, -0.00388882, -0.00388882, -0.00388882
641, 1,0.0138154, 0.00269141, 0.00186023, 350.644, 115.966, 0.0693094, 647.613, -215.736, 1, 0.00105506, 0.0165018, 0.0118668, 466.492, -158.592, 0.181082, 0.00104974, 0.0111313, 0.00819023, 234.909, -79.6603, 0.153596, 0.00104822, 3.1291, 34.0724, 438.576, 2.07355, 19.1949, 217.713, -0.00689644, -0.00564651, 0.0154054, -0.00484004, -0.00484004, -0.00484004
642, 1,0.0147971, 0.0028774, 0.00199037, 354.287, 116.406, 0.0719419, 725.224, -246.268, 1, 0.0010923, 0.0176607, 0.0127741, 470.479, -164.786, 0.204832, 0.00108574, 0.0119397, 0.00887765, 238.304, -85.519, 0.171989, 0.00108413, 21.9901, 42.1648, 430.203, 17.2099, 26.4113, 212.936, -0.00680041, -0.00604458, 0.0158638, -0.0046153, -0.0046153, -0.0046153
643, 1,0.0157069, 0.00297374, 0.00205809, 353.691, 116.353, 0.0731133, 757.623, -257.109, 1, 0.00112926, 0.0186659, 0.0135277, 469.834, -163.304, 0.224329, 0.00112204, 0.0127543, 0.00950767, 237.753, -84.3231, 0.188793, 0.00112036, 21.9477, 39.7778, 428.186, 16.6123, 24.7845, 211.572, -0.00716632, -0.00647867, 0.0166738, -0.00491919, -0.00491919, -0.00491919
644, 1,0.0167824, 0.00296332, 0.00206053, 356.651, 116.124, 0.0734115, 765.53, -259.125, 1, 0.00116593, 0.0197376, 0.0141672, 472.663, -167.696, 0.244437, 0.00115853, 0.0138304, 0.0101135, 240.752, -88.3689, 0.209473, 0.00115676, 15.8572, 41.2923, 445.94, 13.5178, 27.3367, 224.252, -0.00825874, -0.00701334, 0.0184227, -0.00597568, -0.00597568, -0.00597568
645, 1,0.0187426, 0.00343668, 0.0024026, 358.143, 117.038, 0.0719529, 728.154, -249.913, 1, 0.00105675, 0.0221766, 0.0161196, 475.146, -170.399, 0.291202, 0.00105056, 0.0153099, 0.0113374, 241.176, -89.3089, 0.239587, 0.00104885, 18.8453, 35.6687, 456.684, 14.5111, 22.7611, 230.655, -0.00937126, -0.00848562, 0.0211581, -0.00667814, -0.00667814, -0.00667814
646, 1,0.0202041, 0.00374653, 0.00262858, 365.877, 117.947, 0.0748907, 810.874, -278.684, 1, 0.00109299, 0.0239455, 0.0176801, 483.761, -184.511, 0.327071, 0.00108583, 0.0164649, 0.012437, 248.058, -101.089, 0.26549, 0.00108394, 51.3604, 44.7972, 457.376, 37.9759, 32.4525, 232.839, -0.00890356, -0.00971829, 0.0222841, -0.00615067, -0.00615067, -0.00615067
647, 1,0.0215067, 0.00385581, 0.00269957, 368.987, 118.055, 0.0762922, 851.21, -293.431, 1, 0.00112988, 0.0253608, 0.0186813, 487.005, -189.332, 0.354106, 0.00112206, 0.0176533, 0.0132876, 251.008, -105.426, 0.289577, 0.00112005, 54.7907, 51.2942, 461.913, 41.1433, 38.169, 236.966, -0.00962265, -0.0102194, 0.0236706, -0.00680979, -0.00680979, -0.00680979
648, 1,0.0216035, 0.00376757, 0.00264529, 361.472, 117.127, 0.0761263, 843.727, -287.979, 1, 0.00116738, 0.0253708, 0.0184602, 478.58, -174.879, 0.352077, 0.00115919, 0.0178363, 0.01318, 244.383, -93.7735, 0.290852, 0.0011572, 20.2557, 41.7404, 462.64, 17.0235, 28.7751, 235.522, -0.0111282, -0.00969487, 0.0243543, -0.00813957, -0.00813957, -0.00813957
649, 1,0.0256031, 0.00433472, 0.00305997, 359.811, 118.926, 0.0750469, 813.706, -277.075, 1, 0.00105759, 0.0299316, 0.0222286, 478.702, -173.658, 0.438642, 0.00105079, 0.021277, 0.0161308, 240.955, -87.4555, 0.361435, 0.00104874, 27.9967, 25.8379, 467.138, 15.3379, 12.8884, 234.14, -0.0124427, -0.0128651, 0.0290389, -0.0090986, -0.0090986, -0.0090986
650, 1,0.0273122, 0.00471538, 0.00338234, 358.388, 120.54, 0.0778961, 896.188, -306.742, 1, 0.00109355, 0.0320144, 0.0243488, 478.848, -174.263, 0.479991, 0.00108549, 0.0226152, 0.0176205, 238.003, -83.2045, 0.391219, 0.00108317, 48.0097, 12.9476, 461.833, 21.221, 1.12554, 227.267, -0.0114689, -0.0152232, 0.0305542, -0.00826106, -0.00826106, -0.00826106
651, 1,0.0276945, 0.00482682, 0.00346094, 356.488, 120.259, 0.0790672, 929.093, -317.792, 1, 0.00113049, 0.0325108, 0.0247342, 476.677, -170.241, 0.488701, 0.00112162, 0.0228822, 0.0178373, 236.365, -80.3922, 0.39628, 0.00111925, 41.6935, 9.15874, 459.87, 17.1234, -1.77728, 225.83, -0.0118595, -0.0153922, 0.0310499, -0.00850759, -0.00850759, -0.00850759
652, 1,0.0276995, 0.00464902, 0.00328855, 353.125, 118.985, 0.0788437, 915.906, -307.568, 1, 0.00116873, 0.0323446, 0.0240237, 472.078, -161.331, 0.482212, 0.00115975, 0.023056, 0.0174602, 234.203, -75.5542, 0.396124, 0.00115743, 8.78161, 14.2077, 461.003, -1.78486, 0.977748, 227.47, -0.014084, -0.0137588, 0.0314243, -0.0104305, -0.0104305, -0.0104305
653, 1,0.0290069, 0.00501107, 0.00359773, 357.295, 119.612, 0.0758361, 835.867, -284.395, 1, 0.00105779, 0.0339952, 0.0254167, 476.808, -168.56, 0.513482, 0.00105082, 0.0240275, 0.0182922, 237.877, -81.4993, 0.417033, 0.00104861, 28.2688, 11.3252, 466.085, 11.6185, 2.31366, 230.566, -0.0136078, -0.0155539, 0.0329956, -0.00990073, -0.00990073, -0.00990073
654, 1,0.0329112, 0.00554773, 0.00408761, 367.622, 122.416, 0.0791831, 933.866, -320.323, 1, 0.0010927, 0.0383988, 0.0294894, 489.852, -190.537, 0.598699, 0.00108495, 0.0274465, 0.0214639, 245.575, -94.6004, 0.489895, 0.00108221, 71.1763, 23.5124, 476.923, 35.0848, 12.5092, 236.207, -0.013155, -0.0191709, 0.0369691, -0.00984858, -0.00984858, -0.00984858
655, 1,0.0337634, 0.00568099, 0.00418047, 364.482, 122.441, 0.0805709, 966.307, -325.069, 1, 0.00112977, 0.0393816, 0.0301993, 486.73, -184.535, 0.615366, 0.00112146, 0.028169, 0.0219876, 242.42, -88.9986, 0.503437, 0.00111861, 61.3967, 18.6237, 473.585, 27.2188, 7.01927, 232.758, -0.0139116, -0.0194261, 0.0378985, -0.010412, -0.010412, -0.010412
656, 1,0.0316429, 0.00536464, 0.00384583, 362.267, 120.098, 0.0797794, 946.995, -323.003, 1, 0.00116883, 0.036976, 0.0275441, 482.251, -176.142, 0.56809, 0.0011599, 0.0263218, 0.0199464, 242.394, -88.2632, 0.463348, 0.00115729, 33.8331, 23.0535, 471.54, 17.9295, 11.9253, 234.935, -0.0151368, -0.0165527, 0.0358745, -0.0110645, -0.0110645, -0.0110645
657, 1,0.00100935, -0.000683506, 0.000474442, 1.27489, -44.9931, 0.00204937, 4.272, 124.377, 0, 0.00127101, 0.00127471, 0.00222004, 1.12657, 79.4175, 0, 0.00127194, 0.000744002, 0.00127121, 1.42368, 45.3216, 0, 0.00127264, -2.40665, -29.1481, -206.698, -0.840341, -17.5559, -117.569, 0.00119982, 0.000634261, -0.00312281, 0.000695954, 0.000695954, 0.000695954
658, 1,0.00200466, -0.00080217, 0.000688613, 75.2758, -42.9599, 0.00383844, 141.954, 53.0038, 0, 0.00139373, 0.00257969, 0.00313204, 97.404, 32.9335, 0, 0.00139418, 0.00142964, 0.00175488, 53.1483, 19.3691, 0, 0.00139449, 5.13287, 94.4537, -198.387, 2.89209, 51.5535, -112.553, 0.000627399, 0.0025172, -0.00367902, 0.000366354, 0.000366354, 0.000366354
659, 1,0.00250762, -0.000789399, 0.000758422, 113.73, -38.3958, 0.00472941, 210.852, 17.0134, 0, 0.00145241, 0.00323504, 0.00339891, 147.021, 7.88569, 0, 0.00145263, 0.00178021, 0.00188216, 80.4402, 4.96282, 0, 0.0014527, 8.3983, 142.066, -174.121, 4.73994, 77.7391, -97.3675, 0.000301963, 0.00313014, -0.00356006, 0.00017853, 0.00017853, 0.00017853
660, 1,0.00112011, -0.000736422, 0.000515809, 12.299, -45.5507, 0.00251718, 49.3077, 93.5699, 0, 0.00154958, 0.0014153, 0.00245364, 15.5038, 69.0258, 0, 0.00155019, 0.000824929, 0.00142205, 9.09442, 40.1518, 0, 0.00155092, -3.48908, 12.5779, -216.166, -2.54558, 7.2445, -125.154, 0.00101316, 0.00135342, -0.00348669, 0.000578362, 0.000578362, 0.000578362
661, 1,0.00187554, -0.000627723, 0.000577481, 82.1626, -31.3643, 0.00360347, 153.184, 22.9963, 0, 0.00150506, 0.00240245, 0.00265796, 105.368, 10.9777, 0, 0.00150535, 0.00134888, 0.00150388, 58.9687, 6.41713, 0, 0.00150546, 9.21977, 97.1214, -139.274, 5.75087, 53.9439, -78.9461, 0.000368153, 0.00222738, -0.00277367, 0.000222935, 0.000222935, 0.000222935
662, 1,0.0020306, 0.000593108, 0.000572161, 99.4487, 29.3886, 0.00379378, 184.036, -6.36611, 0, 0.00152849, 0.00262352, 0.00255534, 128.829, -6.50173, 0, 0.00152849, 0.00143782, 0.00141157, 70.0755, -2.85359, 0, 0.0015284, 6.59069, 124.22, -111.306, 3.515, 67.4238, -62.378, 3.71637E-05, 0.00252584, -0.0024575, 2.95521E-05, 2.95521E-05, 2.95521E-05
663, 1,0.00126435, 0.000366838, 0.000253469, 78.0585, 22.9549, 0.00227558, 139.37, -42.754, 0, 0.00161011, 0.00163084, 0.00115023, 100.997, -32.1397, 0, 0.00160983, 0.000898141, 0.000644543, 55.133, -17.0455, 0, 0.00160944, 4.84213, 91.4782, 0.0986681, 2.61409, 49.3513, -0.829074, -0.000403621, 0.00142915, -0.000503989, -0.000213026, -0.000213026, -0.000213026
664, 1,0.00167921, 0.000492792, 0.000359478, 115.195, 34.095, 0.00302546, 206.728, -85.6279, 0, 0.00163128, 0.00217178, 0.00157427, 149.279, -62.6536, 0, 0.00163067, 0.00118682, 0.000855699, 81.1192, -33.6219, 0, 0.0016299, 1.15077, 47.0593, 139.751, 0.530184, 25.022, 75.3134, -0.000962334, 8.66919E-06, 0.00197036, -0.000518218, -0.000518218, -0.000518218
665, 1,0.00327202, 0.000971428, 0.000664729, 206.015, 61.3156, 0.00576629, 366.579, -126.358, 0, 0.00163197, 0.00424343, 0.00290137, 267.33, -89.7152, 0, 0.001631, 0.00230061, 0.00157208, 144.701, -48.325, 0, 0.0016299, -6.78183, 9.65475, 266.273, -3.8456, 4.72918, 144.091, -0.00155636, -0.00120886, 0.00422105, -0.000842342, -0.000842342, -0.000842342
666, 1,0.00167749, 0.00046249, 0.000396698, 90.3342, 25.3638, 0.00343751, 184.954, -30.223, 0, 0.00161095, 0.00213971, 0.00186699, 115.686, -19.5671, 0, 0.00161067, 0.00121546, 0.00107442, 64.9915, -10.1474, 0, 0.00161042, 4.61665, 75.3678, -21.283, 2.37434, 40.8873, -12.8194, -0.000210248, 0.0012852, -0.000757433, -0.000109326, -0.000109326, -0.000109326
667, 1,0.00245775, 0.000694557, 0.000464081, 150.905, 43.5575, 0.00461752, 280.981, -84.3093, 0, 0.00161533, 0.0031523, 0.0021494, 194.462, -61.1002, 0, 0.00161472, 0.0017632, 0.00122157, 107.348, -32.2657, 0, 0.00161397, -2.4038, 37.877, 147.827, -2.63448, 18.4088, 81.0229, -0.00101286, -0.000162605, 0.00216696, -0.0005636, -0.0005636, -0.0005636
668, 1,0.00395272, 0.00118615, 0.000803893, 249.465, 74.3018, 0.00723657, 426.99, -114.184, 0, 0.00161074, 0.00513883, 0.00348135, 323.765, -108.675, 0, 0.00161059, 0.00276665, 0.00187364, 175.167, -59.6592, 0, 0.00160931, -4.64154, 13.2623, 317.403, -1.6163, 8.66772, 171.926, -0.00180926, -0.00143182, 0.00500458, -0.000973266, -0.000973266, -0.000973266
669, 1,0.00194835, -0.000576402, 0.000527695, 87.3162, -28.9369, 0.00403169, 174.264, 21.8705, 0, 0.00176081, 0.00242721, 0.00260888, 108.253, 8.66214, 0, 0.00176119, 0.00146955, 0.00155369, 66.3833, 4.10824, 0, 0.00176132, 4.29082, 53.6061, -83.8833, 1.80986, 34.3175, -48.4521, 0.000227437, 0.00126758, -0.00163558, 0.000103221, 0.000103221, 0.000103221
670, 1,0.00322094, 0.000912944, 0.000682303, 181.879, 52.9893, 0.010453, 416.035, -73.2192, 0.0556718, 0.00161193, 0.00413296, 0.00311824, 234.826, -53.0491, 0, 0.00161134, 0.00230963, 0.00175529, 128.965, -26.6084, 0, 0.00161065, -14.0031, 16.3915, 156.759, -10.7498, 7.19458, 83.3803, -0.00113055, -0.000495145, 0.00248654, -0.00064527, -0.00064527, -0.00064527
671, 1,0.00564101, 0.00159721, 0.00109472, 318.512, 95.2694, 0.0298849, 483.303, -168.245, 0.432786, 0.00157712, 0.00723804, 0.00511054, 413.776, -124.055, 0.00887779, 0.00157464, 0.00404413, 0.00292211, 223.252, -64.5507, 0.00712223, 0.00157311, -28.0428, -0.68905, 400.897, -20.6005, -1.53937, 215.792, -0.00276752, -0.00216036, 0.00695098, -0.00162715, -0.00162715, -0.00162715
672, 1,0.0163782, 0.00254762, 0.00176753, 351.188, 113.408, 0.0655942, 586.623, -236.049, 1, 0.00145864, 0.0189147, 0.0137491, 464.541, -156.384, 0.227604, 0.00145026, 0.0138456, 0.0103456, 237.892, -82.514, 0.209099, 0.00144824, 14.4854, 4.11119, 450.555, 12.8758, 5.3003, 229.366, -0.0072756, -0.00793179, 0.0181144, -0.00545432, -0.00545432, -0.00545432
673, 1,0.0269094, 0.00434199, 0.00305861, 366.417, 120.108, 0.0739074, 766.209, -244.3, 1, 0.00134072, 0.0311884, 0.023124, 486.324, -186.633, 0.463119, 0.00133418, 0.0226527, 0.0171475, 246.709, -96.547, 0.390548, 0.00133141, 52.1547, 34.5631, 473.181, 30.5596, 21.7556, 237.326, -0.0120034, -0.0138628, 0.0299503, -0.00897823, -0.00897823, -0.00897823
674, 1,0.00572957, 0.00123296, 0.000924819, 293.092, 68.8037, 0.0303275, 505.315, -209.243, 0.449401, 0.00146498, 0.00695855, 0.00512478, 361.754, -97.4554, 0.0171149, 0.00146069, 0.0045027, 0.00328228, 224.519, -62.7703, 0.0154922, 0.00145986, -2.92651, 25.9863, 269.306, -0.0732953, 23.7555, 164.629, -0.00190503, -0.00124072, 0.00474244, -0.00127025, -0.00127025, -0.00127025
675, 1,0.0111282, 0.00145294, 0.00100205, 329.977, 84.5453, 0.0363832, 455.016, -126.977, 0.559568, 0.0013406, 0.012573, 0.00931251, 414.461, -147.807, 0.123277, 0.00134004, 0.00968589, 0.00732779, 245.54, -91.2663, 0.12325, 0.00133872, 40.0519, 23.6784, 379.692, 31.8484, 18.0512, 223.899, -0.00385963, -0.00466917, 0.0111045, -0.00297939, -0.00297939, -0.00297939
676, 1,0.00145845, -0.000770949, 0.000556106, 20.652, -46.8656, 0.00377239, 77.9324, 134.809, 0, 0.00150135, 0.00179258, 0.00285728, 26.0059, 78.8565, 0, 0.00150271, 0.00112858, 0.00176235, 15.508, 50.8407, 0, 0.00150339, -18.6964, -4.32918, -213.544, -16.8991, 0.932429, -136.556, 0.000846541, 0.00114521, -0.00327138, 0.000443318, 0.000443318, 0.000443318
677, 1,0.00174139, -0.000965162, 0.000669037, -3.47585, -65.5248, 0.00444328, 30.6752, 240.853, 0, 0.00121562, 0.00208829, 0.00376635, -6.95847, 141.718, 0, 0.00121757, 0.00140811, 0.00246124, 0.643266, 88.2559, 0, 0.00121863, -23.3266, -41.382, -360.444, -16.9727, -17.6127, -230.182, 0.00174013, 0.00136025, -0.00540007, 0.00103256, 0.00103256, 0.00103256
678, 1,0.00719907, -0.00313476, 0.00208886, -44.1515, -184.02, 0.0273548, -79.5362, 390.621, 0.750109, 0.000908361, 0.00819585, 0.0145142, -52.4713, 312.431, 0.164029, 0.000913209, 0.00622412, 0.0104295, -35.3325, 174.831, 0.163483, 0.000915457, -67.5555, -130.258, -739.48, -47.9501, -82.3642, -394.178, 0.00761691, 0.00525337, -0.0184511, 0.00557619, 0.00557619, 0.00557619
679, 1,0.00326036, -0.00197723, 0.00136423, 30.5288, -127.229, 0.0112421, -32.3521, 300.972, 0.26218, 0.00122731, 0.00400782, 0.00682069, 29.6715, 200.872, 0.00733481, 0.00123032, 0.00251501, 0.00409851, 31.4806, 105.817, 0.00627962, 0.00123223, 16.0473, -124.555, -494.108, 21.9871, -64.2832, -275.156, 0.00370666, 0.000611561, -0.00759123, 0.00230154, 0.00230154, 0.00230154
680, 1,0.00188454, -0.00124702, 0.000904321, -1.99014, -82.8486, 0.0044043, 55.9888, 204.404, 0, 0.00125311, 0.002445, 0.00409645, 0.587213, 154.439, 0, 0.00125413, 0.00132503, 0.0022907, -4.5237, 90.1887, 0, 0.00125544, -17.0455, -162.666, -283.606, -15.8717, -92.3344, -162.36, 0.00207081, -0.00100591, -0.00357103, 0.00108368, 0.00108368, 0.00108368
681, 1,0.00182934, -0.000805014, 0.00063891, 23.2333, -55.8438, 0.00368623, 47.63, 170.055, 0, 0.000978712, 0.002302, 0.00304109, 27.7738, 108.843, 0, 0.000979685, 0.0013568, 0.00176368, 18.6978, 61.0223, 0, 0.000980445, 13.1827, -213.168, -126.545, 9.73815, -120.928, -71.8769, 0.00199282, -0.00279562, -0.000963433, 0.00116674, 0.00116674, 0.00116674
682, 1,0.00128583, -0.000647854, 0.000495352, 12.9753, -44.2141, 0.00265063, 38.6899, 116.313, 0, 0.00130769, 0.00162865, 0.002287, 15.5817, 82.4737, 0, 0.00130841, 0.00094302, 0.00129639, 10.37, 45.9439, 0, 0.00130918, 11.3367, -62.8488, -195.909, 7.86035, -36.244, -109.448, 0.00153883, -3.06115E-05, -0.00284655, 0.000889939, 0.000889939, 0.000889939
683, 1,0.00157583, -0.000780228, 0.00061992, 49.5343, -43.9699, 0.0029321, 92.558, 61.8187, 0, 0.00143678, 0.00203542, 0.00277714, 64.1594, 43.0386, 0, 0.00143722, 0.00111627, 0.00153743, 34.9101, 23.9744, 0, 0.00143767, 6.69783, 62.3298, -198.143, 4.33345, 33.9962, -110.253, 0.000819726, 0.00199669, -0.00351482, 0.000469448, 0.000469448, 0.000469448
684, 1,0.0021849, -0.000796348, 0.000716795, 91.433, -41.0857, 0.00407291, 169.368, 31.0627, 0, 0.00150025, 0.00282213, 0.00318191, 118.099, 20.5234, 0, 0.00150051, 0.00154769, 0.00174851, 64.7671, 11.2556, 0, 0.00150074, 7.18117, 113.801, -182.552, 4.2088, 62.4271, -100.403, 0.000475252, 0.00273115, -0.00353944, 0.000266401, 0.000266401, 0.000266401
685, 1,0.00115857, -0.000717396, 0.000515059, 8.72321, -46.6549, 0.0024866, 40.8869, 102.944, 0, 0.00159142, 0.00147118, 0.00238162, 10.7477, 78.9698, 0, 0.00159204, 0.000846033, 0.00135176, 6.70284, 44.7133, 0, 0.00159293, 6.86723, -33.1155, -210.661, 4.22412, -19.5276, -118.836, 0.00138892, 0.000543659, -0.00321404, 0.000793454, 0.000793454, 0.000793454
686, 1,0.00145668, -0.000609861, 0.00051319, 56.2948, -32.5742, 0.0026262, 98.95, 33.8075, 0, 0.00154936, 0.00187294, 0.00231196, 72.217, 21.8957, 0, 0.00154966, 0.00104062, 0.0012864, 40.382, 11.8162, 0, 0.00154991, 9.84361, 67.6287, -143.159, 6.07002, 37.5714, -79.0901, 0.000553318, 0.00177552, -0.00268415, 0.000314731, 0.000314731, 0.000314731
687, 1,0.00175776, -0.000568316, 0.000542961, 80.2412, -27.6437, 0.00322893, 145.848, 9.07354, 0, 0.00157656, 0.00227525, 0.00239615, 103.914, 4.85817, 0, 0.00157666, 0.00124038, 0.0013107, 56.5736, 2.75055, 0, 0.00157672, 7.49008, 99.7239, -121.788, 4.22785, 54.2703, -66.7498, 0.000235076, 0.00218651, -0.00250042, 0.000132864, 0.000132864, 0.000132864
688, 1,0.00105072, 0.00031016, 0.000237357, 62.3967, 18.4955, 0.00183126, 106.339, -26.5892, 0, 0.00166288, 0.00136062, 0.00105047, 80.8801, -22.2699, 0, 0.00166276, 0.000741029, 0.000576903, 43.9231, -11.9602, 0, 0.00166248, 6.94748, 73.684, -13.8216, 3.82804, 39.7148, -7.66241, -0.000203649, 0.00120819, -0.000643155, -0.00010727, -0.00010727, -0.00010727
689, 1,0.00144323, 0.000425809, 0.00031016, 99.3512, 29.4708, 0.0023458, 158.578, -64.0971, 0, 0.00168614, 0.00186893, 0.00135282, 128.817, -54.3926, 0, 0.00168587, 0.00101761, 0.000732806, 69.8895, -29.2798, 0, 0.00168518, 2.7143, 37.8275, 122.636, 1.44442, 20.1947, 66.2004, -0.000799111, -5.64676E-05, 0.00173822, -0.000430456, -0.000430456, -0.000430456
690, 1,0.00309644, 0.000923205, 0.000637402, 193.466, 57.853, 0.00516841, 322.439, -105.023, 0, 0.00168846, 0.00401965, 0.00277167, 251.319, -82.4117, 0, 0.00168784, 0.00217324, 0.00149688, 135.613, -44.2013, 0, 0.0016868, -9.86468, 6.4656, 250.634, -5.48488, 2.85087, 135.238, -0.00150648, -0.00116127, 0.00400507, -0.000812001, -0.000812001, -0.000812001
691, 1,0.00115469, 0.000326972, 0.00030741, 58.8788, 16.8336, 0.00209788, 103.935, -6.43493, 0, 0.0016653, 0.00148111, 0.0013965, 75.6873, -7.64549, 0, 0.00166533, 0.000828689, 0.000783601, 42.09, -3.93628, 0, 0.00166523, 4.57895, 50.3461, -31.9885, 2.05253, 26.8471, -17.0909, -2.32896E-05, 0.000943953, -0.000796598, -1.83188E-05, -1.83188E-05, -1.83188E-05
692, 1,0.00196502, 0.000561595, 0.000377707, 120.701, 35.308, 0.00372912, 220.569, -59.5656, 0, 0.00167155, 0.00252633, 0.00171195, 155.996, -49.1672, 0, 0.00167127, 0.00140395, 0.000965019, 85.4165, -25.6136, 0, 0.00167063, -4.51637, 23.439, 128.579, -4.34131, 10.317, 70.8653, -0.000869583, -0.000279659, 0.00194709, -0.000494908, -0.000494908, -0.000494908
693, 1,0.00376018, 0.00112889, 0.000775413, 232.91, 69.9297, 0.006921, 385.548, -78.5559, 0, 0.00166804, 0.00488879, 0.00340128, 302.828, -96.4278, 0, 0.00166853, 0.00263181, 0.00185195, 163.001, -51.8882, 0, 0.00166732, -17.3736, 7.89332, 298.764, -11.2105, 5.95511, 160.92, -0.00188576, -0.00135232, 0.00480284, -0.00105385, -0.00105385, -0.00105385
694, 1,0.000908815, -0.000447979, 0.000337559, 32.0694, -25.4732, 0.00168089, 50.6127, 38.7186, 0, 0.00182193, 0.00113563, 0.00156754, 38.4893, 20.3825, 0, 0.00182247, 0.000682199, 0.000893398, 25.6582, 8.82693, 0, 0.00182282, 9.69625, 12.2074, -83.0511, 6.37966, 10.1988, -43.0593, 0.000526328, 0.00057759, -0.00143467, 0.000274158, 0.000274158, 0.000274158
695, 1,0.00264155, 0.000705602, 0.000517973, 147.056, 40.1375, 0.00875664, 400.113, -49.0786, 0.0211176, 0.00166973, 0.00334569, 0.00239217, 187.129, -38.9755, 0, 0.00166944, 0.00193842, 0.00139836, 107.027, -20.7352, 0, 0.00166895, -29.7905, -5.7399, 152.457, -22.2146, -3.40171, 87.822, -0.00124362, -0.000739219, 0.0026153, -0.000796028, -0.000796028, -0.000796028
696, 1,0.00557449, 0.00155541, 0.00109238, 308.669, 91.3011, 0.0309513, 495.109, -191.064, 0.458639, 0.00163725, 0.00712751, 0.00515745, 399.893, -109.918, 0.00805893, 0.00163337, 0.00402333, 0.00297672, 217.509, -56.0365, 0.00636111, 0.00163193, -54.3055, -9.85555, 393.916, -38.3391, -7.76036, 214.209, -0.00310123, -0.00210352, 0.00699648, -0.00186865, -0.00186865, -0.00186865
697, 1,0.0165176, 0.00257282, 0.00178459, 355.647, 113.426, 0.0681505, 692.581, -296.563, 1, 0.00151654, 0.0190891, 0.0144792, 469.066, -167.156, 0.233821, 0.0015048, 0.0139467, 0.0110334, 242.234, -92.8615, 0.215238, 0.00150268, 50.5813, -14.2951, 465.181, 42.0556, -3.55571, 240.085, -0.00591877, -0.0098247, 0.0188631, -0.00396822, -0.00396822, -0.00396822
698, 1,0.0302249, 0.00472192, 0.00340464, 377.973, 122.187, 0.0776671, 879.095, -287.221, 1, 0.00138878, 0.0348816, 0.0269534, 499.997, -211.7, 0.537809, 0.00138097, 0.0255899, 0.0202916, 256.113, -113.77, 0.455802, 0.00137762, 104.296, 36.586, 494.217, 63.414, 26.428, 251.468, -0.0107373, -0.0186215, 0.0342673, -0.00792688, -0.00792688, -0.00792688
699, 1,0.00490974, 0.00107638, 0.000779736, 270.123, 60.0251, 0.0296513, 540.321, -268.784, 0.44271, 0.00152493, 0.00598341, 0.00421936, 330.052, -75.316, 0.00373091, 0.00151798, 0.00383763, 0.00271738, 210.248, -46.4461, 0.00240664, 0.00151727, -46.8396, -29.9042, 302.692, -36.8097, -19.1054, 195.253, -0.00226351, -0.00191638, 0.00540461, -0.00156813, -0.00156813, -0.00156813
700, 1,0.0125006, 0.00154133, 0.00104203, 356.56, 89.4551, 0.0360463, 452.001, -124.304, 0.556794, 0.0013912, 0.0140402, 0.0104201, 446.009, -190.931, 0.153069, 0.00139185, 0.0109614, 0.00840144, 267.115, -127.508, 0.153069, 0.00139028, 93.6808, 39.1255, 439.986, 78.8829, 39.7581, 263.883, -0.00378188, -0.00659156, 0.0137611, -0.00278897, -0.00278897, -0.00278897
701, 1,0.000888919, -0.000598643, 0.000432814, -7.30843, -41.907, 0.00191325, -2.38291, 124.685, 0, 0.00156421, 0.00115309, 0.00193548, -8.43738, 84.5537, 0, 0.00156523, 0.000626999, 0.00107883, -6.07252, 47.978, 0, 0.00156616, -8.44328, -55.8769, -189.341, -6.21177, -30.0922, -107.63, 0.00115297, 0.000148318, -0.00267337, 0.000624121, 0.000624121, 0.000624121
702, 1,0.00147945, -0.000965478, 0.000662687, -12.9606, -68.1221, 0.00496808, 59.8934, 234.949, 0, 0.00126586, 0.00183293, 0.00329724, -18.7227, 141.429, 0, 0.00126779, 0.00113003, 0.0019865, -7.01514, 81.0282, 0, 0.00126903, -22.8494, -84.1688, -317.268, -11.4344, -47.7654, -183.885, 0.00174435, 0.000462758, -0.00450211, 0.00103457, 0.00103457, 0.00103457
703, 1,0.00847091, -0.00335234, 0.00219204, -55.4313, -199.719, 0.03229, -114.511, 490.736, 0.776873, 0.000946592, 0.0093647, 0.0154473, -69.795, 379.476, 0.160285, 0.000953524, 0.00759414, 0.0112585, -40.6448, 220.408, 0.159497, 0.000956232, -170.008, -172.354, -796.066, -121.927, -108.844, -430.454, 0.0055981, 0.00561258, -0.0179735, 0.00356718, 0.00356718, 0.00356718
704, 1,0.00309848, -0.00222182, 0.00150969, -16.1596, -146.551, 0.0106369, -136.595, 430.981, 0.248599, 0.00127519, 0.00389117, 0.0073063, -23.0515, 263.928, 0.00782285, 0.00128007, 0.0023096, 0.00430364, -9.10087, 147.362, 0.00664594, 0.00128251, -35.8129, -229.614, -526.358, -19.2133, -131.377, -291.495, 0.00360713, -0.000654421, -0.00725433, 0.00207984, 0.00207984, 0.00207984
705, 1,0.00249895, -0.00143549, 0.00103768, 21.193, -95.5865, 0.00568852, 95.0301, 225.527, 0.0035644, 0.00128807, 0.00313879, 0.00492124, 23.69, 167.461, 0, 0.00128929, 0.00185913, 0.00284615, 18.6965, 92.9187, 0, 0.00129085, 11.6912, -232.785, -281.288, 11.5004, -132.489, -157.768, 0.00288385, -0.00228341, -0.00331787, 0.00170576, 0.00170576, 0.00170576
706, 1,0.00217595, -0.000979952, 0.000780052, 35.5837, -65.2636, 0.00470068, 98.6427, 165.931, 0, 0.00100283, 0.00275604, 0.00366367, 44.0493, 115.811, 0, 0.00100364, 0.00159589, 0.00210381, 27.1204, 64.8941, 0, 0.00100447, 31.5977, -261.805, -117.224, 20.1861, -149.289, -65.58, 0.00249223, -0.00371484, -0.000656685, 0.00144883, 0.00144883, 0.00144883
707, 1,0.00130086, -0.000684965, 0.000517465, 11.0113, -47.306, 0.00261032, 34.1007, 119.923, 0, 0.00134467, 0.00165078, 0.00235822, 12.6151, 87.8662, 0, 0.00134537, 0.000950977, 0.00132337, 9.4093, 47.7416, 0, 0.00134625, 9.12033, -69.8214, -202.898, 7.21774, -38.9229, -111.52, 0.00157718, -9.31446E-05, -0.00290987, 0.000904984, 0.000904984, 0.000904984
708, 1,0.00156615, -0.000838603, 0.000648705, 43.7683, -48.7069, 0.00296091, 86.6245, 71.6192, 0, 0.00147983, 0.00202494, 0.00287808, 56.3781, 52.8273, 0, 0.00148028, 0.00110736, 0.00158084, 31.159, 28.4482, 0, 0.00148087, 2.77049, 54.0371, -215.289, 2.67992, 29.9487, -117.973, 0.000890858, 0.00197543, -0.00372354, 0.00050499, 0.00050499, 0.00050499
709, 1,0.00220579, -0.000873457, 0.000758909, 85.876, -46.9376, 0.004141, 163.392, 43.4142, 0, 0.001548, 0.00285013, 0.0033444, 110.671, 32.2807, 0, 0.00154828, 0.00156146, 0.00182681, 61.0814, 17.0812, 0, 0.00154866, 2.38463, 106.123, -205.35, 1.65743, 58.5881, -111.489, 0.000558928, 0.0027539, -0.00383666, 0.000304161, 0.000304161, 0.000304161
710, 1,0.00119415, -0.000794354, 0.000561449, 7.23543, -51.6624, 0.00251132, 38.8404, 107.274, 0, 0.00163355, 0.00152261, 0.00254735, 8.63957, 85.0669, 0, 0.00163414, 0.00086573, 0.00142462, 5.83372, 47.1284, 0, 0.00163515, 7.49855, -37.6459, -225.053, 5.06182, -21.7505, -124.696, 0.00149867, 0.000544044, -0.00342312, 0.000849603, 0.000849603, 0.000849603
711, 1,0.00147387, -0.000675194, 0.000549, 52.3319, -37.4287, 0.00269421, 95.8649, 42.2712, 0, 0.00159363, 0.00189631, 0.00244376, 66.7792, 30.6856, 0, 0.00159393, 0.00105172, 0.00134677, 37.8979, 15.8591, 0, 0.00159432, 7.7492, 62.361, -162.167, 5.01783, 35.3516, -87.9467, 0.000647451, 0.0018026, -0.00294799, 0.000356155, 0.000356155, 0.000356155
712, 1,0.00178545, -0.00064395, 0.000585897, 76.0488, -33.1222, 0.00331372, 142.263, 19.2729, 0, 0.0016244, 0.00231317, 0.00255883, 98.3013, 14.8062, 0, 0.00162451, 0.00125782, 0.00138755, 53.8011, 7.58306, 0, 0.0016247, 5.24094, 93.3047, -142.964, 3.16377, 50.9803, -76.8933, 0.000344136, 0.00220743, -0.00279183, 0.000186428, 0.000186428, 0.000186428
713, 1,0.00107084, 0.000319253, 0.000272098, 59.2713, 17.5284, 0.00189642, 104.67, -20.2097, 0, 0.00171552, 0.00138978, 0.0011749, 76.785, -14.9159, 0, 0.00171537, 0.000752177, 0.000631839, 41.7704, -8.35933, 0, 0.00171519, 6.13619, 69.3218, -30.7102, 3.33989, 37.3513, -15.6132, -0.000105031, 0.00123177, -0.000884695, -6.09286E-05, -6.09286E-05, -6.09286E-05
714, 1,0.0013516, 0.000388485, 0.00028646, 93.0573, 26.9333, 0.00224141, 151.375, -61.0482, 0, 0.00174104, 0.00174004, 0.00127603, 119.989, -50.7174, 0, 0.00174075, 0.000963191, 0.000703199, 66.1275, -27.6828, 0, 0.0017401, 2.63142, 36.0854, 113.435, 1.46997, 19.2813, 62.297, -0.00074303, -3.53992E-05, 0.00160144, -0.000404811, -0.000404811, -0.000404811
715, 1,0.00310238, 0.000914781, 0.000631478, 194.077, 57.3313, 0.00526533, 330.24, -109.342, 0, 0.00174506, 0.00401715, 0.00276588, 251.408, -82.6908, 0, 0.0017443, 0.00218761, 0.00150294, 136.746, -44.8123, 0, 0.00174323, -8.96923, 6.27056, 250.771, -4.77898, 2.83518, 136.381, -0.00149203, -0.00116978, 0.00400366, -0.000806787, -0.000806787, -0.000806787
716, 1,0.00114249, -0.000332313, 0.000327404, 55.1074, -15.6677, 0.00209624, 98.7861, 0.377729, 0, 0.00172003, 0.0014639, 0.0014614, 70.3366, -1.54973, 0, 0.00172009, 0.000821952, 0.000809637, 39.9188, -1.44785, 0, 0.00172008, 5.11122, 47.64, -48.102, 2.67091, 25.7857, -24.1131, 8.39559E-05, 0.000982792, -0.0010416, 3.39355E-05, 3.39355E-05, 3.39355E-05
717, 1,0.00189843, 0.000526651, 0.000355983, 115.656, 32.9878, 0.00375834, 218.197, -54.5059, 0, 0.00172791, 0.00242423, 0.00166089, 148.604, -45.7267, 0, 0.00172767, 0.00137328, 0.000950649, 82.7366, -23.9699, 0, 0.00172706, -4.70897, 21.3458, 120.543, -4.75042, 8.44615, 68.2139, -0.00081961, -0.000269733, 0.00183136, -0.000477813, -0.000477813, -0.000477813
718, 1,0.00377604, 0.00112136, 0.000768871, 232.115, 69.5479, 0.00739427, 402.972, -71.8815, 0, 0.00172556, 0.00489706, 0.00342376, 301.647, -94.3177, 0, 0.00172619, 0.00265533, 0.00188664, 162.596, -49.8486, 0, 0.00172495, -20.697, 4.92776, 298.722, -14.7432, 2.92347, 161.366, -0.00192328, -0.00138183, 0.00483563, -0.00109692, -0.00109692, -0.00109692
719, 1,0.000858994, -0.000489506, 0.000355227, 27.1653, -28.6256, 0.00175114, 49.0881, 45.2233, 0, 0.001884, 0.00107747, 0.0015957, 32.0022, 25.408, 0, 0.00188461, 0.000641791, 0.000889196, 22.3869, 10.656, 0, 0.00188506, 10.299, 12.753, -99.2759, 7.06601, 10.9387, -49.9727, 0.000618408, 0.000668452, -0.00169916, 0.000317675, 0.000317675, 0.000317675
720, 1,0.00259046, 0.00066284, 0.00049186, 141.717, 37.2885, 0.00961254, 406.24, -57.9372, 0.0383188, 0.00172867, 0.00325174, 0.00232018, 178.932, -33.9083, 0, 0.00172796, 0.0019302, 0.00141524, 104.55, -17.8928, 0, 0.00172752, -36.7615, -4.77014, 143.257, -28.6196, -2.40021, 84.6981, -0.00131162, -0.000639334, 0.00250119, -0.000887091, -0.000887091, -0.000887091
721, 1,0.00577618, 0.00155208, 0.00108575, 312.122, 90.8807, 0.0335793, 514.656, -221.142, 0.508926, 0.00169771, 0.00732626, 0.00523403, 402.94, -113.18, 0.0117906, 0.00169234, 0.00422758, 0.00306625, 221.353, -59.4288, 0.0100341, 0.00169086, -48.2486, -12.0647, 399.854, -32.2092, -9.4989, 219.994, -0.00312306, -0.00228886, 0.00726069, -0.00188663, -0.00188663, -0.00188663
722, 1,0.0172952, 0.00258251, 0.00178452, 358.531, 113.161, 0.069322, 713.946, -293.625, 1, 0.00157231, 0.0198764, 0.0151397, 471.687, -171.963, 0.249853, 0.0015605, 0.0147145, 0.0116675, 245.381, -97.9583, 0.231704, 0.00155829, 52.7579, -7.59739, 470.729, 45.3808, 3.64872, 244.845, -0.00638378, -0.0101975, 0.019824, -0.00441162, -0.00441162, -0.00441162
723, 1,0.0312388, 0.00480689, 0.00346847, 377.051, 122.382, 0.0786669, 906.159, -295.883, 1, 0.00143808, 0.0359709, 0.0277139, 499.253, -209.614, 0.55702, 0.00142957, 0.0265315, 0.0209469, 255.029, -111.367, 0.473829, 0.00142604, 95.8209, 38.3435, 494.676, 56.8837, 26.3005, 250.916, -0.0118267, -0.0187223, 0.0354848, -0.00892276, -0.00892276, -0.00892276
724, 1,0.00519832, 0.00104247, 0.000766046, 274.202, 57.4557, 0.0303889, 537.416, -264.204, 0.457102, 0.00158298, 0.00623773, 0.0044622, 331.562, -78.7034, 0.00933417, 0.00157591, 0.0041605, 0.00295438, 216.895, -51.5526, 0.00785582, 0.00157522, -43.4079, -23.8376, 303.356, -32.0574, -14.311, 201.026, -0.00237592, -0.00195203, 0.00561177, -0.00167902, -0.00167902, -0.00167902
725, 1,0.0130362, 0.00152149, 0.0010373, 358.097, 88.1247, 0.0362217, 451.344, -123.965, 0.561055, 0.00144144, 0.0145542, 0.0108135, 446.211, -195.859, 0.16495, 0.00144227, 0.011519, 0.00880024, 269.992, -132.655, 0.16495, 0.00144064, 92.5499, 53.0631, 441.965, 79.6746, 50.3285, 267.962, -0.00434339, -0.00650863, 0.0143525, -0.00333292, -0.00333292, -0.00333292
726, 1,0.000960434, -0.000669791, 0.00048523, -7.8185, -46.5516, 0.00213714, 1.10285, 134.198, 0, 0.00162669, 0.00125953, 0.00212596, -8.57332, 91.4694, 0, 0.00162782, 0.000662779, 0.0011589, -6.99828, 51.4501, 0, 0.00162888, -12.3314, -54.3596, -207.717, -9.54587, -29.0019, -115.803, 0.00118007, 0.000289585, -0.00295395, 0.000608722, 0.000608722, 0.000608722
727, 1,0.00144948, -0.00106122, 0.000734678, -18.0117, -74.0815, 0.00529316, 71.9809, 239.402, 0, 0.00131385, 0.00185376, 0.00338105, -22.8078, 148.227, 0, 0.00131579, 0.00104845, 0.00192001, -13.0674, 83.9747, 0, 0.00131717, -34.2471, -81.0015, -329.432, -21.742, -45.3533, -184.829, 0.00161034, 0.000637883, -0.00465354, 0.000862982, 0.000862982, 0.000862982
728, 1,0.00886331, -0.00354278, 0.00231202, -60.1306, -205.522, 0.0328268, -117.516, 492.648, 0.795225, 0.000985579, 0.00981003, 0.0161657, -75.6524, 388.893, 0.174295, 0.000992883, 0.00792962, 0.0117233, -44.2891, 224.527, 0.170522, 0.000995829, -181.353, -176.558, -808.767, -129.422, -109.552, -434.608, 0.00570515, 0.00600234, -0.0186982, 0.00354682, 0.00354682, 0.00354682
729, 1,0.00336188, -0.00230784, 0.00157479, -12.28, -150.654, 0.0111113, -127.678, 421.626, 0.262991, 0.00132376, 0.0042006, 0.00773468, -17.8594, 262.879, 0.0154472, 0.00132868, 0.00252534, 0.00459918, -6.60228, 144.77, 0.0142491, 0.00133126, -19.6083, -246.005, -523.023, -7.64125, -142.257, -284.412, 0.00416041, -0.00102499, -0.00743832, 0.00250086, 0.00250086, 0.00250086
730, 1,0.002517, -0.00147864, 0.00106821, 25.1635, -97.7923, 0.00565971, 102.132, 212.963, 0.00413232, 0.00132348, 0.00317469, 0.00493489, 28.337, 163.501, 0, 0.00132455, 0.00185936, 0.00279897, 21.9933, 88.5112, 0, 0.00132616, 24.3302, -237.779, -277.054, 19.7343, -133.541, -151.727, 0.00308985, -0.00245143, -0.0032916, 0.00181153, 0.00181153, 0.00181153
731, 1,0.00214689, -0.000969567, 0.000775924, 37.4355, -64.299, 0.00454893, 99.1568, 155.611, 0, 0.00102737, 0.00272915, 0.00358597, 46.4777, 110.841, 0, 0.00102812, 0.00156465, 0.00203438, 28.3939, 61.1972, 0, 0.00102895, 36.4381, -255.413, -113.547, 22.4678, -143.479, -62.5806, 0.0025169, -0.00365784, -0.000657702, 0.00143943, 0.00143943, 0.00143943
732, 1,0.00110739, -0.000788147, 0.000545911, -3.2817, -54.5306, 0.00206182, -5.36722, 138.12, 0, 0.00138196, 0.00141096, 0.00244825, -6.2163, 97.9405, 0, 0.00138286, 0.000803889, 0.00135672, -0.342492, 51.5075, 0, 0.00138391, -7.30451, -55.0266, -231.49, -0.983827, -28.3028, -125.236, 0.00138812, 0.000378615, -0.00335604, 0.000790565, 0.000790565, 0.000790565
733, 1,0.00189144, -0.000992672, 0.000767949, 52.267, -58.5114, 0.00376172, 113.644, 86.1646, 0, 0.00152296, 0.00243463, 0.00340589, 66.3424, 65.4526, 0, 0.00152347, 0.00134827, 0.0018702, 38.1929, 34.2947, 0, 0.00152424, -4.38507, 63.4854, -255.458, -1.00091, 36.5756, -138.459, 0.000938209, 0.00237421, -0.00437453, 0.000519098, 0.000519098, 0.000519098
734, 1,0.00247278, -0.00103801, 0.000878801, 90.5545, -57.3011, 0.00477388, 182.458, 57.9815, 0, 0.00159573, 0.00319235, 0.00386207, 116.318, 46.4222, 0, 0.00159603, 0.00175324, 0.00210463, 64.792, 24.2724, 0, 0.0015966, -2.41736, 111.817, -248.666, -1.00581, 62.2638, -134.075, 0.000680014, 0.00309711, -0.00453043, 0.000361034, 0.000361034, 0.000361034
735, 1,0.00122483, -0.000946759, 0.000645611, 6.84848, -59.9112, 0.0027896, 50.2429, 109.626, 0, 0.00167606, 0.0015689, 0.00290721, 7.94401, 88.9455, 0, 0.00167662, 0.000881057, 0.00161672, 5.76685, 48.1974, 0, 0.00167773, -1.5867, -2.20294, -263.047, -0.0919246, 0.49843, -144.999, 0.00136744, 0.00135503, -0.00416581, 0.000757312, 0.000757312, 0.000757312
736, 1,0.00185441, -0.000832626, 0.000679166, 66.3518, -46.5851, 0.00366561, 135.166, 51.1472, 0, 0.00163799, 0.00237946, 0.00301823, 83.9333, 38.3164, 0, 0.00163833, 0.00132987, 0.00166174, 48.7945, 18.8798, 0, 0.00163885, 5.75645, 78.1078, -198.813, 4.52695, 45.2034, -106.37, 0.000725422, 0.00225593, -0.00360313, 0.000393298, 0.000393298, 0.000393298
737, 1,0.00204602, -0.000790102, 0.000696488, 82.5984, -41.9877, 0.00391428, 165.176, 26.6218, 0, 0.00167221, 0.00264865, 0.00302654, 106.433, 25.1818, 0, 0.00167224, 0.00144359, 0.00163429, 58.7732, 12.6973, 0, 0.00167258, 1.97825, 101.423, -178.947, 1.20533, 55.8604, -95.1575, 0.000438461, 0.00254265, -0.00338974, 0.000225484, 0.000225484, 0.000225484
738, 1,0.00127469, 0.000381682, 0.000356132, 66.6489, 19.4526, 0.00235333, 129.274, -24.2545, 0, 0.00176835, 0.00165558, 0.00150974, 86.0644, -10.5065, 0, 0.00176796, 0.00089451, 0.000799782, 47.2665, -6.70732, 0, 0.00176785, 4.84757, 79.1563, -52.4843, 2.71035, 42.834, -25.4224, -6.29022E-05, 0.00150932, -0.00127592, -4.82836E-05, -4.82836E-05, -4.82836E-05
739, 1,0.00135718, 0.000366625, 0.000272697, 93.9928, 25.6354, 0.00275121, 188.425, -78.4593, 0, 0.00179622, 0.00172367, 0.00126311, 119.622, -51.2647, 0, 0.00179543, 0.000990799, 0.00071799, 68.3682, -28.9415, 0, 0.00179478, 2.19676, 42.7546, 108.843, 1.64802, 22.8235, 62.353, -0.000760905, 9.70744E-05, 0.00149572, -0.000420928, -0.000420928, -0.000420928
740, 1,0.00320406, 0.000922273, 0.000631398, 202.308, 58.2004, 0.00590685, 378.326, -133.217, 0, 0.00180174, 0.00412633, 0.00281171, 260.509, -87.9858, 0, 0.00180042, 0.00228179, 0.0015491, 144.108, -48.7237, 0, 0.00179927, -4.83426, 9.19205, 259.6, -2.18127, 4.74031, 143.612, -0.00148803, -0.00119138, 0.00410717, -0.000813522, -0.000813522, -0.000813522
741, 1,0.00158116, -0.000465691, 0.000448426, 75.6549, -22.4373, 0.00339954, 168.4, -10.3998, 0, 0.0017753, 0.0020104, 0.00202907, 95.5151, -0.67755, 0, 0.00177502, 0.00115342, 0.00113752, 55.8647, -1.82759, 0, 0.00177505, 5.57622, 68.1627, -71.7063, 2.93847, 38.061, -35.5167, 0.000107496, 0.00143053, -0.00152703, 3.35821E-05, 3.35821E-05, 3.35821E-05
742, 1,0.0022546, 0.00058632, 0.000403962, 134.001, 36.1478, 0.00491167, 287.676, -74.6225, 0, 0.0017846, 0.00283939, 0.00198723, 170.077, -48.2125, 0, 0.00178383, 0.00167085, 0.001183, 97.9726, -25.542, 0, 0.00178318, -6.61875, 31.5863, 119.67, -7.07042, 13.299, 70.3974, -0.000899217, -9.26103E-05, 0.00177419, -0.000551708, -0.000551708, -0.000551708
743, 1,0.003995, 0.00115538, 0.000782404, 251.275, 72.3998, 0.00962929, 432.502, -101.54, 0.0413279, 0.00178367, 0.0051498, 0.00350397, 323.648, -107.824, 0, 0.00178379, 0.00284067, 0.00194347, 178.922, -60.0116, 0, 0.0017824, -5.7417, 10.8403, 318.374, -2.7341, 6.19237, 176.576, -0.00181966, -0.00146974, 0.00503909, -0.00100298, -0.00100298, -0.00100298
744, 1,0.00177422, -0.000685612, 0.00056041, 70.9902, -37.5727, 0.0042485, 171.579, 39.2348, 0, 0.0019473, 0.00220827, 0.00264041, 86.3384, 24.2017, 0, 0.00194777, 0.00134102, 0.00152274, 55.68, 10.3136, 0, 0.00194821, 5.64088, 52.9905, -131.236, 2.62796, 34.2082, -67.777, 0.000500873, 0.00149995, -0.00239355, 0.000218412, 0.000218412, 0.000218412
745, 1,0.00311011, 0.000803345, 0.000620014, 175.459, 45.5772, 0.0132958, 433.567, -98.9805, 0.112571, 0.00178876, 0.0039127, 0.00297685, 221.002, -48.4354, -1.0842E-19, 0.0017871, 0.00230802, 0.00173811, 129.939, -27.9918, -1.0842E-19, 0.00178651, -15.3371, 23.0555, 137.588, -11.6545, 13.9735, 81.6565, -0.00108667, -0.000282606, 0.00215525, -0.000686746, -0.000686746, -0.000686746
746, 1,0.00660343, 0.00160712, 0.00109426, 323.49, 95.0236, 0.0374513, 512.226, -211.243, 0.574125, 0.00175608, 0.00821046, 0.0057519, 418.511, -126.371, 0.0270881, 0.00175089, 0.00499646, 0.00356376, 228.473, -66.9955, 0.0254123, 0.00174918, -23.1851, -5.33393, 407.631, -16.4262, -4.79636, 222.209, -0.00315135, -0.00270581, 0.0079393, -0.00202113, -0.00202113, -0.00202113
747, 1,0.0186968, 0.00261473, 0.00180598, 353.824, 113.396, 0.0695072, 674.6, -245.176, 1, 0.00162607, 0.0213022, 0.0156194, 467.184, -160.792, 0.27429, 0.00161647, 0.0160945, 0.0121214, 240.498, -86.3237, 0.255487, 0.00161414, 9.50913, 14.2202, 458.647, 10.1721, 13.3597, 235.439, -0.00896633, -0.00870945, 0.0207566, -0.00711732, -0.00711732, -0.00711732
748, 1,0.0296722, 0.00458985, 0.00323894, 366.375, 120.121, 0.0774693, 865.998, -278.944, 1, 0.0014891, 0.0341888, 0.0252562, 486.294, -185.303, 0.518077, 0.00148017, 0.0251806, 0.0189414, 246.655, -95.5466, 0.440832, 0.00147696, 41.5404, 38.7241, 475.645, 23.8836, 24.1331, 238.623, -0.0142264, -0.0146506, 0.0331069, -0.0109167, -0.0109167, -0.0109167
749, 1,0.00651277, 0.00114202, 0.00087541, 286.449, 62.7636, 0.0321652, 496.219, -194.205, 0.483907, 0.00163885, 0.0076507, 0.00581531, 349.125, -89.4458, 0.0341971, 0.00163421, 0.00537656, 0.00407291, 223.825, -59.6684, 0.0330539, 0.0016334, -9.2112, 15.4902, 262.058, -3.9522, 12.4812, 170.476, -0.00222265, -0.00158476, 0.00528711, -0.00162328, -0.00162328, -0.00162328
750, 1,0.0124744, 0.00139141, 0.000964849, 350.931, 80.3175, 0.0375475, 463.642, -139.708, 0.581898, 0.00149198, 0.0138574, 0.0102363, 431.207, -170.077, 0.148706, 0.00149146, 0.0110933, 0.00832604, 270.683, -115.424, 0.148706, 0.00149002, 49.4786, 53.4659, 407.287, 44.6082, 44.483, 257.182, -0.00491134, -0.00481431, 0.0127353, -0.00404366, -0.00404366, -0.00404366
751, 1,0.00157947, -0.000931708, 0.000625593, 20.2328, -58.6184, 0.00406069, 72.4921, 160.395, 0, 0.00168946, 0.00189888, 0.00320502, 20.7506, 92.6636, 0, 0.00169132, 0.00126008, 0.0019541, 19.7152, 53.4868, 0, 0.00169239, -18.7983, 2.60758, -261.8, -16.4483, 8.36529, -152.377, 0.00106265, 0.00151041, -0.00407673, 0.000495388, 0.000495388, 0.000495388
752, 1,0.00186646, -0.00121725, 0.000852528, -16.4558, -82.3458, 0.00498598, 34.0653, 270.824, 0, 0.00135922, 0.00232715, 0.00425836, -19.4355, 173.625, 0, 0.00136136, 0.00142602, 0.00260106, -12.5573, 106.989, 0, 0.00136284, -44.0815, -56.9313, -419.862, -35.8407, -29.788, -255.337, 0.0018039, 0.0015366, -0.00615795, 0.000928808, 0.000928808, 0.000928808
753, 1,0.00858723, -0.00369967, 0.00248646, -46.9954, -194.373, 0.029585, -91.0362, 404.885, 0.819413, 0.00102484, 0.0097619, 0.017016, -58.5343, 321.314, 0.222613, 0.00103117, 0.00744562, 0.0121857, -34.8117, 173.442, 0.210354, 0.00103402, -74.6862, -143.948, -745.307, -49.8167, -84.3658, -386.143, 0.00904492, 0.00602872, -0.0210273, 0.00653596, 0.00653596, 0.00653596
754, 1,0.00367041, -0.00221652, 0.00153836, 26.9331, -140.133, 0.0123859, -31.4815, 307.734, 0.29229, 0.00137337, 0.00452491, 0.00765492, 27.8141, 214.573, 0.0189362, 0.00137674, 0.0028193, 0.00458681, 26.1929, 112.004, 0.017466, 0.00137906, 27.4609, -158.746, -512.433, 25.9808, -84.1367, -277.855, 0.00451711, 0.000156411, -0.00819264, 0.00281466, 0.00281466, 0.00281466
755, 1,0.00196651, -0.00140158, 0.00100379, 2.18561, -92.1159, 0.0043344, 61.7228, 192.294, 0, 0.00135965, 0.00257172, 0.00432649, 4.91245, 156.69, 0, 0.00136043, 0.001362, 0.00232068, -0.50664, 87.1679, 0, 0.00136197, 4.02476, -182.26, -291.835, -0.924117, -100.796, -159.784, 0.00255336, -0.00138465, -0.00371136, 0.00135371, 0.00135371, 0.00135371
756, 1,0.00174983, -0.000831373, 0.000652351, 23.9104, -57.4762, 0.00333018, 44.6933, 151.401, 0, 0.00105271, 0.00222308, 0.00295643, 28.0923, 103.41, 0, 0.00105353, 0.00127663, 0.00165197, 19.7317, 54.5509, 0, 0.00105436, 23.3132, -211.041, -122.503, 17.1686, -114.926, -65.8953, 0.00212206, -0.00283602, -0.000964111, 0.00122252, 0.00122252, 0.00122252
757, 1,0.0348425, 0.00558454, 0.00397718, 357.594, 121.131, 0.0802768, 952.696, -317.062, 1, 0.00114288, 0.0403857, 0.0300932, 478.601, -168.721, 0.628407, 0.00113442, 0.029314, 0.0222331, 236.705, -78.034, 0.521883, 0.00113167, 25.6936, 12.0102, 468.46, 5.68502, -0.998311, 229.415, -0.0165759, -0.0184532, 0.0392458, -0.0124902, -0.0124902, -0.0124902
758, 1,0.0372052, 0.00582964, 0.00425197, 366.803, 123.052, 0.0810048, 975.948, -325.965, 1, 0.00110488, 0.0429988, 0.0331287, 489.761, -188.655, 0.68007, 0.00109713, 0.0314239, 0.02471, 243.937, -91.2057, 0.568561, 0.00109411, 68.8704, 15.9683, 481.125, 31.5864, 4.16836, 237.862, -0.0148014, -0.0222081, 0.0419433, -0.0112565, -0.0112565, -0.0112565
759, 1,0.036487, 0.00564101, 0.00411203, 369.49, 122.664, 0.0797009, 941.367, -316.207, 1, 0.00106853, 0.0420936, 0.0324527, 492.066, -193.391, 0.664949, 0.00106148, 0.0308921, 0.0243114, 247.001, -96.5229, 0.558762, 0.00105861, 73.5631, 22.8098, 483.8, 37.5399, 10.7936, 241.235, -0.0145479, -0.0215638, 0.0411016, -0.011043, -0.011043, -0.011043
760, 1,0.0330241, 0.00508048, 0.00361353, 367.475, 119.661, 0.0766563, 858.57, -291.923, 1, 0.00103482, 0.0380694, 0.0284793, 487.038, -185.004, 0.589199, 0.00102838, 0.0279907, 0.0213314, 248.01, -97.4333, 0.497799, 0.00102603, 43.7531, 33.0965, 478.162, 28.2768, 22.1986, 241.825, -0.0156005, -0.0170462, 0.0371194, -0.0117756, -0.0117756, -0.0117756
761, 1,0.0342175, 0.00502924, 0.00354469, 367.886, 119.049, 0.0802069, 957.789, -326.06, 1, 0.0010785, 0.0392318, 0.029055, 486.887, -183.919, 0.609557, 0.0010705, 0.029208, 0.0220341, 248.932, -98.4824, 0.52131, 0.00106807, 41.924, 34.8379, 474.994, 29.3933, 24.4097, 241.644, -0.0161623, -0.0172701, 0.0379552, -0.0122958, -0.0122958, -0.0122958
762, 1,0.0360162, 0.00513684, 0.00365574, 377.52, 120.806, 0.0806352, 972.961, -333.526, 1, 0.00104306, 0.0411166, 0.0313985, 498.242, -204.556, 0.649011, 0.00103574, 0.0309268, 0.0241744, 256.886, -112.894, 0.561506, 0.00103312, 85.441, 46.3796, 481.847, 56.607, 35.4361, 246.64, -0.0142541, -0.0197123, 0.0391704, -0.0108634, -0.0108634, -0.0108634
763, 1,0.035535, 0.00496529, 0.00351622, 375.094, 120.895, 0.0796034, 943.513, -322.985, 1, 0.00100899, 0.0404711, 0.0309817, 495.919, -201.671, 0.637636, 0.00100217, 0.0306074, 0.0240199, 254.34, -108.912, 0.555034, 0.000999649, 81.7405, 42.9128, 480.361, 52.0488, 29.9974, 244.69, -0.0141229, -0.0194613, 0.0386643, -0.0107853, -0.0107853, -0.0107853
764, 1,0.0323269, 0.00450686, 0.00315449, 361.853, 118.747, 0.0766817, 856.686, -289.147, 1, 0.000975865, 0.0368239, 0.0274774, 480.564, -175.812, 0.566222, 0.000969594, 0.0278327, 0.0212305, 243.177, -89.4486, 0.49354, 0.000967496, 30.3754, 27.6202, 469.439, 17.5967, 14.3519, 236.397, -0.0155047, -0.0160472, 0.0357225, -0.0120026, -0.0120026, -0.0120026
765, 1,0.0259517, 0.00397296, 0.0027935, 357.778, 117.368, 0.0775673, 881.818, -298.442, 1, 0.00107977, 0.0299015, 0.0219193, 475.047, -168.291, 0.437983, 0.00107186, 0.0220098, 0.0164362, 240.607, -86.2053, 0.375959, 0.00106989, 19.8815, 30.793, 454.199, 13.1612, 17.8028, 227.652, -0.0126776, -0.0119562, 0.0282475, -0.00952592, -0.00952592, -0.00952592
766, 1,0.026127, 0.00407422, 0.00284965, 362.406, 118.319, 0.077874, 893.362, -305.427, 1, 0.00104496, 0.0301642, 0.0227093, 480.568, -178.874, 0.446381, 0.00103731, 0.0221021, 0.0170984, 244.399, -93.7318, 0.382109, 0.00103531, 50.4833, 36.5007, 449.637, 32.8117, 23.4876, 224.896, -0.0110355, -0.0126943, 0.0275949, -0.00805932, -0.00805932, -0.00805932
767, 1,0.0256257, 0.00391432, 0.00272836, 362.673, 118.097, 0.0767191, 862.796, -296.837, 1, 0.00101081, 0.0294995, 0.022234, 480.604, -179.652, 0.434189, 0.00100371, 0.0217649, 0.0168747, 244.906, -94.7363, 0.37557, 0.0010018, 50.9157, 39.8848, 448.155, 33.79, 26.0145, 224.404, -0.0108255, -0.0121754, 0.026848, -0.00795311, -0.00795311, -0.00795311
768, 1,0.024238, 0.00350744, 0.00244675, 357.319, 116.657, 0.0739058, 783.206, -268.821, 1, 0.000977469, 0.0277237, 0.020371, 473.884, -168.126, 0.397291, 0.000971267, 0.020759, 0.0155926, 240.844, -86.8136, 0.350682, 0.000969566, 19.5083, 32.1941, 452.675, 13.6409, 19.0959, 227.704, -0.0117413, -0.010912, 0.0261582, -0.008988, -0.008988, -0.008988
769, 1,0.0165391, 0.00314262, 0.00219854, 352.85, 116.412, 0.074804, 803.575, -271.181, 1, 0.00108035, 0.0196681, 0.0142466, 469.105, -161.477, 0.242785, 0.00107289, 0.013416, 0.00990007, 236.751, -82.5008, 0.200934, 0.00107126, 5.29259, 39.9724, 439.166, 5.00883, 24.4345, 218.059, -0.00846325, -0.00670711, 0.0182009, -0.00596849, -0.00596849, -0.00596849
770, 1,0.0160078, 0.00312965, 0.00217571, 351.117, 116.321, 0.0748018, 800.468, -267.5, 1, 0.00104632, 0.0191196, 0.0138072, 467.185, -158.317, 0.232643, 0.00103916, 0.0129041, 0.00955313, 235.296, -80.3245, 0.191583, 0.00103761, 11.3141, 40.7889, 422.847, 9.14336, 24.8133, 207.017, -0.00768208, -0.00632317, 0.0169573, -0.00524466, -0.00524466, -0.00524466
771, 1,0.0153668, 0.00298282, 0.00207465, 351.786, 116.201, 0.0735103, 768.006, -259.939, 1, 0.00101226, 0.0183353, 0.0131961, 467.766, -159.635, 0.217349, 0.0010056, 0.0124046, 0.00915345, 236.023, -81.4859, 0.181032, 0.00100412, 13.012, 40.9001, 424.993, 10.6375, 24.7874, 209.033, -0.0073093, -0.00609229, 0.0163493, -0.00499768, -0.00499768, -0.00499768
772, 1,0.0151732, 0.00274266, 0.00190211, 349.324, 115.526, 0.0711052, 699.596, -235.056, 1, 0.000977822, 0.017909, 0.0129323, 464.739, -155.499, 0.208149, 0.000972191, 0.01244, 0.00918762, 234.015, -77.4898, 0.179992, 0.000970776, -0.847241, 30.723, 436.622, -1.10053, 16.8805, 216.689, -0.00762658, -0.00620439, 0.0166855, -0.00553364, -0.00553364, -0.00553364
773, 1,0.0109302, 0.0025665, 0.00177259, 349.211, 116.16, 0.0715872, 712.261, -238.596, 1, 0.0010804, 0.0134947, 0.00955993, 465.195, -156.896, 0.1224, 0.00107391, 0.00836683, 0.00602321, 233.404, -79.1079, 0.0971979, 0.00107243, -1.95564, 43.2893, 429.355, -0.604291, 26.8131, 211.115, -0.00558485, -0.0040917, 0.0124089, -0.0036286, -0.0036286, -0.0036286
774, 1,0.0106454, 0.00246111, 0.00170193, 347.243, 115.216, 0.0712726, 704.28, -236.167, 1, 0.00104716, 0.0130998, 0.00923887, 462.131, -152.089, 0.114822, 0.00104086, 0.00819487, 0.00584681, 232.683, -77.2117, 0.0941623, 0.00103949, -5.63442, 48.3822, 413.52, -1.07894, 31.3527, 201.361, -0.00537452, -0.00361036, 0.0116216, -0.00349057, -0.00349057, -0.00349057
775, 1,0.0104426, 0.00235748, 0.00162536, 347.336, 114.919, 0.070461, 679.644, -225.964, 1, 0.00101289, 0.0127906, 0.00903421, 461.85, -152.207, 0.108859, 0.00100717, 0.00809984, 0.00579712, 233.224, -77.4344, 0.0922044, 0.00100585, -4.62889, 49.1613, 412.088, -0.539298, 32.532, 200.31, -0.00519829, -0.00348759, 0.0113153, -0.0034271, -0.0034271, -0.0034271
776, 1,0.0102939, 0.00224306, 0.00153093, 348.467, 114.756, 0.0684078, 620.956, -205.258, 1, 0.000977763, 0.0125313, 0.00880822, 462.949, -154.522, 0.103172, 0.000973007, 0.00805946, 0.00575992, 234.254, -78.4462, 0.0900737, 0.000971724, -0.727392, 37.9397, 426.353, 0.300509, 24.8382, 210.2, -0.00498496, -0.00386359, 0.0115089, -0.00337054, -0.00337054, -0.00337054
777, 1,0.00863848, 0.00213479, 0.00144966, 348.713, 115.12, 0.067941, 609.544, -202.889, 1, 0.00107963, 0.0107705, 0.00747347, 463.475, -155.785, 0.0690814, 0.00107444, 0.00650818, 0.00458413, 234.305, -79.5556, 0.0588, 0.00107305, -0.333514, 46.7542, 420.934, 1.12367, 31.4803, 206.063, -0.00416039, -0.00301373, 0.00980325, -0.00263134, -0.00263134, -0.00263134
778, 1,0.00817209, 0.00202891, 0.00138623, 344.505, 113.723, 0.067648, 610.8, -210.836, 1, 0.00104671, 0.0101935, 0.0070706, 457.573, -146.811, 0.057282, 0.00104119, 0.0061554, 0.00431109, 232.074, -74.4029, 0.0512426, 0.00103993, -10.3045, 46.9521, 403.785, -3.8241, 32.7882, 194.245, -0.00394716, -0.00261805, 0.00902602, -0.00246101, -0.00246101, -0.00246101
779, 1,0.00808795, 0.00194253, 0.00132881, 344.805, 112.33, 0.0669383, 596.925, -211.917, 1, 0.00101288, 0.0100237, 0.00698894, 456.527, -145.852, 0.0535636, 0.00100748, 0.0061563, 0.00434118, 233.669, -75.2642, 0.0502558, 0.00100629, -12.3339, 43.7764, 406.115, -4.2235, 31.8342, 198.182, -0.00389836, -0.00262767, 0.00896553, -0.00247936, -0.00247936, -0.00247936
780, 1,0.00808169, 0.0018759, 0.00126559, 348.614, 111.881, 0.0649383, 538.383, -191.387, 1, 0.000977773, 0.00995364, 0.00687352, 460.075, -152.287, 0.0524005, 0.000973401, 0.00621201, 0.00434897, 237.558, -80.136, 0.0506946, 0.000972227, -2.78971, 38.8026, 420.849, 1.03371, 29.0647, 210.31, -0.00374571, -0.00286647, 0.00915763, -0.00244855, -0.00244855, -0.00244855
781, 1,0.00692981, 0.00183293, 0.00123071, 346.501, 112.084, 0.0593637, 511.686, -194.561, 0.937091, 0.00107933, 0.00876074, 0.0060005, 458.058, -149.628, 0.0288886, 0.00107486, 0.00510028, 0.00354235, 235.452, -77.1379, 0.0277573, 0.00107358, -8.0644, 43.6934, 413.254, -4.5759, 32.0242, 203.965, -0.00323875, -0.00226444, 0.00797085, -0.00198298, -0.00198298, -0.00198298
782, 1,0.00694763, 0.00178889, 0.00120848, 345.322, 108.821, 0.0582696, 522.779, -215.622, 0.925473, 0.00104644, 0.00873081, 0.0059742, 453.389, -150.41, 0.0296526, 0.00104148, 0.00516829, 0.0035673, 237.965, -80.8615, 0.0286963, 0.00104028, -4.55722, 52.9664, 402.822, 0.750699, 40.9352, 200.898, -0.00320399, -0.00211293, 0.00779858, -0.00195141, -0.00195141, -0.00195141
783, 1,0.00692747, 0.00175162, 0.00118017, 343.798, 107.057, 0.0552693, 516.316, -207.696, 0.878562, 0.00101202, 0.00867116, 0.00591452, 450.033, -149.923, 0.0295746, 0.00100784, 0.00518894, 0.00356618, 238.318, -80.8124, 0.0288756, 0.00100669, -1.58132, 51.1894, 400.16, 2.0783, 39.4999, 200.859, -0.00312964, -0.00213107, 0.00773423, -0.00192145, -0.00192145, -0.00192145
784, 1,0.00681316, 0.00170157, 0.0011371, 341.214, 105.557, 0.0510099, 494.567, -173.099, 0.804181, 0.00097659, 0.00850943, 0.00580358, 446.127, -146.506, 0.027357, 0.000973975, 0.00512029, 0.00353733, 236.874, -77.12, 0.0270883, 0.000972861, -4.142, 38.6255, 405.033, -3.05566, 28.4617, 205.954, -0.00306755, -0.00228332, 0.00776495, -0.00192733, -0.00192733, -0.00192733
785, 1,0.00604896, 0.00169227, 0.00112811, 338.543, 105.302, 0.037637, 478.982, -155.908, 0.572998, 0.00107705, 0.00773818, 0.00522115, 443.256, -147.298, 0.0133157, 0.00107564, 0.00436207, 0.00297201, 234.361, -77.2049, 0.0123361, 0.00107441, -2.92819, 44.846, 399.975, -3.4116, 32.3942, 202.632, -0.0027029, -0.00186337, 0.00697424, -0.00158115, -0.00158115, -0.00158115
786, 1,0.00603612, 0.00165368, 0.00110482, 333.969, 102.302, 0.0354478, 481.245, -162.374, 0.535723, 0.00104345, 0.00768297, 0.00520015, 435.477, -143.168, 0.01333, 0.00104197, 0.00439432, 0.00300312, 233.159, -75.5361, 0.0122538, 0.00104082, -5.82439, 48.0844, 387.244, -5.55284, 35.6208, 196.54, -0.00270778, -0.00174594, 0.00679424, -0.00160586, -0.00160586, -0.00160586
787, 1,0.00584712, 0.00160848, 0.00107447, 330.589, 99.895, 0.0332376, 479.432, -160.776, 0.495342, 0.00100959, 0.00744974, 0.00504231, 429.729, -139.864, 0.0101839, 0.00100825, 0.00424886, 0.00290283, 232.093, -74.0472, 0.00930296, 0.00100717, -6.88371, 43.2867, 383.19, -6.29227, 31.8233, 196.611, -0.00260555, -0.001722, 0.00661002, -0.00153044, -0.00153044, -0.00153044
788, 1,0.00564152, 0.00155606, 0.00103732, 329.376, 97.6091, 0.0315461, 480.168, -161.835, 0.462913, 0.000975705, 0.007194, 0.00484923, 426.352, -138.966, 0.0070908, 0.00097446, 0.00409171, 0.00278048, 232.925, -74.469, 0.00662393, 0.000973437, -5.112, 35.6904, 386.32, -5.04272, 26.2551, 202.195, -0.00247218, -0.00177275, 0.00650882, -0.00144017, -0.00144017, -0.00144017
789, 1,0.00519116, 0.00154509, 0.00102927, 320.786, 97.2483, 0.0193438, 472.84, -158.128, 0.232796, 0.00107694, 0.00673279, 0.00450647, 417.495, -136.181, 0.00068824, 0.00107614, 0.00365244, 0.00245328, 224.54, -72.0542, 0.000399909, 0.00107502, -5.5209, 37.5869, 376.478, -5.15201, 27.0868, 194.228, -0.00227681, -0.00151937, 0.00600678, -0.00125212, -0.00125212, -0.00125212
790, 1,0.00503018, 0.00150437, 0.00100283, 310.094, 94.9448, 0.0177942, 466.26, -148.452, 0.202415, 0.00104297, 0.0065299, 0.00440416, 404.436, -130.909, 1.00148E-05, 0.00104235, 0.00353443, 0.00240692, 216.28, -68.5648, 2.1694E-06, 0.0010413, -9.35341, 41.1354, 360.945, -8.70917, 30.2713, 184.132, -0.00225968, -0.00136299, 0.00574688, -0.00126419, -0.00126419, -0.00126419
791, 1,0.00500616, 0.00146032, 0.000973656, 310.054, 92.2161, 0.0175069, 468.434, -152.357, 0.197176, 0.0010093, 0.00646273, 0.0043493, 401.747, -131.544, 0, 0.00100865, 0.00355269, 0.00240765, 218.807, -70.9506, 0, 0.00100766, -6.48937, 40.7184, 360.404, -5.90817, 30.3859, 188.374, -0.00221301, -0.0013739, 0.00572141, -0.00124653, -0.00124653, -0.00124653
792, 1,0.00498707, 0.00141597, 0.000943117, 311.072, 89.5592, 0.0181253, 470.815, -155.738, 0.20924, 0.000975595, 0.00639931, 0.00427978, 400.085, -131.85, 0, 0.000974892, 0.00357777, 0.00239987, 222.499, -72.8766, 0, 0.000973959, -2.16637, 35.006, 362.709, -1.90454, 26.5874, 193.947, -0.00212573, -0.00148114, 0.00574632, -0.00119157, -0.00119157, -0.00119157
793, 1,0.00468621, 0.0014086, 0.000937374, 293.818, 89.0218, 0.0124912, 466.875, -154.436, 0.100123, 0.00107727, 0.00609063, 0.00405893, 382.352, -127.691, 3.38813E-21, 0.00107664, 0.0032854, 0.00219166, 205.711, -68.8184, 3.38813E-21, 0.00107561, -0.500041, 38.7351, 344.837, -0.408888, 28.6818, 178.182, -0.00202138, -0.00130899, 0.00540235, -0.00109245, -0.00109245, -0.00109245
794, 1,0.00457686, 0.00137606, 0.000915766, 286.194, 86.9627, 0.0118547, 463.994, -150.509, 0.0875775, 0.00104339, 0.00594827, 0.00396137, 372.657, -124.542, 0, 0.00104281, 0.00320941, 0.00214168, 200.168, -66.9757, 0, 0.00104184, 0.5529, 39.6062, 333.468, 0.472524, 28.9437, 171.511, -0.00195015, -0.00124849, 0.00521953, -0.00104537, -0.00104537, -0.00104537
795, 1,0.00455873, 0.00133923, 0.000891909, 284.058, 84.6255, 0.0118974, 461.871, -147.076, 0.0882528, 0.00100953, 0.0058929, 0.0039307, 368.155, -121.952, 0, 0.00100899, 0.00322876, 0.00215665, 200.407, -65.9916, 0, 0.00100808, -1.22444, 37.837, 329.245, -1.45765, 27.994, 171.439, -0.00194912, -0.00124245, 0.00517043, -0.00107281, -0.00107281, -0.00107281
796, 1,0.00450637, 0.00129447, 0.000862354, 282.014, 81.8151, 0.0120972, 465.85, -153.217, 0.0924009, 0.000975828, 0.00579626, 0.0038679, 363.319, -120.863, 0, 0.000975184, 0.00322019, 0.00215344, 201.128, -66.8335, 0, 0.000974329, -0.916583, 34.7693, 328.736, -1.05949, 26.7473, 174.813, -0.00192547, -0.00127982, 0.00516647, -0.00107769, -0.00107769, -0.00107769
797, 1,0.00418389, 0.00127917, 0.000852599, 263.408, 80.7396, 0.00903567, 462.436, -151.657, 0.0326807, 0.00107768, 0.00545813, 0.00362692, 343.67, -115.665, 0, 0.001077, 0.002914, 0.00193519, 183.572, -62.319, 0, 0.00107607, 1.65405, 36.1965, 309.145, 1.6564, 27.1388, 158.162, -0.00178676, -0.00114595, 0.00480955, -0.000946677, -0.000946677, -0.000946677
798, 1,0.00415671, 0.001251, 0.000833836, 260.995, 78.9614, 0.00877229, 456.231, -142.165, 0.027102, 0.00104367, 0.00540253, 0.00359687, 339.476, -113.908, 0, 0.00104316, 0.00291535, 0.00194258, 182.936, -61.712, 0, 0.00104228, 0.520232, 37.9495, 303.255, 0.392841, 28.4174, 156.326, -0.00178361, -0.00108421, 0.00471616, -0.000964362, -0.000964362, -0.000964362
799, 1,0.0040958, 0.00121803, 0.00081204, 257.273, 76.8726, 0.00881077, 457.012, -143.372, 0.02792, 0.00100985, 0.00530843, 0.00353256, 333.648, -112.046, 0, 0.0010093, 0.00288772, 0.00192218, 181.324, -61.2828, 0, 0.00100847, 2.21184, 36.1152, 297.81, 1.94024, 27.2409, 154.667, -0.00171971, -0.00109294, 0.00463076, -0.000926062, -0.000926062, -0.000926062
800, 1,0.00408296, 0.00117836, 0.000786384, 255.559, 74.3651, 0.00922402, 462.42, -151.338, 0.0363394, 0.000976144, 0.0052557, 0.00350354, 329.4, -109.426, 0, 0.000975431, 0.00291477, 0.00194513, 182.149, -60.4249, 0, 0.000974656, -0.242979, 31.5226, 297, -0.422446, 24.5296, 157.168, -0.00173041, -0.0011465, 0.00465252, -0.000962579, -0.000962579, -0.000962579
801, 1,0.00374524, 0.0011493, 0.000766952, 235.218, 72.4841, 0.00711062, 440.02, -139.634, 0, 0.00107797, 0.00488924, 0.00325353, 307.233, -102.52, 0, 0.00107732, 0.00260592, 0.00173491, 163.622, -54.7062, 0, 0.00107649, 0.387494, 31.3135, 275.858, 0.398687, 23.4754, 140.244, -0.00160688, -0.00102401, 0.00429443, -0.000853711, -0.000853711, -0.000853711
802, 1,0.00372074, 0.00112451, 0.000750178, 233.68, 70.9488, 0.00701592, 430.46, -132.78, 0, 0.00104398, 0.00483983, 0.00321928, 304.157, -101.691, 0, 0.00104345, 0.00260635, 0.0017341, 163.616, -54.8367, 0, 0.00104266, 0.895575, 33.1373, 271.039, 0.752096, 24.7531, 139.005, -0.00158336, -0.000975314, 0.00420876, -0.00084858, -0.00084858, -0.00084858
803, 1,0.0036993, 0.0010961, 0.000731371, 231.83, 69.1475, 0.00707928, 433.257, -132.512, 0, 0.00101008, 0.00478981, 0.0031918, 300.495, -99.9644, 0, 0.00100955, 0.00261347, 0.0017429, 163.577, -54.3521, 0, 0.0010088, 0.393978, 31.819, 267.68, 0.101814, 24.06, 138.894, -0.00156753, -0.000976194, 0.0041658, -0.000855446, -0.000855446, -0.000855446
804, 1,0.00364338, 0.00106202, 0.00070935, 229.317, 66.9762, 0.00719794, 445.409, -141.311, 0, 0.000976357, 0.00469981, 0.00313108, 295.803, -99.3187, 0, 0.000975692, 0.00259152, 0.00172727, 163.238, -55.2403, 0, 0.000974994, 2.36666, 28.9816, 266.608, 2.18127, 22.885, 140.655, -0.00151549, -0.00102438, 0.00415147, -0.000825313, -0.000825313, -0.000825313
805, 1,0.00330614, 0.00101843, 0.000680284, 207.507, 64.2146, 0.00625352, 392.915, -130.798, 0, 0.0010784, 0.00431955, 0.00287512, 271.281, -90.2458, 0, 0.00107769, 0.00229717, 0.00152926, 144.129, -47.9575, 0, 0.00107695, -0.0149924, 27.1064, 243.646, -0.00356726, 20.5317, 123.344, -0.00142215, -0.000910473, 0.00379699, -0.000755987, -0.000755987, -0.000755987
806, 1,0.00329653, 0.000997139, 0.000665695, 206.943, 62.906, 0.00622497, 389.323, -127.773, 0, 0.00104441, 0.00428854, 0.00285439, 269.403, -89.8063, 0, 0.00104376, 0.00230896, 0.00153735, 144.872, -48.3271, 0, 0.00104306, 0.432885, 29.0549, 239.931, 0.309876, 21.8999, 122.771, -0.00140608, -0.000865635, 0.00372896, -0.000755504, -0.000755504, -0.000755504
807, 1,0.00328276, 0.000973845, 0.000650286, 206.095, 61.4255, 0.0062977, 393.837, -129.218, 0, 0.0010105, 0.00425126, 0.00283282, 267.059, -89.0535, 0, 0.00100984, 0.00231876, 0.00154584, 145.524, -48.6057, 0, 0.00100918, 1.07425, 28.4032, 237.683, 0.797388, 21.8069, 123.213, -0.00138116, -0.000868389, 0.00369458, -0.000750091, -0.000750091, -0.000750091
808, 1,0.00325923, 0.000946475, 0.000632939, 204.058, 59.6703, 0.00644093, 404.453, -134.385, 0, 0.000976673, 0.0042002, 0.0028008, 263.252, -87.1889, 0, 0.000975925, 0.00232275, 0.00154962, 145.257, -48.0052, 0, 0.000975305, 0.0774289, 24.3099, 237.179, -0.107693, 19.3491, 124.774, -0.00137272, -0.00092448, 0.00371197, -0.000759627, -0.000759627, -0.000759627
809, 1,0.00287199, 0.000887559, 0.000593553, 180.201, 55.9411, 0.0053968, 338.343, -111.885, 0, 0.00107862, 0.00375497, 0.00250155, 235.742, -78.3218, 0, 0.00107803, 0.0019931, 0.00132774, 125.021, -41.5543, 0, 0.00107739, -0.0102344, 22.7235, 212.252, 0.0123593, 17.4766, 107.174, -0.00123418, -0.000807144, 0.00331221, -0.000654722, -0.000654722, -0.000654722
810, 1,0.00287361, 0.000869799, 0.000581157, 180.336, 54.8639, 0.00544961, 341.962, -113.386, 0, 0.00104466, 0.0037387, 0.0024897, 234.791, -78.168, 0, 0.00104407, 0.0020126, 0.00134077, 126.239, -42.0484, 0, 0.00104346, 0.363377, 24.7885, 209.352, 0.25605, 18.9137, 106.975, -0.00122424, -0.000764828, 0.00325746, -0.000657736, -0.000657736, -0.000657736
811, 1,0.00287358, 0.000851654, 0.000569152, 180.171, 53.707, 0.00555634, 348.475, -115.356, 0, 0.00101073, 0.00372029, 0.0024815, 233.451, -77.5763, 0, 0.00101012, 0.00203102, 0.00135583, 127.253, -42.2772, 0, 0.00100954, 0.70407, 24.11, 207.915, 0.443921, 18.7293, 107.658, -0.00120819, -0.000771215, 0.0032382, -0.000657848, -0.000657848, -0.000657848
812, 1,0.00286434, 0.000830846, 0.000556356, 179.472, 52.361, 0.00569989, 357.425, -118.257, 0, 0.000976826, 0.0036901, 0.00246364, 231.394, -76.7769, 0, 0.000976169, 0.00204273, 0.00136452, 127.913, -42.4752, 0, 0.000975626, 0.677532, 20.6568, 208.996, 0.492735, 16.8364, 110.096, -0.00119601, -0.000830938, 0.00327277, -0.000659792, -0.000659792, -0.000659792
813, 1,0.00244162, 0.00075693, 0.000507017, 153.078, 47.676, 0.00453179, 284.204, -94.0773, 0, 0.00107887, 0.00319448, 0.00213145, 200.401, -66.4154, 0, 0.00107839, 0.0016924, 0.00112924, 106.074, -35.162, 0, 0.00107784, -0.0451153, 17.9628, 181.328, -0.0109111, 14.1138, 91.3831, -0.00104731, -0.000711347, 0.00283634, -0.000554442, -0.000554442, -0.000554442
814, 1,0.00245152, 0.000742695, 0.000496758, 153.731, 46.83, 0.00465322, 292.188, -97.0871, 0, 0.0010449, 0.00319002, 0.00212632, 200.198, -66.5108, 0, 0.00104438, 0.00171664, 0.0011448, 107.582, -35.7403, 0, 0.00104386, 0.262663, 20.1504, 179.119, 0.175088, 15.6087, 91.4371, -0.00104271, -0.000670902, 0.00279284, -0.000560023, -0.000560023, -0.000560023
815, 1,0.00246558, 0.000729787, 0.00048827, 154.504, 46.002, 0.00480044, 301.351, -100.047, 0, 0.00101095, 0.00319093, 0.00213092, 200.123, -66.3979, 0, 0.0010104, 0.00174395, 0.00116568, 109.208, -36.2347, 0, 0.0010099, 0.748595, 19.702, 178.743, 0.503719, 15.5925, 92.6078, -0.00103116, -0.000680389, 0.00278895, -0.000561375, -0.000561375, -0.000561375
816, 1,0.00247649, 0.000715662, 0.000480152, 154.925, 45.0697, 0.00495794, 311.023, -103.026, 0, 0.000977004, 0.00318748, 0.00213205, 199.594, -65.9691, 0, 0.000976416, 0.00176928, 0.00118421, 110.585, -36.5432, 0, 0.00097595, 0.523289, 16.3274, 181.057, 0.343619, 13.7232, 95.5627, -0.00102902, -0.00074465, 0.00284412, -0.000569478, -0.000569478, -0.000569478
817, 1,0.00201314, 0.000626675, 0.000420803, 126.063, 39.4279, 0.00369221, 231.18, -76.1525, 0, 0.00107911, 0.00263637, 0.00176328, 165.193, -54.5367, 0, 0.00107874, 0.00139303, 0.000931736, 87.2051, -28.7907, 0, 0.00107829, -0.0842704, 12.9533, 150.741, -0.0369645, 10.5537, 75.8553, -0.000860967, -0.000620841, 0.00236674, -0.000454548, -0.000454548, -0.000454548
818, 1,0.00203126, 0.000615992, 0.000412654, 127.264, 38.8158, 0.0038549, 241.9, -80.2191, 0, 0.00104513, 0.00264366, 0.00176485, 165.769, -54.9348, 0, 0.0010447, 0.00142198, 0.000949841, 89.031, -29.4995, 0, 0.00104427, 0.23258, 15.2967, 149.275, 0.164256, 12.137, 76.1972, -0.000860955, -0.000582246, 0.0023346, -0.000461879, -0.000461879, -0.000461879
819, 1,0.00205992, 0.000608405, 0.000407777, 128.915, 38.3201, 0.00404187, 253.54, -83.9812, 0, 0.00101115, 0.00266446, 0.00178294, 166.902, -55.1866, 0, 0.00101068, 0.00145862, 0.000977154, 91.2094, -30.147, 0, 0.00101027, 0.68509, 15.0023, 149.872, 0.45683, 12.2127, 77.7714, -0.000855875, -0.00059464, 0.002346, -0.000466424, -0.000466424, -0.000466424
820, 1,0.00208944, 0.00060087, 0.000404311, 130.508, 37.7952, 0.00423386, 265.325, -87.6071, 0, 0.00097718, 0.00268613, 0.00180179, 167.947, -55.2892, 0, 0.000976667, 0.00149609, 0.00100425, 93.36, -30.7347, 0, 0.000976278, 0.541929, 11.8637, 153.462, 0.368241, 10.5161, 81.3197, -0.000860372, -0.000662714, 0.00242024, -0.000477416, -0.000477416, -0.000477416
821, 1,0.00158761, 0.00049717, 0.000335282, 99.2067, 31.2154, 0.00287053, 179.26, -58.5722, 0, 0.00107936, 0.00208203, 0.00139862, 130.185, -42.6803, 0, 0.00107908, 0.00109569, 0.000736112, 68.4472, -22.4343, 0, 0.00107872, -0.119209, 7.73123, 120.429, -0.0583433, 6.82316, 60.5382, -0.000674883, -0.000534707, 0.00190213, -0.000354788, -0.000354788, -0.000354788
822, 1,0.0016136, 0.000489917, 0.000329078, 100.933, 30.8328, 0.00305945, 191.739, -63.3385, 0, 0.00104536, 0.00210058, 0.00140621, 131.513, -43.3812, 0, 0.00104502, 0.00112917, 0.000756487, 70.5765, -23.2681, 0, 0.00104468, 0.183356, 10.2291, 119.731, 0.134203, 8.4926, 61.1774, -0.000679952, -0.00049793, 0.0018818, -0.000364282, -0.000364282, -0.000364282
823, 1,0.00165705, 0.000487751, 0.000327934, 103.494, 30.6734, 0.00328236, 205.645, -67.862, 0, 0.00101135, 0.00214154, 0.00143813, 133.888, -44.0279, 0, 0.00101096, 0.00117527, 0.000790345, 73.3344, -24.0998, 0, 0.00101064, 0.651497, 10.119, 121.313, 0.439983, 8.68763, 63.1718, -0.000680773, -0.00051303, 0.00190822, -0.00037146, -0.00037146, -0.00037146
824, 1,0.00170538, 0.000486875, 0.000329244, 106.219, 30.556, 0.00351413, 219.889, -72.264, 0, 0.000977359, 0.0021886, 0.00147517, 136.466, -44.5899, 0, 0.00097692, 0.00122505, 0.00082632, 76.2226, -24.9036, 0, 0.000976608, 0.506654, 7.17117, 126.092, 0.340838, 7.118, 67.2519, -0.000692544, -0.000584719, 0.0020008, -0.000386082, -0.000386082, -0.000386082
825, 1,0.00116768, 0.000369193, 0.000251235, 72.6306, 23.0763, 0.00207013, 128.456, -41.1395, 0, 0.00107962, 0.0015349, 0.00104086, 95.535, -30.8402, 0, 0.00107944, 0.000802284, 0.000544217, 49.886, -16.0874, 0, 0.00107918, -0.161571, 2.34831, 90.334, -0.0867448, 2.96208, 45.3869, -0.000489207, -0.000451871, 0.0014415, -0.000255318, -0.000255318, -0.000255318
826, 1,0.00120017, 0.000364951, 0.000246512, 74.8286, 22.9048, 0.00227215, 142.005, -46.5124, 0, 0.00104559, 0.00156289, 0.00105248, 97.541, -31.8667, 0, 0.00104535, 0.000839411, 0.000565884, 52.286, -17.0626, 0, 0.00104509, 0.140677, 5.01054, 90.449, 0.109311, 4.72709, 46.3514, -0.000499421, -0.000417016, 0.00143352, -0.000266975, -0.000266975, -0.000266975
827, 1,0.00125897, 0.000368396, 0.000249324, 78.3135, 23.0899, 0.00252644, 157.885, -51.6976, 0, 0.00101156, 0.00162474, 0.00109901, 101.18, -32.8957, 0, 0.00101126, 0.00089536, 0.000606747, 55.6333, -18.0672, 0, 0.00101101, 0.607267, 5.07954, 93.0003, 0.411985, 5.03476, 48.7549, -0.000506302, -0.000434695, 0.00147478, -0.00027695, -0.00027695, -0.00027695
828, 1,0.00132615, 0.000374431, 0.000255709, 82.17, 23.3885, 0.00279705, 174.508, -56.8268, 0, 0.00097755, 0.00169743, 0.00115475, 105.296, -33.9101, 0, 0.000977187, 0.000957324, 0.000651583, 59.2523, -19.0889, 0, 0.000976952, 0.479112, 2.33474, 98.9165, 0.322376, 3.60183, 53.3424, -0.000524849, -0.000509583, 0.00158468, -0.000294806, -0.000294806, -0.000294806
829, 1,0.000761667, 0.000245025, 0.000170946, 46.7302, 15.1211, 0.00131059, 79.6869, -23.8443, 0, 0.00107986, 0.00100557, 0.000700626, 61.7494, -19.0172, 0, 0.00107977, 0.000518815, 0.000362105, 31.8076, -9.75095, 0, 0.00107961, -0.205375, -3.14482, 60.4019, -0.116425, -0.990551, 30.3598, -0.000303823, -0.00037138, 0.000983778, -0.000156031, -0.000156031, -0.000156031
830, 1,0.000795941, 0.00024252, 0.000166388, 49.1772, 15.1006, 0.00150269, 93.1598, -29.7483, 0, 0.0010458, 0.00103693, 0.000710031, 64.1472, -20.3839, 0, 0.00104565, 0.000556292, 0.000381638, 34.3228, -10.8759, 0, 0.00104548, 0.0961265, -0.314811, 61.3703, 0.0808899, 0.873887, 31.6728, -0.000319418, -0.000338569, 0.000988743, -0.00017003, -0.00017003, -0.00017003
831, 1,0.000870712, 0.000251917, 0.000173534, 53.6139, 15.645, 0.00178153, 110.636, -35.5184, 0, 0.00101175, 0.00112061, 0.00077215, 69.0906, -21.7963, 0, 0.00101153, 0.000622461, 0.000429898, 38.2764, -12.0558, 0, 0.00101137, 0.564657, -0.0623141, 64.8865, 0.384573, 1.29709, 34.4856, -0.000332304, -0.000358708, 0.00104469, -0.00018275, -0.00018275, -0.00018275
832, 1,0.000957255, 0.000265477, 0.000185647, 58.6063, 16.3851, 0.00208722, 129.392, -41.2852, 0, 0.000977709, 0.00121997, 0.000847871, 74.7705, -23.2387, 0, 0.000977423, 0.000696644, 0.000483783, 42.6143, -13.2793, 0, 0.000977265, 0.443361, -2.61075, 71.8834, 0.296757, -0.00737885, 39.5485, -0.00035745, -0.000436493, 0.00117103, -0.000203752, -0.000203752, -0.000203752
833, 1,0.000405056, 0.000133919, 0.00010367, 23.1823, 7.79584, 0.000685372, 37.3587, -6.66401, 0, 0.00108011, 0.000538679, 0.000422586, 30.9426, -7.20903, 0, 0.00108012, 0.00027172, 0.000216221, 15.4563, -3.4231, 0, 0.00108005, -0.251946, -8.69631, 30.5753, -0.148884, -4.9948, 15.413, -0.000118725, -0.000292213, 0.00052791, -5.69322E-05, -5.69322E-05, -5.69322E-05
834, 1,0.00042261, 0.000128828, 9.49179E-05, 25.0028, 7.71809, 0.000791404, 47.1123, -13.0447, 0, 0.00104603, 0.000550536, 0.000406696, 32.6463, -8.93286, 0, 0.00104596, 0.000295483, 0.000219433, 17.4262, -4.70856, 0, 0.00104589, 0.0534724, -5.69535, 32.4405, 0.0523848, -3.02679, 17.1001, -0.000139871, -0.000261618, 0.000546437, -7.33854E-05, -7.33854E-05, -7.33854E-05
835, 1,0.000510756, 0.000144304, 0.000106559, 30.2594, 8.62411, 0.00107183, 65.0411, -19.3231, 0, 0.00101195, 0.000653457, 0.000481867, 38.7587, -10.7258, 0, 0.00101181, 0.000369321, 0.000272563, 21.8608, -6.06193, 0, 0.00101173, 0.520639, -5.26047, 36.9173, 0.354571, -2.48983, 20.321, -0.000158784, -0.000284149, 0.000616977, -8.88738E-05, -8.88738E-05, -8.88738E-05
836, 1,0.000615034, 0.000166109, 0.000125156, 36.2936, 9.8357, 0.0014028, 85.3967, -25.633, 0, 0.000977888, 0.000778394, 0.000576712, 45.9286, -12.578, 0, 0.00097768, 0.000453721, 0.000333632, 26.8114, -7.47738, 0, 0.0009776, 0.404357, -7.61526, 44.9449, 0.268842, -3.6699, 25.8332, -0.000190282, -0.000364543, 0.000758928, -0.000112858, -0.000112858, -0.000112858
837, 1,0.000236189, -0.000101338, 8.78038E-05, 8.44223, -5.47908, 0.000464298, 14.2144, 10.4056, 0, 0.00108035, 0.000310328, 0.000382884, 11.3621, 4.58641, 0, 0.00108045, 0.000162171, 0.000207762, 5.54267, 2.8975, 0, 0.00108048, -0.300411, -14.2541, 0.795285, -0.183229, -9.01041, 0.501155, 6.61377E-05, -0.000213344, 7.27818E-05, 4.20189E-05, 4.20189E-05, 4.20189E-05
838, 1,0.000202223, -7.6784E-05, 6.85518E-05, 8.06614, -4.06043, 0.00037122, 14.8716, 3.59895, 0, 0.00104625, 0.000261823, 0.000300628, 10.5102, 2.48884, 0, 0.00104627, 0.00014327, 0.000165573, 5.67433, 1.44141, 0, 0.00104629, 0.0123531, -11.0812, 3.60236, 0.0233248, -6.93635, 2.58881, 3.92525E-05, -0.00018518, 0.000105543, 2.29812E-05, 2.29812E-05, 2.29812E-05
839, 1,0.000261954, -7.92221E-05, 7.63841E-05, 12.1821, -3.92594, 0.00051718, 26.7691, -3.11847, 0, 0.00101216, 0.000333751, 0.00033864, 15.4268, 0.316001, 0, 0.0010121, 0.000191555, 0.000190368, 9.03285, -0.0855388, 0, 0.00101211, 0.477278, -10.4647, 9.03946, 0.323747, -6.28691, 6.21978, 1.43055E-05, -0.000210067, 0.000190637, 4.71687E-06, 4.71687E-06, 4.71687E-06
840, 1,0.000355949, 9.69868E-05, 9.48906E-05, 17.9148, 4.72475, 0.000810038, 45.6578, -9.87812, 0, 0.000978066, 0.000449537, 0.00041813, 22.4234, -1.92632, 0, 0.00097794, 0.000265029, 0.000237618, 13.5797, -1.68136, 0, 0.000977936, 0.361075, -12.6326, 18.0505, 0.23754, -7.34975, 12.1563, -2.33384E-05, -0.000292844, 0.000347447, -2.21219E-05, -2.21219E-05, -2.21219E-05
841, 1,0.000283811, -0.000199118, 0.000141842, 3.87613, -12.1736, 0.000583257, 7.20768, 27.3721, 0, 0.00108059, 0.000367652, 0.00062868, 5.22797, 16.3712, 0, 0.00108078, 0.000200579, 0.000347163, 2.59088, 9.21241, 0, 0.00108091, -0.350615, -19.7657, -28.9975, -0.219355, -12.9968, -14.421, 0.000250801, -0.000133735, -0.000382714, 0.000140848, 0.000140848, 0.000140848
842, 1,0.000236605, -0.000171559, 0.000121256, 3.15845, -10.5297, 0.000439621, 5.75802, 20.1827, 0, 0.00104647, 0.000306305, 0.000527369, 4.13126, 13.8828, 0, 0.00104658, 0.000167986, 0.00028841, 2.27702, 7.57516, 0, 0.00104669, -0.0265146, -16.4214, -25.2004, -0.00561876, -10.8152, -11.9047, 0.000217991, -0.000108263, -0.000334995, 0.0001191, 0.0001191, 0.0001191
843, 1,0.000240627, -0.000159543, 0.000116189, 4.90784, -9.62653, 0.000410078, 9.63705, 13.091, 0, 0.00101236, 0.000311656, 0.000492658, 6.23968, 11.331, 0, 0.00101239, 0.000171133, 0.000265298, 3.68312, 5.87491, 0, 0.00101248, 0.43462, -15.6264, -18.8011, 0.29208, -10.0562, -7.8606, 0.000186992, -0.000135517, -0.000235332, 9.80446E-05, 9.80446E-05, 9.80446E-05
844, 1,0.000276523, -0.000157139, 0.000120401, 8.10879, -9.19193, 0.000508858, 19.6209, 5.9711, 0, 0.000978251, 0.000357122, 0.000495856, 10.2016, 8.71672, 0, 0.000978207, 0.000198667, 0.000263851, 6.19346, 4.10916, 0, 0.000978281, 0.314387, -17.6148, -8.84978, 0.203631, -11.0093, -1.52184, 0.000143403, -0.000220497, -6.43396E-05, 6.8479E-05, 6.8479E-05, 6.8479E-05
845, 1,0.000395915, -0.00032002, 0.000219042, 2.38648, -19.9673, 0.000796054, 4.70411, 44.2453, 0, 0.00108082, 0.0005124, 0.000961758, 3.26141, 28.1475, 0, 0.00108111, 0.000280748, 0.000528251, 1.63875, 15.5231, 0, 0.00108133, -0.402185, -25.1786, -58.8618, -0.256895, -16.9134, -29.399, 0.000435303, -5.23527E-05, -0.000839685, 0.000239584, 0.000239584, 0.000239584
846, 1,0.000347052, -0.000289685, 0.000197381, 1.8454, -18.1115, 0.00064963, 3.38267, 36.7058, 0, 0.0010467, 0.000450162, 0.000853123, 2.45982, 25.2509, 0, 0.00104689, 0.000245617, 0.000463948, 1.3737, 13.6942, 0, 0.00104709, -0.0630199, -21.6652, -54.0243, -0.0343482, -14.624, -26.4242, 0.000396377, -2.98754E-05, -0.000776231, 0.000214995, 0.000214995, 0.000214995
847, 1,0.00032841, -0.00026899, 0.000185198, 2.76859, -16.7195, 0.00057033, 5.14298, 29.2972, 0, 0.00101257, 0.000427752, 0.000784522, 3.57437, 22.3201, 0, 0.00101268, 0.000230807, 0.000420112, 2.09318, 11.8203, 0, 0.00101285, 0.393694, -20.6961, -46.6578, 0.260312, -13.7591, -21.9619, 0.000359313, -5.95551E-05, -0.000661929, 0.000191137, 0.000191137, 0.000191137
848, 1,0.000329226, -0.000254827, 0.000179282, 4.54326, -15.6485, 0.000553013, 9.83693, 21.9042, 0, 0.00097844, 0.000430189, 0.000738938, 5.80949, 19.3516, 0, 0.00097848, 0.000230766, 0.00038847, 3.45418, 9.89485, 0, 0.000978631, 0.264673, -22.5146, -35.8048, 0.167303, -14.6113, -15.2405, 0.000309957, -0.000146615, -0.000477342, 0.000158958, 0.000158958, 0.000158958
849, 1,0.000525118, -0.000446784, 0.000302136, 1.72112, -28.0377, 0.00103561, 3.52706, 61.0358, 0, 0.00108107, 0.000680189, 0.00131777, 2.4035, 39.9176, 0, 0.00108144, 0.000372074, 0.000720447, 1.22577, 21.8313, 0, 0.00108176, -0.454763, -30.4408, -88.8573, -0.29566, -20.72, -44.4784, 0.000619689, 3.18393E-05, -0.00129925, 0.000338258, 0.000338258, 0.000338258
850, 1,0.000473701, -0.000412448, 0.00027821, 1.30925, -25.9097, 0.000888607, 2.42823, 53.1605, 0, 0.00104693, 0.000614986, 0.00119951, 1.79549, 36.595, 0, 0.00104721, 0.000334704, 0.000650746, 1.01735, 19.7998, 0, 0.0010475, -0.0971494, -26.7624, -82.9255, -0.0627186, -18.3237, -41.0131, 0.000574437, 5.09634E-05, -0.0012192, 0.000310689, 0.000310689, 0.000310689
851, 1,0.000443412, -0.000385249, 0.000261104, 1.90856, -24.1331, 0.000790842, 3.51439, 45.4833, 0, 0.00101279, 0.000577857, 0.00111007, 2.51399, 33.2854, 0, 0.00101299, 0.000311077, 0.000595316, 1.46568, 17.7521, 0, 0.00101324, 0.354225, -25.6262, -74.5843, 0.228173, -17.3584, -36.1261, 0.000531293, 1.87443E-05, -0.00109014, 0.000284012, 0.000284012, 0.000284012
852, 1,0.000426921, -0.00036318, 0.000248863, 3.0698, -22.6154, 0.000730168, 6.29272, 37.9063, 0, 0.000978658, 0.000558478, 0.00103712, 3.9957, 29.978, 0, 0.000978784, 0.000298009, 0.000548161, 2.34345, 15.6759, 0, 0.000979012, 0.213102, -27.2845, -62.8626, 0.12936, -18.1185, -29.0384, 0.000476343, -7.03119E-05, -0.00089246, 0.000249333, 0.000249333, 0.000249333
853, 1,0.000660912, -0.000575627, 0.000387332, 1.3753, -36.2038, 0.00128539, 2.88698, 77.7548, 0, 0.00108129, 0.000856746, 0.00168247, 1.96932, 51.6841, 0, 0.00108175, 0.000467771, 0.000916994, 1.02492, 28.1388, 0, 0.00108216, -0.507721, -35.5016, -119.043, -0.334818, -24.3768, -59.7046, 0.00080401, 0.000119841, -0.0017625, 0.000436912, 0.000436912, 0.000436912
854, 1,0.000605816, -0.000536591, 0.000360488, 1.04419, -33.7677, 0.00113645, 1.96365, 69.5205, 0, 0.00104714, 0.000786821, 0.00155259, 1.47895, 47.9172, 0, 0.00104751, 0.000427694, 0.000841262, 0.853385, 25.8937, 0, 0.00104788, -0.129644, -31.6637, -111.958, -0.091367, -21.8758, -55.7138, 0.000752188, 0.000135211, -0.00166492, 0.000406194, 0.000406194, 0.000406194
855, 1,0.000567413, -0.000503629, 0.000339222, 1.47913, -31.6421, 0.00102931, 2.77707, 61.614, 0, 0.001013, 0.000739188, 0.00144651, 1.99354, 44.2274, 0, 0.00101328, 0.000398195, 0.000777157, 1.16281, 23.6707, 0, 0.00101362, 0.316637, -30.3679, -102.631, 0.196267, -20.8156, -50.3927, 0.000702946, 0.000100305, -0.0015209, 0.000376684, 0.000376684, 0.000376684
856, 1,0.000540401, -0.00047532, 0.000322266, 2.32688, -29.7607, 0.000948592, 4.66569, 53.9571, 0, 0.000978862, 0.000706216, 0.00135464, 3.08639, 40.5983, 0, 0.000979074, 0.000377544, 0.000720088, 1.79854, 21.4541, 0, 0.000979378, 0.158834, -31.8787, -90.0749, 0.0891419, -21.4949, -42.9565, 0.000642577, 9.30124E-06, -0.00131064, 0.000339617, 0.000339617, 0.000339617
857, 1,0.000800035, -0.000705398, 0.000473478, 1.19038, -44.4102, 0.00153992, 2.54572, 94.3742, 0, 0.00108153, 0.00103767, 0.00205151, 1.74523, 63.4503, 0, 0.00108207, 0.000565708, 0.00111579, 0.931438, 34.4487, 0, 0.00108258, -0.562, -40.3117, -149.477, -0.375864, -27.8465, -75.1236, 0.000988303, 0.000212636, -0.00223051, 0.000535568, 0.000535568, 0.000535568
858, 1,0.000740402, -0.000661213, 0.000443315, 0.911079, -41.6418, 0.00138676, 1.75164, 85.6984, 0, 0.00104736, 0.000961793, 0.0019085, 1.32898, 59.2168, 0, 0.00104781, 0.000522455, 0.00103338, 0.783864, 31.9753, 0, 0.00104828, -0.157298, -36.3188, -141.174, -0.117437, -25.2418, -70.5667, 0.000929689, 0.000223793, -0.00211436, 0.000501564, 0.000501564, 0.000501564
859, 1,0.000695338, -0.000622804, 0.000418224, 1.24324, -39.1823, 0.00127636, 2.56072, 77.5905, 0, 0.00101321, 0.000905402, 0.00178752, 1.71606, 55.1482, 0, 0.00101358, 0.000488318, 0.000961794, 1.0056, 29.5785, 0, 0.001014, 0.27942, -34.8754, -130.848, 0.162843, -24.0959, -64.8025, 0.00087427, 0.000186005, -0.00195513, 0.000469151, 0.000469151, 0.000469151
860, 1,0.000660923, -0.000589127, 0.000397363, 1.90987, -36.9821, 0.00118386, 3.8394, 70.004, 0, 0.000979067, 0.000862661, 0.00168081, 2.58184, 51.2145, 0, 0.000979366, 0.000462516, 0.000897418, 1.50341, 27.2305, 0, 0.000979747, 0.103446, -36.2513, -117.496, 0.0483318, -24.7043, -57.0357, 0.00080872, 9.31222E-05, -0.00173287, 0.000429859, 0.000429859, 0.000429859
861, 1,0.00094122, -0.000835649, 0.000560117, 1.10732, -52.6347, 0.00179588, 2.38461, 110.846, 0, 0.00108175, 0.00122123, 0.00242322, 1.64972, 75.2141, 0, 0.00108237, 0.000665063, 0.00131607, 0.907942, 40.758, 0, 0.00108298, -0.607724, -44.8187, -180.216, -0.409142, -31.0874, -90.7775, 0.00117275, 0.000311159, -0.00270436, 0.000634389, 0.000634389, 0.000634389
862, 1,0.000876313, -0.000785971, 0.000526345, 0.857014, -49.5148, 0.00164215, 2.05033, 101.535, 0, 0.00104758, 0.00113842, 0.00226581, 1.27665, 70.4965, 0, 0.00104811, 0.000618162, 0.00122632, 0.771272, 38.0476, 0, 0.00104866, -0.180051, -40.6809, -170.628, -0.141917, -28.3857, -85.6153, 0.00110699, 0.000317589, -0.00256848, 0.000596828, 0.000596828, 0.000596828
863, 1,0.000825406, -0.00074228, 0.000497612, 1.12512, -46.7292, 0.00153453, 3.11572, 93.2429, 0, 0.00101343, 0.00107425, 0.00213083, 1.58338, 66.0407, 0, 0.00101388, 0.000580092, 0.00114788, 0.939433, 35.4688, 0, 0.00101438, 0.256594, -39.0956, -159.283, 0.140873, -27.1571, -79.3901, 0.00104544, 0.000276723, -0.00239377, 0.000561573, 0.000561573, 0.000561573
864, 1,0.000785237, -0.000703778, 0.000473328, 1.66581, -44.2395, 0.00142822, 3.52989, 85.9356, 0, 0.000979271, 0.00102379, 0.00201162, 2.29251, 61.8304, 0, 0.000979655, 0.000550396, 0.00107764, 1.33888, 33.0091, 0, 0.000980113, 0.0452052, -40.3574, -145.179, 0.00441775, -27.7122, -71.3197, 0.000974787, 0.000182039, -0.00216011, 0.000520056, 0.000520056, 0.000520056
865, 1,0.00108405, -0.000966157, 0.000647019, 1.08988, -60.8659, 0.00205679, 2.57579, 127.163, 0, 0.00108197, 0.0014068, 0.00279689, 1.63564, 86.9855, 0, 0.00108268, 0.000765629, 0.00151752, 0.927869, 47.0767, 0, 0.00108338, -0.66567, -48.9712, -211.32, -0.457154, -34.0562, -106.717, 0.00135708, 0.000416605, -0.00318515, 0.000733068, 0.000733068, 0.000733068
866, 1,0.00101309, -0.000910689, 0.000609397, 0.879146, -57.377, 0.00194028, 4.69686, 116.906, 0, 0.00104782, 0.00131607, 0.00262401, 1.31045, 81.7325, 0, 0.00104842, 0.000714505, 0.00141987, 0.819091, 44.0881, 0, 0.00104906, -0.15008, -44.6761, -200.371, -0.120594, -31.244, -100.9, 0.00128473, 0.000417655, -0.00302862, 0.000692577, 0.000692577, 0.000692577
867, 1,0.000956796, -0.000861819, 0.000577141, 1.08388, -54.2705, 0.00182271, 5.46865, 108.392, 0, 0.00101366, 0.00124469, 0.00247554, 1.5439, 76.909, 0, 0.00101418, 0.000672858, 0.00133489, 0.931213, 41.3469, 0, 0.00101477, 0.259267, -42.9844, -188.002, 0.137772, -29.9654, -94.2131, 0.00121675, 0.00037334, -0.00283805, 0.000654181, 0.000654181, 0.000654181
868, 1,0.000912049, -0.000818899, 0.000549779, 1.5397, -51.5143, 0.0016816, 3.78238, 101.693, 0, 0.000979485, 0.00118796, 0.00234543, 2.14608, 72.4327, 0, 0.00097995, 0.000640207, 0.00125976, 1.26496, 38.7762, 0, 0.000980486, 0.00760542, -44.139, -173.167, -0.0204696, -30.469, -85.8391, 0.00114105, 0.000277001, -0.00259337, 0.000610446, 0.000610446, 0.000610446
869, 1,0.00122844, -0.00109674, 0.000733999, 1.16295, -69.0945, 0.00235613, 4.25048, 143.917, 0, 0.0010822, 0.00159413, 0.00317229, 1.72176, 98.6785, 0, 0.00108299, 0.000867425, 0.00172019, 1.02011, 53.3201, 0, 0.00108379, -0.608315, -52.6411, -242.786, -0.396136, -36.6298, -122.934, 0.00154266, 0.000530798, -0.00367467, 0.000832921, 0.000832921, 0.000832921
870, 1,0.00115059, -0.00103525, 0.000692327, 0.94837, -65.2203, 0.00228039, 9.35835, 132.239, 0, 0.00104806, 0.00149447, 0.002983, 1.3982, 92.9249, 0, 0.00104873, 0.000811442, 0.00161412, 0.899492, 50.1023, 0, 0.00104946, -0.0532175, -48.2422, -230.479, -0.0517131, -33.7644, -116.491, 0.00146325, 0.000525558, -0.00349665, 0.000788955, 0.000788955, 0.000788955
871, 1,0.00108997, -0.000981293, 0.000656662, 1.19057, -61.7978, 0.00216103, 10.255, 123.448, 0, 0.0010139, 0.00141708, 0.002822, 1.66025, 87.6748, 0, 0.00101449, 0.000767032, 0.00152331, 1.04551, 47.1393, 0, 0.00101515, 0.427123, -46.4143, -217.037, 0.28134, -32.4046, -109.295, 0.00138991, 0.000477563, -0.00329013, 0.000748511, 0.000748511, 0.000748511
872, 1,0.00104088, -0.000934303, 0.000626517, 1.48278, -58.7969, 0.0019713, 5.61125, 117.641, 0, 0.000979714, 0.00135451, 0.00268155, 2.08472, 83.0217, 0, 0.000980264, 0.000731607, 0.00144342, 1.23845, 44.5327, 0, 0.000980877, -0.00333777, -47.5684, -201.493, -0.0240684, -32.9527, -100.621, 0.00130762, 0.000379089, -0.00303386, 0.000701075, 0.000701075, 0.000701075
873, 1,0.00137211, -0.00122728, 0.000820911, 1.06063, -77.3154, 0.0027156, 7.64765, 162.184, 0, 0.00108237, 0.00178082, 0.00354564, 1.63721, 110.462, 0, 0.00108328, 0.000968237, 0.00192044, 0.918309, 59.6622, 0, 0.00108418, -0.7915, -56.0451, -274.551, -0.592865, -39.0188, -139.375, 0.00172468, 0.000653034, -0.00417013, 0.000928956, 0.000928956, 0.000928956
874, 1,0.00128683, -0.00115954, 0.00077496, 1.14874, -73.0381, 0.00268903, 16.8337, 148.143, 0, 0.00104827, 0.00167149, 0.00334185, 1.59184, 103.869, 0, 0.00104902, 0.000907036, 0.00180826, 1.08274, 55.8954, 0, 0.00104984, 0.524564, -51.223, -260.909, 0.451262, -35.7983, -132.339, 0.00164809, 0.000642173, -0.0039757, 0.000891103, 0.000891103, 0.000891103
875, 1,0.00122412, -0.00110067, 0.00073611, 1.36598, -69.3083, 0.00258095, 18.5301, 138.994, 0, 0.00101411, 0.00159057, 0.00317011, 1.83474, 98.4091, 0, 0.00101478, 0.000861509, 0.00171287, 1.18009, 52.9261, 0, 0.00101553, 0.792204, -49.4923, -246.527, 0.576823, -34.5935, -124.762, 0.00156673, 0.00058919, -0.00375276, 0.000845944, 0.000845944, 0.000845944
876, 1,0.00117222, -0.00104989, 0.000703414, 1.52682, -66.0843, 0.00233838, 9.58876, 135.613, 0, 0.000979899, 0.00152382, 0.00301975, 2.13408, 93.5367, 0, 0.000980568, 0.000825115, 0.00162847, 1.29047, 50.2198, 0, 0.000981258, 0.0611884, -50.5781, -230.093, 0.0317334, -35.1014, -115.59, 0.00147458, 0.000490194, -0.00348255, 0.000791818, 0.000791818, 0.000791818
877, 1,0.00152176, -0.00135709, 0.000907138, 2.09101, -85.492, 0.00316185, 12.9361, 183.423, 0, 0.00108252, 0.00197327, 0.00392409, 2.68713, 121.03, 0, 0.00108361, 0.00107503, 0.0021261, 1.93441, 64.8123, 0, 0.0010846, 0.708039, -57.5546, -306.243, 0.853627, -39.6156, -155.675, 0.00192324, 0.000796953, -0.00468409, 0.0010411, 0.0010411, 0.0010411
878, 1,0.00142825, -0.00128327, 0.000856862, 1.52858, -80.8084, 0.00322136, 29.9546, 164.318, 0, 0.00104845, 0.00185244, 0.00370311, 1.99198, 114.656, 0, 0.0010493, 0.00100809, 0.00200562, 1.43824, 61.5819, 0, 0.0010502, 1.27663, -53.2409, -292.003, 1.02166, -36.9808, -148.787, 0.00183427, 0.000776171, -0.00447091, 0.00099312, 0.00099312, 0.00099312
879, 1,0.00136945, -0.0012196, 0.000815018, 2.57517, -76.7816, 0.00315458, 33.384, 155.459, 0, 0.00101431, 0.00177527, 0.00352484, 3.05277, 108.477, 0, 0.00101509, 0.000966342, 0.00190848, 2.28989, 58.0892, 0, 0.00101592, 2.02544, -51.1292, -276.326, 1.63556, -35.4393, -140.464, 0.00175137, 0.000721093, -0.00423267, 0.000949663, 0.000949663, 0.000949663
880, 1,0.00130667, -0.00116546, 0.000780251, 1.93097, -73.3702, 0.00284915, 18.1163, 156.594, 0, 0.000980055, 0.00169637, 0.00336145, 2.52686, 103.737, 0, 0.000980896, 0.000921152, 0.00181635, 1.66919, 55.6001, 0, 0.000981662, 0.756033, -52.9596, -259.008, 0.684192, -36.7009, -130.784, 0.00164982, 0.00061205, -0.00394516, 0.000890259, 0.000890259, 0.000890259
881, 1,0.00164473, -0.00148691, 0.000993373, -0.393038, -93.652, 0.00380471, 32.6182, 197.811, 0, 0.00108268, 0.00213872, 0.00426242, 0.15049, 134.843, 0, 0.00108378, 0.0011543, 0.00229117, -0.619651, 73.2539, 0, 0.00108487, -2.74482, -63.0598, -338.723, -2.74234, -44.1816, -172.838, 0.00206851, 0.000905842, -0.00516238, 0.00109876, 0.00109876, 0.00109876
882, 1,0.00159652, -0.00140711, 0.0009384, 4.16011, -88.5543, 0.00414136, 70.4457, 168.335, 0, 0.00104882, 0.00206265, 0.0040687, 4.56993, 124.873, 0, 0.00104956, 0.0011304, 0.00220268, 3.75477, 66.7787, 0, 0.00105055, 3.92499, -55.7219, -322.823, 3.28291, -38.6693, -164.95, 0.00205175, 0.000888594, -0.00496661, 0.00112335, 0.00112335, 0.00112335
883, 1,0.00152058, -0.00133896, 0.000894395, 3.56257, -84.249, 0.00402713, 67.6549, 164.821, 0, 0.00101461, 0.0019669, 0.00387542, 4.1112, 119.278, 0, 0.00101536, 0.00107498, 0.0020975, 3.06705, 64.0563, 0, 0.00101627, 3.27051, -54.1617, -306.942, 2.50273, -37.7267, -156.945, 0.00194757, 0.000833475, -0.00471651, 0.00106176, 0.00106176, 0.00106176
884, 1,0.00144767, -0.00128191, 0.000857858, 2.30587, -80.6942, 0.00346684, 28.7448, 181.542, 0, 0.000980168, 0.00187611, 0.00370184, 2.91678, 114.448, 0, 0.000981236, 0.00102284, 0.00200117, 1.98374, 61.5018, 0, 0.00098208, 0.442128, -55.6118, -288.175, 0.25739, -38.6425, -146.12, 0.00181149, 0.0007368, -0.00440539, 0.000973812, 0.000973812, 0.000973812
885, 1,0.00186907, -0.00161595, 0.00107838, 4.92232, -101.83, 0.00549371, 25.9805, 218.712, 0.0560572, 0.00108237, 0.00240505, 0.0047223, 5.33789, 144.845, 0, 0.0010838, 0.00133399, 0.00257732, 4.57301, 77.8836, 0, 0.00108497, 3.78945, -63.4097, -374.914, 3.53297, -43.9582, -193.225, 0.00236616, 0.00107935, -0.00579584, 0.00130636, 0.00130636, 0.00130636
886, 1,0.00172534, -0.00153086, 0.00102203, 2.48264, -96.317, 0.00571815, 54.6295, 198.378, 0.0509686, 0.00104833, 0.00223818, 0.00443525, 3.27988, 137.556, 0, 0.00104946, 0.00121292, 0.00239726, 1.69423, 74.5327, 0, 0.00105054, 2.6129, -57.4531, -357.829, 1.21054, -39.8915, -184.917, 0.00222481, 0.00106774, -0.00552461, 0.00120273, 0.00120273, 0.00120273
887, 1,0.00171187, -0.00145998, 0.00097663, 5.81819, -91.8018, 0.0054721, 65.5958, 189.579, 0.0382552, 0.00101437, 0.00220348, 0.00428401, 6.72972, 130.696, 0, 0.00101541, 0.00122081, 0.00233888, 4.94554, 70.7191, 0, 0.0010164, 5.7634, -56.5733, -341.278, 4.28019, -39.7772, -176.66, 0.00217936, 0.000977974, -0.00527808, 0.00120357, 0.00120357, 0.00120357
888, 1,0.0015921, -0.00139929, 0.000936176, 3.05659, -88.0765, 0.00431724, 42.0312, 200.556, 0.00996955, 0.000980258, 0.0020603, 0.00405227, 3.68866, 125.041, -2.71051E-20, 0.000981477, 0.00112625, 0.00219294, 2.59719, 67.2683, -2.71051E-20, 0.000982398, 1.72405, -58.0013, -318.847, 1.30317, -40.3639, -162.744, 0.00200468, 0.000867218, -0.00490089, 0.00108603, 0.00108603, 0.00108603
889, 1,0.0020288, -0.0017517, 0.00116896, 1.41762, -110.521, 0.00913818, 6.62741, 237.489, 0.200527, 0.00108207, 0.00261174, 0.00512225, 2.2342, 160.944, 0, 0.00108394, 0.00144818, 0.0027937, 0.94021, 88.4049, 0, 0.00108522, -3.64663, -67.8904, -411.295, -4.36937, -47.749, -213.096, 0.00246536, 0.00129728, -0.00637421, 0.00130797, 0.00130797, 0.00130797
890, 1,0.00200854, -0.00166278, 0.00111401, 10.3357, -104.619, 0.0085165, 3.24921, 239.503, 0.179696, 0.00104783, 0.00257348, 0.00496002, 11.6958, 147.658, 0, 0.00104984, 0.00144372, 0.00273816, 8.98033, 79.6062, 0, 0.001051, 10.6413, -58.8287, -394.786, 8.10713, -41.3486, -205.577, 0.0025554, 0.00124636, -0.00619773, 0.00143026, 0.00143026, 0.00143026
891, 1,0.0018651, -0.00158657, 0.00106536, 8.87162, -99.7357, 0.00765308, 2.54002, 236.007, 0.151405, 0.00101368, 0.00240738, 0.00466759, 10.3614, 138.782, 0, 0.00101564, 0.0013236, 0.00254483, 7.42881, 74.0359, 0, 0.00101671, 10.0476, -55.3295, -371.065, 7.37184, -38.4772, -191.002, 0.00239644, 0.00117673, -0.00582511, 0.00132042, 0.00132042, 0.00132042
892, 1,0.00178852, -0.00151958, 0.00101675, 2.85902, -95.7556, 0.00725694, 11.1783, 232.461, 0.1278, 0.000979761, 0.00230031, 0.00447627, 3.82115, 139.393, 0, 0.000981526, 0.00127858, 0.00245064, 2.09989, 76.6806, 0, 0.000982525, -0.804613, -61.5044, -355.871, -1.71823, -43.3323, -184.991, 0.00217636, 0.00106831, -0.00550655, 0.00116959, 0.00116959, 0.00116959
893, 1,0.00247126, -0.0019017, 0.00127146, 20.0961, -120.137, 0.0142619, -2.8585, 249.141, 0.395253, 0.00108124, 0.00311161, 0.00583794, 21.1231, 168.247, 0, 0.0010839, 0.00183123, 0.00330082, 19.1323, 89.5479, 0, 0.00108528, 18.4627, -69.395, -453.81, 17.2796, -48.6287, -237.295, 0.00305035, 0.00144952, -0.00722993, 0.00178636, 0.00178636, 0.00178636
894, 1,0.00212596, -0.00180203, 0.00121387, 7.86204, -113.355, 0.0142348, 6.07688, 268.01, 0.342588, 0.00104691, 0.0027432, 0.00535164, 9.75372, 161.395, 0, 0.0010498, 0.00151528, 0.00293962, 6.26526, 88.1361, 0, 0.00105105, 7.19871, -59.2516, -432.132, 2.89697, -41.3287, -225.977, 0.00269958, 0.00151053, -0.00682897, 0.00145512, 0.00145512, 0.00145512
895, 1,0.00209921, -0.00172509, 0.00116401, 10.2587, -108.422, 0.0133736, 3.66063, 268.415, 0.317011, 0.001013, 0.00269884, 0.00520949, 12.5254, 154.465, 0, 0.00101582, 0.00150168, 0.00289139, 8.09406, 84.553, 0, 0.00101697, 12.3522, -59.7857, -415.96, 8.08673, -42.9322, -218.814, 0.0026923, 0.00138613, -0.00658483, 0.00150142, 0.00150142, 0.00150142
896, 1,0.00222622, -0.00165871, 0.00111248, 21.6379, -104.617, 0.0119246, -2.18719, 245.108, 0.312308, 0.000979461, 0.00278904, 0.00513824, 22.8303, 145.601, 0, 0.000981868, 0.00166409, 0.00292209, 20.5158, 77.3573, 0, 0.000982956, 19.5949, -63.5019, -392.897, 18.1037, -44.9447, -205.231, 0.00270616, 0.00119373, -0.00626248, 0.00160014, 0.00160014, 0.00160014
897, 1,0.00248824, -0.00207677, 0.00139351, 9.05587, -130.672, 0.0178777, -1.76861, 254.892, 0.513643, 0.00108067, 0.00319651, 0.00621937, 11.1001, 187.668, 4.27004E-05, 0.00108365, 0.00178164, 0.00343838, 7.28167, 102.967, 4.05601E-06, 0.00108514, 6.14732, -69.7218, -499.43, 3.32306, -49.1436, -263.082, 0.00309631, 0.00176586, -0.00790742, 0.00170218, 0.00170218, 0.00170218
898, 1,0.00266674, -0.00196662, 0.00133156, 28.3502, -122.808, 0.0180996, 0.0403451, 273.671, 0.478451, 0.00104615, 0.00336246, 0.00615983, 31.7651, 169.841, 0.000535133, 0.00104961, 0.00197129, 0.00349917, 24.9496, 91.159, 0.00018896, 0.00105096, 30.58, -55.2281, -484.874, 24.0868, -37.7935, -259.77, 0.00334076, 0.0017596, -0.00785709, 0.00195553, 0.00195553, 0.00195553
899, 1,0.00250606, -0.00188446, 0.00127771, 23.7027, -118.1, 0.0173766, 0.810694, 273.238, 0.452823, 0.00101232, 0.00317652, 0.00588387, 27.3373, 164.813, 1.00859E-06, 0.00101562, 0.001836, 0.00333173, 20.1207, 89.3846, 9.58737E-07, 0.00101687, 24.7394, -54.2553, -464.924, 18.219, -37.6577, -248.715, 0.00311866, 0.00168979, -0.00748278, 0.00179318, 0.00179318, 0.00179318
900, 1,0.00222823, -0.0018244, 0.00122814, 5.3758, -114.874, 0.015567, -3.27561, 254.978, 0.433408, 0.000978883, 0.00285617, 0.00554123, 7.40904, 170.859, -2.71051E-20, 0.000981515, 0.00160347, 0.00309575, 3.74726, 96.3499, -2.71051E-20, 0.000982702, 1.32437, -71.7482, -442.153, -1.1412, -52.4943, -235.414, 0.00271853, 0.00144037, -0.00693133, 0.00149325, 0.00149325, 0.00149325
901, 1,0.00363076, -0.00232905, 0.00156414, 22.7098, -141.854, 0.0198047, -4.65447, 252.838, 0.596614, 0.00108078, 0.00442675, 0.00797853, 25.0136, 196.503, 0.0307378, 0.00108392, 0.00283685, 0.00485934, 20.66, 103.86, 0.0293867, 0.00108558, 12.0665, -56.9606, -544.614, 10.4707, -36.5294, -285.522, 0.00411877, 0.00266313, -0.010026, 0.00256807, 0.00256807, 0.00256807
902, 1,0.00316101, -0.00218272, 0.00148191, 23.8248, -133.435, 0.0199464, 0.394534, 265.258, 0.557908, 0.00104633, 0.00394164, 0.00718745, 27.8467, 187.818, 0.015055, 0.00104966, 0.00238067, 0.00422489, 19.8213, 102.27, 0.0136609, 0.00105113, 26.0521, -49.3353, -540.17, 18.4135, -32.0161, -293.209, 0.00390548, 0.00240268, -0.00938153, 0.00235272, 0.00235272, 0.00235272
903, 1,0.0029311, -0.00209157, 0.00142536, 32.2698, -128.422, 0.0191763, 3.08687, 263.365, 0.527974, 0.00101239, 0.00368194, 0.00665897, 36.5218, 173.988, 0.00639734, 0.00101566, 0.00218432, 0.00382194, 28.1576, 92.1849, 0.00516958, 0.00101701, 35.9505, -46.0978, -511.816, 27.8432, -29.6672, -274.73, 0.00366926, 0.00210086, -0.00860339, 0.00217581, 0.00217581, 0.00217581
904, 1,0.00285344, -0.00204501, 0.00138166, 28.7338, -126.845, 0.0175686, -4.93443, 251.513, 0.518776, 0.000978847, 0.00356875, 0.00648655, 31.5537, 179.315, 0.00295653, 0.000981621, 0.00213992, 0.00373058, 26.1666, 97.336, 0.00206555, 0.00098293, 18.3691, -58.3472, -497.966, 15.5627, -39.8001, -267.771, 0.00328604, 0.00188594, -0.00808644, 0.00191252, 0.00191252, 0.00191252
905, 1,0.00443255, -0.00261441, 0.0017662, 12.7311, -154.702, 0.0213558, -2.30742, 249.979, 0.652042, 0.00108122, 0.00533807, 0.009643, 16.6238, 210.168, 0.065712, 0.0010843, 0.00353182, 0.006132, 9.08754, 111.305, 0.0642785, 0.0010861, 10.4761, -48.4987, -592.482, 5.7222, -33.7786, -305.859, 0.00517678, 0.00372543, -0.0124422, 0.00342949, 0.00342949, 0.00342949
906, 1,0.00403291, -0.00244267, 0.00166278, 18.7109, -145.758, 0.0208297, 4.4524, 252.086, 0.60649, 0.00104715, 0.00491474, 0.00885146, 24.1986, 197.735, 0.0501354, 0.00105017, 0.00315209, 0.00552856, 13.2684, 105.78, 0.0488825, 0.00105178, 22.1762, -33.957, -581.425, 11.7487, -21.2577, -307.832, 0.00486678, 0.00356253, -0.0117301, 0.00311188, 0.00311188, 0.00311188
907, 1,0.00386918, -0.00235457, 0.00160875, 18.9339, -141.164, 0.0202389, 1.28603, 256.142, 0.58598, 0.00101318, 0.00472995, 0.00850447, 24.5208, 196.348, 0.0431929, 0.00101614, 0.00300978, 0.00529245, 13.4348, 106.907, 0.0419269, 0.00101765, 21.3339, -36.8583, -573.519, 11.5972, -23.4012, -308.918, 0.00464882, 0.00333235, -0.0112458, 0.0029591, 0.0029591, 0.0029591
908, 1,0.00380992, -0.00235041, 0.00159003, 19.7507, -141.558, 0.0192981, 0.033367, 245.373, 0.581966, 0.000979434, 0.00462087, 0.00835439, 22.8423, 195.773, 0.0410572, 0.000982029, 0.00300582, 0.00520753, 16.9786, 104.564, 0.0398834, 0.000983518, 17.9873, -56.0287, -549.278, 14.0677, -38.4603, -289.299, 0.00450206, 0.00280702, -0.0105602, 0.00292986, 0.00292986, 0.00292986
909, 1,0.00619681, -0.00307233, 0.00209516, 7.88979, -165.771, 0.0243301, -0.702149, 251.895, 0.744778, 0.00108211, 0.00727788, 0.0126307, 11.8893, 225.66, 0.133843, 0.0010854, 0.00512889, 0.00850038, 4.3124, 118.732, 0.126204, 0.00108745, -6.62032, -32.3908, -637.968, -8.50933, -23.8958, -323.79, 0.00662939, 0.00591103, -0.0164976, 0.00453505, 0.00453505, 0.00453505
910, 1,0.00611531, -0.00280589, 0.00190838, 17.6223, -159.967, 0.0235398, 11.446, 247.024, 0.689251, 0.00104855, 0.00702842, 0.0120493, 22.1634, 215.846, 0.119808, 0.00105145, 0.00520395, 0.00833614, 13.2012, 114.938, 0.118331, 0.0010533, -0.451814, -12.243, -634.842, -7.71485, -8.61683, -328.484, 0.00624496, 0.0060268, -0.016025, 0.00423558, 0.00423558, 0.00423558
911, 1,0.00579422, -0.00270288, 0.00183763, 15.506, -156.198, 0.0222686, 10.7843, 246.532, 0.649654, 0.00101459, 0.00666827, 0.011561, 19.4398, 214.274, 0.110405, 0.0010172, 0.00492111, 0.00799053, 11.6581, 115.44, 0.109733, 0.00101894, 3.63463, -19.8099, -626.647, -3.98846, -13.8984, -328.433, 0.0061369, 0.00553358, -0.0153755, 0.00422036, 0.00422036, 0.00422036
912, 1,0.00571537, -0.00271026, 0.00183766, 20.7561, -157.207, 0.0208311, 3.98697, 246.297, 0.621532, 0.000980611, 0.00665909, 0.0113316, 26.2198, 213.467, 0.102764, 0.000983011, 0.00477892, 0.00770023, 15.6107, 112.962, 0.102116, 0.000984714, -4.21239, -28.6769, -607.511, -5.99116, -20.4581, -312.437, 0.00567452, 0.00507963, -0.0144286, 0.00388058, 0.00388058, 0.00388058
913, 1,0.010091, -0.00396902, 0.00272401, 9.2038, -171.628, 0.0276468, -3.42214, 257.777, 0.849276, 0.00108319, 0.0115202, 0.0188546, 11.6221, 233.599, 0.283053, 0.00108693, 0.00867623, 0.0135059, 7.08458, 119.776, 0.255737, 0.00108936, -16.4356, -19.5837, -664.777, -11.5984, -14.5977, -333.133, 0.0100442, 0.0100522, -0.0245978, 0.00730346, 0.00730346, 0.00730346
914, 1,0.00968913, -0.00354366, 0.00240986, 14.3437, -174.671, 0.025943, -2.7528, 266.581, 0.765783, 0.00105015, 0.010941, 0.0170517, 17.9436, 254.745, 0.22288, 0.00105313, 0.00844363, 0.01228, 10.9205, 135.301, 0.207999, 0.00105549, -58.4302, -7.56747, -698.237, -41.4109, -6.18684, -358.306, 0.00743304, 0.00992835, -0.0220821, 0.00511993, 0.00511993, 0.00511993
915, 1,0.00897731, -0.0032962, 0.00222124, 11.7714, -173.458, 0.0242159, 0.520057, 263.979, 0.704473, 0.00101659, 0.0101122, 0.0159839, 14.9172, 255.209, 0.198676, 0.00101903, 0.00784597, 0.0115699, 8.7437, 136.533, 0.190532, 0.00102125, -52.0939, -15.6015, -697.932, -37.2375, -11.385, -360.975, 0.00721386, 0.00894761, -0.020819, 0.00509098, 0.00509098, 0.00509098
916, 1,0.00846792, -0.00328392, 0.00222823, 6.1959, -168.344, 0.0226089, -4.49695, 258.676, 0.680503, 0.00098153, 0.00960858, 0.0160248, 9.04007, 235.236, 0.214243, 0.00098392, 0.00733422, 0.0116238, 3.53209, 124.041, 0.205383, 0.00098595, -13.9739, -25.5381, -666.197, -11.0741, -19.4589, -341.59, 0.0085725, 0.00820944, -0.0211173, 0.00640794, 0.00640794, 0.00640794
917, 1,0.0132465, -0.00468363, 0.00318011, -12.2819, -188.575, 0.0341178, -30.2782, 310.045, 0.997795, 0.0010437, 0.0149133, 0.0235945, -16.8912, 288.233, 0.375851, 0.00104939, 0.0115819, 0.0172514, -7.62681, 150.016, 0.336663, 0.00105246, -72.3468, -42.1296, -750.221, -43.944, -22.6684, -383.435, 0.0114634, 0.0134788, -0.0308607, 0.0083691, 0.0083691, 0.0083691
918, 1,0.0136951, -0.00425536, 0.00289356, -9.20064, -196.918, 0.0367331, -20.294, 344.275, 0.938531, 0.00101335, 0.0152097, 0.0223291, -12.5681, 328.961, 0.318737, 0.00101867, 0.0121858, 0.0165792, -5.72389, 177.301, 0.295696, 0.00102178, -148.274, -44.5342, -794.074, -93.7114, -25.7959, -412.396, 0.0077527, 0.0136017, -0.0278474, 0.00534228, 0.00534228, 0.00534228
919, 1,0.0130877, -0.00396626, 0.00268213, -10.3253, -195.874, 0.0355202, -16.193, 344.943, 0.892026, 0.000980542, 0.0144673, 0.0212258, -13.1659, 332.962, 0.29201, 0.000985155, 0.0117142, 0.0159047, -7.35383, 182.041, 0.277229, 0.000988074, -149.839, -50.0226, -799.023, -96.3007, -31.1447, -418.678, 0.00736339, 0.0126881, -0.0265064, 0.00515563, 0.00515563, 0.00515563
920, 1,0.0119453, -0.00387836, 0.00262069, -4.54406, -183.801, 0.0306885, -20.4748, 302.008, 0.880504, 0.000946471, 0.013288, 0.020857, -6.43055, 280.237, 0.310771, 0.000950393, 0.010607, 0.015652, -2.56732, 147.264, 0.294136, 0.000952906, -66.8463, -35.502, -738.363, -40.6553, -21.3733, -379.765, 0.0099533, 0.0117969, -0.0272517, 0.00756391, 0.00756391, 0.00756391
921, 1,0.0148726, 0.0017091, 0.00116972, 366.406, 96.2048, 0.0306706, 424.972, -122.234, 0.464183, 0.00111977, 0.0165563, 0.0123878, 462.486, -184.653, 0.193619, 0.00112054, 0.0131946, 0.0101589, 270.421, -115.36, 0.193619, 0.00111913, 61.1074, 40.1846, 452.668, 49.991, 33.1388, 262.949, -0.00573591, -0.00697666, 0.0160719, -0.0045597, -0.0045597, -0.0045597
922, 1,0.0165747, 0.00191314, 0.00130513, 377.607, 107.162, 0.0319064, 418.758, -126.322, 0.493444, 0.00108455, 0.0184703, 0.0137876, 484.702, -202.439, 0.226969, 0.00108557, 0.0146828, 0.0113663, 270.569, -122.195, 0.226969, 0.00108395, 89.6604, 37.2524, 480.405, 67.7079, 31.5966, 267.281, -0.00562168, -0.0088666, 0.0182497, -0.00435348, -0.00435348, -0.00435348
923, 1,0.0161654, 0.0018703, 0.00126788, 371.234, 105.17, 0.0320698, 432.535, -133.793, 0.490438, 0.00104994, 0.0180154, 0.0134437, 476.324, -196.313, 0.219818, 0.00105062, 0.0143196, 0.0110781, 266.212, -117.48, 0.219818, 0.00104908, 77.8781, 38.6511, 472.41, 59.2364, 30.1498, 263.053, -0.00589318, -0.00829656, 0.0178207, -0.00459503, -0.00459503, -0.00459503
924, 1,0.0140499, 0.00158648, 0.00109102, 368.11, 89.9862, 0.0311504, 456.437, -142.198, 0.462627, 0.00101582, 0.0155981, 0.0116578, 457.872, -179.901, 0.175179, 0.00101595, 0.01251, 0.00959551, 278.501, -114.438, 0.175179, 0.00101475, 42.6963, 47.5062, 449.501, 36.4312, 35.79, 271.093, -0.00607775, -0.00590419, 0.0152175, -0.00492714, -0.00492714, -0.00492714
925, 1,0.0132569, 0.00171392, 0.00118086, 351.239, 95.9705, 0.0302167, 453.572, -142.613, 0.445636, 0.00108193, 0.0149111, 0.0109828, 446.827, -165.547, 0.161435, 0.0010818, 0.0116176, 0.00882107, 255.939, -97.898, 0.161435, 0.00108049, 30.3778, 25.3628, 440.901, 26.047, 17.9905, 249.657, -0.00570565, -0.00602156, 0.0146793, -0.00443515, -0.00443515, -0.00443515
926, 1,0.0147356, 0.00184794, 0.00128402, 368.135, 103.021, 0.032034, 461.733, -148.383, 0.477006, 0.00104805, 0.0165387, 0.011905, 470.934, -188.176, 0.190068, 0.00104819, 0.0129431, 0.0096221, 265.524, -115.139, 0.190068, 0.0010468, 57.8673, 45.9526, 460.71, 50.4328, 37.7894, 257.194, -0.00596862, -0.00669141, 0.0160757, -0.00458327, -0.00458327, -0.00458327
927, 1,0.014743, 0.00180288, 0.00125219, 371.183, 100.149, 0.0324901, 468.634, -154.605, 0.48384, 0.00101461, 0.0164965, 0.0118458, 471.094, -193.16, 0.190866, 0.00101468, 0.0130009, 0.00963998, 271.47, -122.023, 0.190866, 0.00101337, 61.8004, 56.5929, 461.087, 56.0565, 46.8746, 263.137, -0.00608437, -0.00644617, 0.0160384, -0.00468457, -0.00468457, -0.00468457
928, 1,0.0132541, 0.00158612, 0.0010963, 364.889, 88.1103, 0.0313775, 473.453, -159.181, 0.4627, 0.000981647, 0.014764, 0.0108078, 452.473, -172.829, 0.158107, 0.000981249, 0.0117616, 0.00882018, 277.649, -110.55, 0.158107, 0.000980162, 29.3535, 41.6965, 447.437, 28.2248, 31.9166, 271.507, -0.00601506, -0.00548209, 0.0145728, -0.00481185, -0.00481185, -0.00481185
929, 1,0.00895802, 0.00142153, 0.000995367, 329.314, 84.083, 0.0313343, 481.708, -165.367, 0.459537, 0.00108149, 0.0103306, 0.00740785, 412.644, -146.26, 0.0786533, 0.00108027, 0.00760232, 0.00551611, 246.498, -88.3779, 0.0786533, 0.00107921, 3.50804, 29.812, 405.459, 7.026, 20.3496, 237.758, -0.00425633, -0.00338951, 0.0101279, -0.00314869, -0.00314869, -0.00314869
930, 1,0.00955344, 0.00149526, 0.00106101, 337.155, 86.9176, 0.0326008, 483.549, -167.043, 0.48213, 0.00104743, 0.0110043, 0.00787138, 423.47, -155.946, 0.0912388, 0.00104633, 0.00811715, 0.00581844, 251.279, -98.1803, 0.0912388, 0.0010453, 10.905, 52.5351, 404.398, 18.7932, 41.5911, 234.157, -0.00461518, -0.00314151, 0.0104227, -0.00338417, -0.00338417, -0.00338417
931, 1,0.00959953, 0.00145955, 0.00103688, 336.1, 84.2076, 0.0326765, 484.256, -168.043, 0.483456, 0.00101385, 0.0110065, 0.0078717, 419.614, -153.751, 0.0922855, 0.00101273, 0.00820918, 0.00586887, 253.069, -97.9759, 0.0922855, 0.00101176, 8.14842, 53.425, 399.681, 16.9414, 42.2808, 234.705, -0.00469324, -0.0030646, 0.0103879, -0.00346705, -0.00346705, -0.00346705
932, 1,0.00906536, 0.0013113, 0.000916317, 339.51, 76.9938, 0.0311532, 479.431, -161.039, 0.455647, 0.000980424, 0.0103228, 0.00731314, 415.63, -148.686, 0.0775581, 0.000979461, 0.00782454, 0.0055742, 263.906, -96.1948, 0.0775581, 0.00097859, 7.26057, 28.6591, 410.138, 11.3022, 20.8276, 256.455, -0.00417249, -0.00347671, 0.0101708, -0.00313609, -0.00313609, -0.00313609
933, 1,0.0052375, 0.00115702, 0.000807366, 296.954, 71.9246, 0.0337147, 480.214, -160.904, 0.503022, 0.0010814, 0.00639034, 0.00455104, 368.456, -114.728, 0.00775661, 0.00107949, 0.00408703, 0.00295534, 225.711, -66.3868, 0.00679064, 0.00107864, -31.2488, 11.8219, 363.611, -25.7484, 4.85447, 220.054, -0.0026733, -0.00178583, 0.0063287, -0.00176664, -0.00176664, -0.00176664
934, 1,0.00534279, 0.00115571, 0.000828379, 285.265, 69.852, 0.0341019, 479.177, -159.069, 0.509576, 0.00104694, 0.0064923, 0.00489073, 354.426, -94.513, 0.0106444, 0.00104478, 0.00419673, 0.00324313, 216.523, -51.5633, 0.00985337, 0.00104405, -69.2377, 21.885, 330.892, -55.2746, 14.8957, 195.069, -0.00327589, -0.00128677, 0.00610525, -0.00228202, -0.00228202, -0.00228202
935, 1,0.00530233, 0.00110671, 0.000794005, 285.505, 67.2253, 0.033727, 477.606, -156.716, 0.502613, 0.00101308, 0.00640261, 0.00479398, 352.04, -95.3945, 0.0100708, 0.00101108, 0.00420543, 0.00321505, 219.371, -54.3107, 0.00959827, 0.0010104, -63.0116, 20.2115, 328.984, -49.1411, 13.9403, 198.133, -0.00313663, -0.00133157, 0.0060247, -0.00218094, -0.00218094, -0.00218094
936, 1,0.00548409, 0.00104002, 0.000719267, 301.046, 64.801, 0.0328528, 477.783, -157.257, 0.486842, 0.000979939, 0.00651273, 0.00463848, 365.021, -112.862, 0.011117, 0.000978313, 0.00446075, 0.00322233, 237.515, -70.9014, 0.011117, 0.000977642, -27.8109, 6.65976, 359.738, -21.7308, 4.18139, 230.254, -0.00266309, -0.00193571, 0.00644145, -0.00186768, -0.00186768, -0.00186768
937, 1,0.00401869, 0.000945004, 0.000647486, 247.244, 59.7771, 0.0343249, 475.464, -152.969, 0.514006, 0.00108146, 0.0049625, 0.00346515, 306.746, -98.6176, 0, 0.00107943, 0.00307561, 0.00217486, 187.922, -59.9656, 0, 0.00107875, -18.8406, 12.581, 302.112, -14.5317, 11.367, 183.062, -0.00194287, -0.00138207, 0.0049251, -0.00124327, -0.00124327, -0.00124327
938, 1,0.00375283, 0.000885936, 0.000623801, 232.041, 54.7715, 0.033885, 478.41, -158.469, 0.506454, 0.00104735, 0.00463762, 0.00338892, 286.292, -88.9549, 0, 0.00104511, 0.0028688, 0.0021432, 178.144, -56.2678, 0, 0.00104456, -34.9315, 35.0592, 266.737, -25.0842, 32.9023, 160.985, -0.00214007, -0.000801395, 0.00438482, -0.00141715, -0.00141715, -0.00141715
939, 1,0.00388579, 0.000843827, 0.000593254, 234.679, 52.2272, 0.0337445, 476.328, -154.947, 0.503439, 0.0010134, 0.00472807, 0.00348132, 286.362, -84.2045, 0, 0.00101125, 0.00304443, 0.00229712, 183.325, -52.9961, 0, 0.00101073, -40.1437, 24.7345, 268.023, -31.3621, 23.7681, 166.582, -0.00217799, -0.000948915, 0.00449316, -0.00150092, -0.00150092, -0.00150092
940, 1,0.00411286, 0.000843503, 0.000571955, 252.208, 52.7345, 0.0333237, 476.179, -154.48, 0.495499, 0.000979827, 0.00495169, 0.00342699, 304.239, -97.2943, 0, 0.000977981, 0.00327651, 0.00228948, 200.565, -64.5473, 0, 0.000977461, -11.0502, 2.5605, 300.373, -7.91685, 6.63356, 194.925, -0.00176391, -0.00157875, 0.00492131, -0.00118216, -0.00118216, -0.00118216
941, 1,0.0031303, 0.000772162, 0.000523037, 195.393, 48.6607, 0.0327899, 480.997, -163.396, 0.487017, 0.00108206, 0.0039014, 0.00268898, 243.721, -82.1118, 0, 0.00107956, 0.0023599, 0.00164536, 147.308, -51.5435, 0, 0.00107903, -4.81276, 11.8128, 239.335, -2.22854, 14.3945, 142.464, -0.00138609, -0.00115698, 0.00387537, -0.000850321, -0.000850321, -0.000850321
942, 1,0.00296259, 0.000698933, 0.000482052, 178.358, 43.5009, 0.0323642, 479.137, -161.308, 0.479575, 0.00104792, 0.00366127, 0.00259996, 221.444, -67.236, 0, 0.00104532, 0.00226408, 0.00163658, 135.558, -41.2195, 0, 0.00104488, -22.5788, 15.7133, 208.574, -16.9575, 16.7615, 123.855, -0.00153684, -0.000898507, 0.00352626, -0.0010084, -0.0010084, -0.0010084
943, 1,0.00301133, 0.000668621, 0.000461199, 180.399, 41.4595, 0.0320498, 483.458, -168.49, 0.474122, 0.00101407, 0.00367851, 0.00262001, 221.272, -66.4051, 0, 0.00101139, 0.00234502, 0.00170014, 139.894, -41.968, 0, 0.00101099, -20.8759, 11.9898, 208.101, -15.7856, 14.7313, 126.958, -0.00149066, -0.000968449, 0.00353653, -0.000998351, -0.000998351, -0.000998351
944, 1,0.00324157, 0.000695737, 0.000481975, 197.748, 43.0773, 0.0312696, 487.033, -174.073, 0.459471, 0.000980177, 0.00393135, 0.0027107, 239.896, -76.0627, 0, 0.000977667, 0.00255516, 0.00177043, 156.153, -50.5812, 0, 0.000977263, -6.31753, -0.954749, 235.46, -4.21051, 6.64139, 149.313, -0.00133015, -0.0013383, 0.00390258, -0.000884553, -0.000884553, -0.000884553
945, 1,0.002453, 0.000648784, 0.000443704, 147.637, 40.5835, 0.0269097, 492.649, -186.015, 0.378804, 0.0010822, 0.00310038, 0.00211658, 187.768, -57.813, 0, 0.00107908, 0.00180661, 0.0012401, 107.858, -33.0223, 0, 0.00107865, -7.94417, -2.00644, 183.39, -6.42891, 2.93051, 102.565, -0.00107154, -0.00106237, 0.00307194, -0.000649438, -0.000649438, -0.000649438
946, 1,0.00247174, 0.000597572, 0.000404055, 144.283, 37.3038, 0.0266021, 509.85, -215.385, 0.375599, 0.00104876, 0.00306812, 0.00210754, 181.121, -53.4551, 0, 0.00104504, 0.00187611, 0.00130298, 107.771, -30.8458, 0, 0.00104465, -14.2337, 2.5513, 172.048, -11.4215, 5.30581, 98.653, -0.00114278, -0.000963128, 0.00297322, -0.000727414, -0.000727414, -0.000727414
947, 1,0.00250421, 0.000582471, 0.000398117, 145.627, 36.3872, 0.0254724, 501.494, -202.441, 0.353508, 0.00101437, 0.00308448, 0.0021448, 181.482, -53.5262, 0, 0.0010111, 0.00192528, 0.00135495, 110.124, -31.3509, 0, 0.00101074, -13.6638, 1.14286, 173.1, -11.4568, 4.29729, 101.212, -0.00113605, -0.000991262, 0.00299579, -0.000740302, -0.000740302, -0.000740302
948, 1,0.00261093, 0.000609811, 0.000423447, 155.994, 37.9377, 0.0239899, 481.366, -169.293, 0.322547, 0.000979644, 0.00321434, 0.00223011, 193.065, -58.6342, 0, 0.000977298, 0.00201141, 0.00139787, 119.479, -35.7551, 0, 0.000976935, -4.88856, -8.86798, 189.659, -4.20126, -2.32166, 113.788, -0.00102819, -0.00121268, 0.00319225, -0.00065353, -0.00065353, -0.00065353
949, 1,0.00207613, 0.000579403, 0.000397134, 122.256, 36.2588, 0.0153451, 463.16, -145.384, 0.154929, 0.00108087, 0.0026543, 0.00186195, 158.228, -45.6918, 0, 0.00107888, 0.00149888, 0.00107053, 86.5076, -23.0377, 0, 0.00107849, -6.3086, -12.5335, 155.917, -6.02892, -8.38462, 83.5267, -0.000849505, -0.00104568, 0.00263657, -0.000487112, -0.000487112, -0.000487112
950, 1,0.00202175, 0.000547013, 0.000369954, 116.809, 34.2798, 0.014056, 455.588, -134.085, 0.129221, 0.00104654, 0.00256666, 0.00176613, 150.76, -43.435, 0, 0.00104483, 0.00147835, 0.00103228, 83.1122, -21.7414, 0, 0.00104446, -10.0741, -5.133, 145.512, -9.39251, -2.99975, 77.6164, -0.000896866, -0.000897453, 0.00249909, -0.000540927, -0.000540927, -0.000540927
951, 1,0.00204947, 0.000538149, 0.000366622, 118.107, 33.6558, 0.0134975, 453.683, -131.799, 0.118399, 0.00101251, 0.00258399, 0.00178939, 151.331, -42.9879, 0, 0.0010109, 0.00151745, 0.00106521, 85.2029, -21.7911, 0, 0.00101055, -11.0132, -5.86476, 145.842, -10.404, -3.28031, 79.0575, -0.000912936, -0.000900132, 0.00251059, -0.00056629, -0.00056629, -0.00056629
952, 1,0.00214835, 0.000556295, 0.00038698, 127.704, 34.519, 0.0136098, 460.932, -143.337, 0.121147, 0.000978787, 0.00269895, 0.00191055, 161.607, -47.5415, 0, 0.000977102, 0.00160157, 0.00115093, 94.2289, -26.477, 0, 0.000976768, -2.55953, -14.2632, 159.447, -2.3812, -8.59884, 90.4109, -0.000805021, -0.00110435, 0.00268079, -0.000469592, -0.000469592, -0.000469592
953, 1,0.0017417, 0.000531743, 0.000366592, 105.111, 33.048, 0.00681071, 394.759, -97.8336, 0, 0.00107989, 0.00227235, 0.00161018, 137.984, -41.7624, 0, 0.00107891, 0.00121195, 0.000880544, 72.3891, -21.1605, 0, 0.00107855, -0.217044, -11.2839, 136.788, -0.0628487, -7.19982, 70.7443, -0.000661635, -0.000921346, 0.00226063, -0.00033406, -0.00033406, -0.00033406
954, 1,0.0016443, 0.000509739, 0.000347845, 95.1193, 31.7654, 0.00637823, 352.797, -68.895, 0, 0.00104536, 0.00215075, 0.00149411, 126.577, -35.3065, 0, 0.00104479, 0.00114067, 0.000810022, 63.9375, -15.2119, 0, 0.00104444, -9.03958, -7.73654, 122.696, -8.80386, -5.19655, 59.6362, -0.00074716, -0.00077066, 0.00209071, -0.000425785, -0.000425785, -0.000425785
955, 1,0.00165986, 0.000499738, 0.000341968, 97.7649, 31.1227, 0.00648317, 363.644, -76.7737, 0, 0.00101153, 0.00215586, 0.00149366, 128.548, -37.6723, 0, 0.00101088, 0.00116701, 0.000820209, 67.2793, -18.0438, 0, 0.00101056, -5.91776, -5.69705, 124.632, -5.72887, -2.94681, 62.8071, -0.000719922, -0.000764432, 0.00209563, -0.000406822, -0.000406822, -0.000406822
956, 1,0.0018412, 0.000507991, 0.000354285, 111.161, 31.4041, 0.00696035, 411.471, -110.783, 0, 0.000978159, 0.00234674, 0.00165078, 142.289, -43.2278, 0, 0.000977087, 0.0013375, 0.000949129, 80.2435, -24.0331, 0, 0.000976783, -0.447043, -11.3016, 141.432, -0.3952, -6.13141, 78.6258, -0.000691502, -0.000946918, 0.00233985, -0.000388148, -0.000388148, -0.000388148
957, 1,0.00154309, 0.000487589, 0.00033815, 94.3551, 30.1963, 0.00489819, 302.422, -95.2658, 0, 0.00107999, 0.00203039, 0.00141748, 124.473, -38.7775, 0, 0.001079, 0.00105606, 0.000742019, 64.3099, -20.1032, 0, 0.00107867, 0.568955, -8.21751, 123.981, 0.652227, -3.95306, 63.6105, -0.000598549, -0.000798949, 0.00202672, -0.000302782, -0.000302782, -0.000302782
958, 1,0.00147802, 0.000467332, 0.000319312, 90.6335, 29.1084, 0.00437873, 265.068, -77.9983, 0, 0.00104566, 0.00194474, 0.00132708, 119.653, -38.5894, 0, 0.00104499, 0.00101185, 0.000690803, 61.7004, -20.1553, 0, 0.00104468, -0.119464, -2.02421, 117.912, 0.00513953, 0.448041, 60.0126, -0.000610414, -0.000683144, 0.00191972, -0.000317516, -0.000317516, -0.000317516
959, 1,0.00153419, 0.00045985, 0.000315305, 93.9572, 28.6245, 0.0045717, 276.182, -80.6675, 0, 0.00101174, 0.00199274, 0.001363, 122.439, -39.3784, 0, 0.00101106, 0.00107675, 0.000737504, 65.6025, -21.3108, 0, 0.00101076, -0.379484, -1.94326, 120.458, -0.347007, 0.788055, 63.4913, -0.00062894, -0.000696056, 0.00196396, -0.000343729, -0.000343729, -0.000343729
960, 1,0.00170846, 0.00047121, 0.000331058, 104.669, 29.0126, 0.00529816, 327.06, -102.966, 0, 0.00097816, 0.00217728, 0.00152253, 133.438, -41.928, 0, 0.000977192, 0.00124146, 0.000867024, 76.0923, -24.3906, 0, 0.000976914, 1.49139, -8.55362, 132.846, 1.48747, -3.14813, 74.8324, -0.000629381, -0.000862944, 0.00217267, -0.000353305, -0.000353305, -0.000353305
961, 1,0.0014182, 0.0004508, 0.00031594, 86.0991, 27.7576, 0.00357097, 212.972, -59.3188, 0, 0.00107956, 0.00186852, 0.00131874, 113.773, -34.5994, 0, 0.00107913, 0.000968324, 0.000688272, 58.5035, -17.7222, 0, 0.00107883, 0.248617, -9.95796, 113.508, 0.283784, -5.11019, 57.9929, -0.000539683, -0.000765805, 0.00186691, -0.00027321, -0.00027321, -0.00027321
962, 1,0.00139667, 0.0004324, 0.000298013, 85.5865, 26.817, 0.00319344, 191.258, -54.0919, 0, 0.00104547, 0.00182808, 0.00126093, 112.294, -35.6459, 0, 0.00104516, 0.000966135, 0.000667713, 58.9794, -18.8814, 0, 0.00104487, 0.299002, -4.3358, 110.975, 0.371112, -1.22088, 57.494, -0.000555309, -0.000675413, 0.00180913, -0.000289805, -0.000289805, -0.000289805
963, 1,0.00143589, 0.000426365, 0.000294578, 87.9742, 26.4237, 0.00336084, 201.399, -57.087, 0, 0.00101154, 0.0018605, 0.00128314, 114.234, -36.2715, 0, 0.0010112, 0.00101276, 0.000698966, 61.8567, -19.8141, 0, 0.00101093, 0.294547, -4.11068, 112.631, 0.318245, -0.810829, 59.9348, -0.000565491, -0.000682876, 0.00183693, -0.000305825, -0.000305825, -0.000305825
964, 1,0.00157149, 0.000438954, 0.000311492, 95.4619, 26.8685, 0.00401825, 241.514, -69.2892, 0, 0.000977768, 0.00200761, 0.00141612, 122.076, -37.2692, 0, 0.00097726, 0.00113758, 0.000801025, 69.0506, -21.32, 0, 0.000977007, 0.41959, -10.2767, 121.665, 0.423763, -4.4337, 67.97, -0.000578418, -0.000821382, 0.00200455, -0.000327183, -0.000327183, -0.000327183
965, 1,0.00129633, 0.000415129, 0.000294894, 78.4139, 25.3665, 0.00271894, 159.972, -42.2253, 0, 0.00107948, 0.00171076, 0.00121975, 103.687, -30.8133, 0, 0.00107928, 0.00088256, 0.000632021, 53.2299, -15.7754, 0, 0.00107902, 0.0699937, -11.2151, 103.585, 0.120227, -5.67041, 52.8764, -0.000483886, -0.000726612, 0.00171049, -0.000246044, -0.000246044, -0.000246044
966, 1,0.00128366, 0.000396326, 0.000276086, 78.6582, 24.439, 0.0024879, 147.834, -40.5736, 0, 0.00104542, 0.00167877, 0.00116738, 102.976, -32.1731, 0, 0.00104528, 0.000889625, 0.000618699, 54.4506, -17.1898, 0, 0.00104503, 0.300414, -5.85653, 102.075, 0.392851, -2.07438, 53.2509, -0.000500552, -0.000643916, 0.00166653, -0.000262665, -0.000262665, -0.000262665
967, 1,0.00132613, 0.000391743, 0.000273294, 81.269, 24.1468, 0.00264224, 157.629, -43.9351, 0, 0.00101147, 0.0017159, 0.00119101, 105.243, -32.9568, 0, 0.00101129, 0.000938008, 0.000650016, 57.4431, -18.1932, 0, 0.00101105, 0.272743, -5.4747, 104.072, 0.328759, -1.59565, 55.8464, -0.000513611, -0.000650824, 0.00169921, -0.000279944, -0.000279944, -0.000279944
968, 1,0.00145106, 0.000408205, 0.000293227, 87.788, 24.8104, 0.00314415, 187.581, -52.3407, 0, 0.000977627, 0.00185601, 0.00132239, 112.331, -33.5791, 0, 0.000977329, 0.00104866, 0.000744996, 63.4586, -19.2015, 0, 0.000977101, 0.289369, -11.6534, 112.101, 0.315712, -5.30162, 62.5904, -0.000522882, -0.000786921, 0.00185468, -0.000295932, -0.000295932, -0.000295932
969, 1,0.00117856, 0.000379756, 0.00027414, 70.7662, 23.0039, 0.00231687, 136.665, -36.4624, 0, 0.0010796, 0.00155753, 0.0011289, 93.6738, -26.8939, 0, 0.00107943, 0.000800319, 0.000582919, 47.9501, -13.686, 0, 0.0010792, 0.012271, -13.0004, 93.6698, 0.0704608, -6.79215, 47.7797, -0.000423339, -0.000697365, 0.0015571, -0.000214141, -0.000214141, -0.000214141
970, 1,0.00116519, 0.000360069, 0.000254034, 70.987, 22.0618, 0.00218556, 131.723, -38.159, 0, 0.00104557, 0.00152395, 0.00107364, 92.9216, -28.2276, 0, 0.0010454, 0.000807605, 0.000569355, 49.1674, -15.0171, 0, 0.00104518, 0.0981374, -7.84337, 92.428, 0.188512, -3.44586, 48.3085, -0.000442663, -0.000617566, 0.00151826, -0.000232737, -0.000232737, -0.000232737
971, 1,0.0012129, 0.000357209, 0.00025219, 74.0234, 21.8863, 0.00234249, 142.277, -42.3778, 0, 0.0010116, 0.001568, 0.0011009, 95.7294, -29.3243, 0, 0.00101139, 0.00085955, 0.000602482, 52.4705, -16.2393, 0, 0.00101117, 0.248646, -7.2657, 94.9899, 0.303382, -2.8294, 51.244, -0.000456834, -0.000625749, 0.00155842, -0.000249639, -0.000249639, -0.000249639
972, 1,0.00134581, 0.000378181, 0.000275568, 80.8469, 22.8068, 0.00276389, 166.784, -48.5589, 0, 0.000977702, 0.00172056, 0.0012412, 103.382, -30.0342, 0, 0.000977408, 0.000973747, 0.000699613, 58.5292, -17.2035, 0, 0.000977205, 0.0493949, -13.2557, 103.309, 0.0817597, -6.4022, 57.931, -0.000472078, -0.000760923, 0.00172036, -0.000269369, -0.000269369, -0.000269369
973, 1,0.00106702, 0.000345108, 0.000254157, 63.2901, 20.677, 0.00205305, 120.142, -31.0278, 0, 0.0010797, 0.00141137, 0.00104556, 83.8752, -22.9356, 0, 0.00107956, 0.000723371, 0.000539463, 42.7923, -11.5619, 0, 0.00107936, -0.0470189, -14.9504, 83.8042, 0.0164235, -8.09246, 42.7617, -0.000362174, -0.000672669, 0.001407, -0.000181747, -0.000181747, -0.000181747
974, 1,0.00104855, 0.000324203, 0.000232427, 63.3099, 19.7023, 0.00199074, 120.075, -34.8977, 0, 0.00104568, 0.00137149, 0.000982669, 82.8889, -24.3418, 0, 0.0010455, 0.000726741, 0.000521469, 43.8422, -12.9056, 0, 0.00104531, 0.0244581, -9.72889, 82.7298, 0.105253, -4.74342, 43.3548, -0.000382973, -0.000592492, 0.00137045, -0.000201192, -0.000201192, -0.000201192
975, 1,0.00109756, 0.000323138, 0.000231606, 66.4082, 19.6471, 0.00215734, 131.497, -39.6678, 0, 0.0010117, 0.00141859, 0.00101099, 85.8757, -25.503, 0, 0.00101146, 0.000778295, 0.000553743, 47.093, -14.0972, 0, 0.00101128, 0.0969428, -9.1033, 85.5154, 0.142426, -4.12276, 46.272, -0.000399842, -0.000601029, 0.0014147, -0.000219291, -0.000219291, -0.000219291
976, 1,0.00124146, 0.000349015, 0.000258782, 73.8879, 20.8466, 0.00253806, 153.355, -44.8616, 0, 0.000977763, 0.00158691, 0.00116395, 94.458, -26.5099, 0, 0.000977472, 0.000898802, 0.000656307, 53.539, -15.2267, 0, 0.000977293, 0.0460203, -14.9631, 94.4467, 0.0811159, -7.59042, 53.1893, -0.000416657, -0.000738867, 0.00158569, -0.000238266, -0.000238266, -0.000238266
977, 1,0.000961887, 0.000311743, 0.000235495, 56.1008, 18.4099, 0.00182072, 104.548, -24.8303, 0, 0.0010798, 0.00127294, 0.0009698, 74.4255, -19.0119, 0, 0.0010797, 0.000651487, 0.000500845, 37.857, -9.47608, 0, 0.00107953, -0.0714577, -16.9127, 74.0199, -0.00329462, -9.41368, 37.8452, -0.000300837, -0.000649442, 0.00125877, -0.000149252, -0.000149252, -0.000149252
978, 1,0.000935, 0.000289421, 0.00021189, 55.721, 17.3932, 0.00178989, 106.662, -29.6319, 0, 0.00104578, 0.00122324, 0.000896346, 72.9987, -20.4529, 0, 0.00104562, 0.000647804, 0.000475966, 38.5474, -10.7875, 0, 0.00104546, -0.0147208, -11.6163, 72.9896, 0.0544272, -6.05708, 38.3651, -0.000322502, -0.000568235, 0.00122261, -0.000168856, -0.000168856, -0.000168856
979, 1,0.000985274, 0.000290012, 0.000211961, 58.9522, 17.4519, 0.00196733, 118.962, -34.8919, 0, 0.00101177, 0.00127323, 0.000925311, 76.2302, -21.7743, 0, 0.00101156, 0.000699027, 0.000507197, 41.8218, -12.0439, 0, 0.0010114, 0.09623, -10.8896, 76.1164, 0.128243, -5.3775, 41.3808, -0.000341121, -0.00057739, 0.00127183, -0.00018724, -0.00018724, -0.00018724
980, 1,0.00114202, 0.000320767, 0.00024294, 67.1516, 18.9285, 0.00233833, 140.374, -40.097, 0, 0.00097781, 0.00145915, 0.00109195, 85.8026, -23.0178, 0, 0.000977539, 0.000827741, 0.000616197, 48.7226, -13.2847, 0, 0.000977385, 0.0279871, -16.676, 85.7016, 0.0642558, -8.79158, 48.5814, -0.000362045, -0.000717877, 0.00145343, -0.000208042, -0.000208042, -0.000208042
981, 1,0.000863431, 0.000280178, 0.000218666, 49.2185, 16.2272, 0.00162068, 90.5968, -18.7897, 0, 0.00107989, 0.00114299, 0.000902602, 65.3675, -15.0828, 0, 0.00107983, 0.000584451, 0.000467089, 33.1432, -7.38906, 0, 0.00107969, -0.0976789, -18.9018, 64.2479, -0.024387, -10.769, 32.9605, -0.000239464, -0.000626595, 0.00111079, -0.000116779, -0.000116779, -0.000116779
982, 1,0.000827158, 0.000256246, 0.000192944, 48.4206, 15.1596, 0.0015892, 93.0021, -24.0229, 0, 0.00104585, 0.00108233, 0.000817256, 63.474, -16.5995, 0, 0.00104573, 0.000572937, 0.000434464, 33.4626, -8.70428, 0, 0.00104559, -0.0101987, -13.5093, 63.3181, 0.0494885, -7.38264, 33.446, -0.000261671, -0.00054458, 0.0010756, -0.000136102, -0.000136102, -0.000136102
983, 1,0.00087786, 0.000258313, 0.000193725, 51.7319, 15.3231, 0.00177246, 105.905, -29.7218, 0, 0.00101184, 0.00113418, 0.000845785, 66.8881, -18.0603, 0, 0.00101165, 0.00062319, 0.000463954, 36.7172, -10.0042, 0, 0.00101152, 0.0991046, -12.7036, 66.7853, 0.119764, -6.66433, 36.5571, -0.000282538, -0.000554437, 0.00113003, -0.000155268, -0.000155268, -0.000155268
984, 1,0.00104607, 0.000293755, 0.000228366, 60.5777, 17.0672, 0.00215552, 128.188, -35.3271, 0, 0.000977863, 0.00133612, 0.00102489, 77.3669, -19.5147, 0, 0.000977612, 0.000758915, 0.000578463, 44.0114, -11.3356, 0, 0.000977482, 0.0113275, -18.423, 76.9558, 0.0489787, -10.0315, 43.9894, -0.00030721, -0.000697131, 0.001321, -0.000177655, -0.000177655, -0.000177655
985, 1,0.000773462, 0.000251, 0.000204253, 42.7361, 14.1569, 0.0014472, 77.9385, -12.7984, 0, 0.00107999, 0.00102391, 0.00084634, 56.8216, -11.1547, 0, 0.00107996, 0.000523518, 0.000439438, 28.7176, -5.30682, 0, 0.00107986, -0.117598, -20.8939, 54.4756, -0.0388191, -12.1388, 28.0981, -0.000177976, -0.000603686, 0.000962657, -8.42433E-05, -8.42433E-05, -8.42433E-05
986, 1,0.00072709, 0.00022531, 0.000176216, 41.4942, 13.032, 0.00139769, 79.7077, -18.3211, 0, 0.00104593, 0.000951428, 0.000747995, 54.4292, -12.757, 0, 0.00104584, 0.000503611, 0.000398364, 28.6462, -6.63112, 0, 0.00104573, -0.00730792, -15.413, 53.6915, 0.0457389, -8.72559, 28.5732, -0.000201046, -0.000521166, 0.000929212, -0.000103481, -0.000103481, -0.000103481
987, 1,0.000776668, 0.000228553, 0.000177409, 44.8157, 13.2857, 0.0015789, 92.7919, -24.3922, 0, 0.0010119, 0.0010033, 0.000774261, 57.9418, -14.3596, 0, 0.00101173, 0.00055164, 0.000424881, 31.8249, -7.97709, 0, 0.00101163, 0.105385, -14.5255, 57.4988, 0.117795, -7.96518, 31.7787, -0.000224083, -0.000531668, 0.00098876, -0.000123344, -0.000123344, -0.000123344
988, 1,0.000954933, 0.000268301, 0.000215382, 54.2388, 15.2774, 0.00197949, 116.232, -30.4363, 0, 0.000977917, 0.00121948, 0.00096424, 69.2386, -16.0132, 0, 0.000977688, 0.000693333, 0.000543928, 39.4623, -9.39267, 0, 0.000977583, -0.00214144, -20.1755, 68.2171, 0.0377317, -11.2867, 39.427, -0.000252321, -0.000676244, 0.00118841, -0.000147264, -0.000147264, -0.000147264
989, 1,0.000694119, 0.000224884, 0.000192934, 36.7486, 12.2313, 0.00130138, 66.6795, -6.93061, 0, 0.00108009, 0.000918513, 0.000803842, 48.9137, -7.22033, 0, 0.00108009, 0.000470176, 0.000419407, 24.6451, -3.22239, 0, 0.00108002, -0.139123, -22.8804, 44.6805, -0.0544065, -13.5175, 23.2391, -0.000116425, -0.000580445, 0.000814025, -5.16975E-05, -5.16975E-05, -5.16975E-05
990, 1,0.000637312, 0.000197377, 0.000162474, 35.0594, 11.0474, 0.00122459, 67.3295, -12.6819, 0, 0.00104602, 0.000833801, 0.000691841, 46.0176, -8.92308, 0, 0.00104596, 0.000441603, 0.000369447, 24.1809, -4.56623, 0, 0.00104589, -0.00845375, -17.315, 44.0927, 0.041015, -10.0758, 23.7335, -0.000140639, -0.000497718, 0.000783146, -7.10085E-05, -7.10085E-05, -7.10085E-05
991, 1,0.000683894, 0.000201373, 0.000163652, 38.305, 11.3705, 0.00139456, 80.1107, -19.0583, 0, 0.00101197, 0.0008834, 0.000713542, 49.5228, -10.6679, 0, 0.00101183, 0.000485944, 0.000391519, 27.2169, -5.95858, 0, 0.00101176, 0.106546, -16.3475, 48.2446, 0.114025, -9.27543, 27.0371, -0.000165871, -0.000508878, 0.000847855, -9.15864E-05, -9.15864E-05, -9.15864E-05
992, 1,0.000869789, 0.000244806, 0.000204387, 48.1844, 13.5785, 0.00180945, 104.503, -25.4725, 0, 0.000977978, 0.0011108, 0.000911641, 61.4863, -12.5051, 0, 0.000977772, 0.000631774, 0.000513451, 35.1062, -7.44737, 0, 0.000977691, -0.0172226, -21.9287, 59.4611, 0.0256896, -12.5555, 34.8719, -0.000197356, -0.000655024, 0.0010553, -0.000116847, -0.000116847, -0.000116847
993, 1,0.000627587, 0.000202527, 0.000185402, 31.3578, 10.4836, 0.00118438, 56.8494, -1.1525, 0, 0.00108017, 0.000829654, 0.000777974, 41.7779, -3.28109, 0, 0.00108021, 0.000425938, 0.000408506, 20.9959, -1.13696, 0, 0.00108017, -0.16047, -24.8427, 34.8465, -0.06964, -14.8912, 18.3718, -5.47918E-05, -0.000556559, 0.000664587, -1.9127E-05, -1.9127E-05, -1.9127E-05
994, 1,0.000560736, 0.000173333, 0.000152605, 29.2517, 9.24827, 0.00107676, 56.1847, -7.09482, 0, 0.00104609, 0.000733235, 0.000652583, 38.416, -5.09641, 0, 0.00104606, 0.000388963, 0.000349765, 20.1618, -2.50833, 0, 0.00104601, -0.0149405, -19.2008, 34.505, 0.0336818, -11.4228, 18.9141, -8.04583E-05, -0.000473962, 0.000637116, -3.86997E-05, -3.86997E-05, -3.86997E-05
995, 1,0.000602053, 0.000177529, 0.000153214, 32.3177, 9.61409, 0.00122585, 68.1508, -13.7012, 0, 0.00101203, 0.000777759, 0.000666912, 41.7849, -6.98339, 0, 0.00101191, 0.000427869, 0.000365645, 22.9757, -3.94703, 0, 0.00101186, 0.101513, -18.1566, 39.0053, 0.107245, -10.585, 22.3189, -0.000107902, -0.000485806, 0.000707027, -5.99987E-05, -5.99987E-05, -5.99987E-05
996, 1,0.00079218, 0.000223698, 0.000195808, 42.4892, 11.9912, 0.00164719, 93.0536, -20.3908, 0, 0.000978012, 0.00101206, 0.000869045, 54.2056, -8.99298, 0, 0.000977831, 0.000575345, 0.000488111, 30.9966, -5.5021, 0, 0.000977776, -0.0330256, -23.6663, 50.6783, 0.0136537, -13.8247, 30.3174, -0.00014234, -0.000633223, 0.000921496, -8.64261E-05, -8.64261E-05, -8.64261E-05
997, 1,0.000575566, 0.000184528, 0.000182263, 26.6422, 8.9424, 0.00109672, 48.4692, 4.54121, 0, 0.00108027, 0.000759628, 0.000771039, 35.5205, 0.664399, 0, 0.00108033, 0.000391918, 0.000407859, 17.8218, 0.950443, 0, 0.00108033, -0.182242, -26.766, 24.955, -0.0850038, -16.2486, 13.4823, 6.93187E-06, -0.000531725, 0.000514008, 1.34734E-05, 1.34734E-05, 1.34734E-05
998, 1,0.000500035, 0.000154037, 0.00014747, 24.1966, 7.67587, 0.000959337, 46.5097, -1.55185, 0, 0.00104617, 0.000653248, 0.000633752, 31.79, -1.27622, 0, 0.00104616, 0.000347533, 0.00034117, 16.6754, -0.456769, 0, 0.00104615, -0.0265179, -21.055, 24.9102, 0.023851, -12.7547, 14.1012, -2.04869E-05, -0.000449594, 0.000490789, -6.54251E-06, -6.54251E-06, -6.54251E-06
999, 1,0.000533812, 0.000157802, 0.000146876, 26.9811, 8.05405, 0.00107881, 57.1932, -8.31578, 0, 0.00101209, 0.000689819, 0.000637813, 34.8924, -3.3064, 0, 0.00101201, 0.000379311, 0.000349153, 19.1918, -1.94257, 0, 0.00101199, 0.0908599, -19.9371, 29.7654, 0.0977798, -11.882, 17.6119, -5.01677E-05, -0.000462158, 0.000565981, -2.85778E-05, -2.85778E-05, -2.85778E-05
1000, 1,0.000723655, 0.000205395, 0.000190064, 37.2259, 10.5359, 0.00149607, 82.0387, -15.1877, 0, 0.000978065, 0.000925227, 0.000838436, 47.4898, -5.47573, 0, 0.000977911, 0.000525161, 0.000469032, 27.1858, -3.55575, 0, 0.00097788, -0.0503367, -25.3757, 41.8532, 0.00092701, -15.0848, 25.7511, -8.72722E-05, -0.000610597, 0.000786729, -5.59997E-05, -5.59997E-05, -5.59997E-05
1001, 1,0.000538822, -0.000196499, 0.000183871, 22.6388, -9.99135, 0.00103732, 41.4828, 10.1569, 0, 0.00108035, 0.000709551, 0.00078416, 30.1946, 4.61635, 0, 0.00108045, 0.000368546, 0.000417899, 15.1438, 3.03997, 0, 0.00108047, -0.203817, -28.6325, 14.9873, -0.100085, -17.5763, 8.55649, 6.87623E-05, -0.000505597, 0.000361925, 4.61145E-05, 4.61145E-05, 4.61145E-05
1002, 1,0.000456844, -0.000155224, 0.000147644, 19.9711, -7.78058, 0.000875049, 38.4286, 3.95313, 0, 0.00104624, 0.00059604, 0.000637559, 26.2435, 2.5379, 0, 0.00104626, 0.00031839, 0.000344748, 13.7728, 1.58876, 0, 0.00104628, -0.042691, -22.8614, 15.2904, 0.0118746, -14.059, 9.28084, 3.92914E-05, -0.0004243, 0.000343828, 2.54746E-05, 2.54746E-05, 2.54746E-05
1003, 1,0.000481342, -0.00014769, 0.000145244, 22.3979, -7.18023, 0.000959104, 47.5025, -2.89766, 0, 0.00101216, 0.000622352, 0.00062903, 28.977, 0.363931, 0, 0.00101211, 0.000341837, 0.000343622, 15.9396, 0.0554433, 0, 0.00101211, 0.0746169, -21.674, 20.5076, 0.0856288, -13.1545, 12.9026, 7.34371E-06, -0.000437646, 0.000424401, 2.68573E-06, 2.68573E-06, 2.68573E-06
1004, 1,0.000665673, 0.000190253, 0.00018751, 32.4642, 9.23, 0.00136023, 71.6553, -9.8649, 0, 0.000978115, 0.000852128, 0.000821634, 41.426, -1.95375, 0, 0.000977989, 0.000482311, 0.000457302, 23.7255, -1.60862, 0, 0.000977983, -0.0687281, -27.0418, 32.9718, -0.0121279, -16.3236, 21.1616, -3.21509E-05, -0.000586879, 0.00065074, -2.55656E-05, -2.55656E-05, -2.55656E-05
1005, 1,0.000516992, -0.000217791, 0.000190233, 19.3313, -11.6973, 0.00100362, 35.7649, 15.7005, 0, 0.00108044, 0.000679058, 0.000816991, 25.7839, 8.57594, 0, 0.00108057, 0.000355453, 0.000438271, 12.9461, 5.1324, 0, 0.00108063, -0.225272, -30.4253, 4.92278, -0.114892, -18.8613, 3.57905, 0.000130716, -0.000477827, 0.000207952, 7.88076E-05, 7.88076E-05, 7.88076E-05
1006, 1,0.000431098, -0.000174898, 0.000153183, 16.5722, -9.37181, 0.000823428, 31.9176, 9.42255, 0, 0.00104632, 0.0005616, 0.000664005, 21.776, 6.3468, 0, 0.00104637, 0.000301413, 0.000360386, 11.4482, 3.62888, 0, 0.00104642, -0.0633317, -24.6037, 5.6266, -0.00215171, -15.323, 4.4385, 9.88927E-05, -0.000397754, 0.000195876, 5.73631E-05, 5.73631E-05, 5.73631E-05
1007, 1,0.000445599, -0.000164342, 0.000148539, 18.6131, -8.58967, 0.000870843, 39.2744, 2.55077, 0, 0.00101223, 0.000576533, 0.000641746, 24.0939, 4.02771, 0, 0.0010122, 0.000316188, 0.000349796, 13.254, 2.04715, 0, 0.00101223, 0.0533419, -23.3512, 11.2147, 0.0711969, -14.3899, 8.1773, 6.46453E-05, -0.00041196, 0.000281964, 3.38018E-05, 3.38018E-05, 3.38018E-05
1008, 1,0.000619336, -0.000198236, 0.000188364, 28.2558, -9.93546, 0.00124398, 62.1131, -4.42972, 0, 0.000978174, 0.000794089, 0.000819961, 36.0768, 1.57275, 0, 0.000978078, 0.000447665, 0.000453793, 20.6566, 0.339358, 0, 0.000978098, -0.0880048, -28.6495, 24.0192, -0.0254311, -17.5293, 16.5366, 2.30244E-05, -0.0005618, 0.000513263, 4.87841E-06, 4.87841E-06, 4.87841E-06
1009, 1,0.00050877, -0.000243546, 0.00020102, 16.66, -13.6173, 0.000992224, 31.1485, 21.1802, 0, 0.00108052, 0.000666518, 0.000867912, 22.2128, 12.544, 0, 0.00108067, 0.000351661, 0.000468002, 11.1839, 7.22832, 0, 0.00108076, -0.246436, -32.1269, -5.25869, -0.129305, -20.0901, -1.46554, 0.000192809, -0.00044806, 5.17048E-05, 0.000111564, 0.000111564, 0.000111564
1010, 1,0.000421109, -0.000199452, 0.00016361, 13.9206, -11.196, 0.000801045, 26.815, 14.8558, 0, 0.00104639, 0.000547773, 0.000710945, 18.2857, 10.151, 0, 0.00104647, 0.000295376, 0.000386864, 9.6439, 5.66398, 0, 0.00104655, -0.0881772, -26.2645, -4.10034, -0.018033, -16.5333, -0.440578, 0.000158329, -0.000369619, 4.65769E-05, 8.91322E-05, 8.91322E-05, 8.91322E-05
1011, 1,0.000425947, -0.000185651, 0.000156506, 15.5951, -10.222, 0.000815059, 32.562, 8.02397, 0, 0.00101229, 0.00055147, 0.000675077, 20.1994, 7.68552, 0, 0.0010123, 0.000301982, 0.000367301, 11.1153, 4.03305, 0, 0.00101236, 0.0273434, -24.9526, 1.86866, 0.0546139, -15.5757, 3.42191, 0.000121752, -0.000384799, 0.000138342, 6.47806E-05, 6.47806E-05, 6.47806E-05
1012, 1,0.000585161, -0.000215175, 0.000192662, 24.6241, -11.3248, 0.00115104, 53.5931, 1.10962, 0, 0.000978221, 0.000751659, 0.000833968, 31.4671, 5.10374, 0, 0.000978158, 0.000421706, 0.000458989, 18.0006, 2.28825, 0, 0.000978202, -0.108002, -30.1836, 14.9804, -0.038833, -18.6894, 11.8634, 7.82563E-05, -0.000535086, 0.00037402, 3.53363E-05, 3.53363E-05, 3.53363E-05
1013, 1,0.000512327, -0.000273218, 0.000215683, 14.54, -15.7254, 0.000999563, 27.4569, 26.6067, 0, 0.0010806, 0.00066956, 0.000934564, 19.371, 16.5214, 0, 0.00108078, 0.000355873, 0.000505808, 9.79717, 9.3283, 0, 0.0010809, -0.267072, -33.7197, -15.5773, -0.143121, -21.2489, -6.59291, 0.000255059, -0.00041594, -0.000107202, 0.000144398, 0.000144398, 0.000144398
1014, 1,0.000424293, -0.000228087, 0.000178129, 11.8942, -13.2149, 0.000802785, 22.8825, 20.2486, 0, 0.00104647, 0.000551192, 0.000775018, 15.6137, 13.9511, 0, 0.00104658, 0.000298464, 0.000422374, 8.27396, 7.69456, 0, 0.00104669, -0.117243, -27.8269, -13.9093, -0.0357712, -17.6767, -5.37125, 0.000217612, -0.000339566, -0.000104421, 0.00012079, 0.00012079, 0.00012079
1015, 1,0.000420468, -0.000211009, 0.000168534, 13.2513, -12.0481, 0.000789274, 27.2568, 13.5108, 0, 0.00101237, 0.000544634, 0.000726504, 17.1717, 11.3378, 0, 0.0010124, 0.000297912, 0.000394838, 9.46002, 6.01338, 0, 0.00101249, -0.00297561, -26.4617, -7.54869, 0.0362029, -16.6984, -1.37796, 0.00017868, -0.000355848, -6.79992E-06, 9.56324E-05, 9.56324E-05, 9.56324E-05
1016, 1,0.00056297, -0.000235429, 0.000200251, 21.5593, -12.8739, 0.00108367, 46.2118, 6.74139, 0, 0.000978292, 0.000724501, 0.000863308, 27.5798, 8.63833, 0, 0.000978262, 0.000404423, 0.000472876, 15.7557, 4.23776, 0, 0.000978332, -0.127883, -31.6268, 5.83973, -0.0519141, -19.7903, 7.12894, 0.000133548, -0.000506431, 0.000232719, 6.58118E-05, 6.58118E-05, 6.58118E-05
1017, 1,0.000525725, -0.000306181, 0.000233597, 12.8805, -17.9914, 0.00102271, 24.5505, 31.9818, 0, 0.00108067, 0.000685632, 0.00101441, 17.1385, 20.509, 0, 0.00108087, 0.000366756, 0.000550366, 8.72337, 11.4333, 0, 0.00108103, -0.287029, -35.186, -26.054, -0.156377, -22.324, -11.8195, 0.000317486, -0.000381108, -0.000269167, 0.000177322, 0.000177322, 0.000177322
1018, 1,0.000437942, -0.000259948, 0.000195883, 10.3656, -15.3874, 0.000823259, 19.8796, 25.5813, 0, 0.00104654, 0.000568307, 0.000852683, 13.5924, 17.7478, 0, 0.00104668, 0.000308799, 0.000465045, 7.25004, 9.72108, 0, 0.00104681, -0.150483, -29.2735, -23.8194, -0.0552635, -18.7394, -10.3686, 0.00027675, -0.000307257, -0.000257474, 0.000152346, 0.000152346, 0.000152346
1019, 1,0.000426666, -0.000239663, 0.00018387, 11.4622, -14.0315, 0.000788635, 23.1511, 18.982, 0, 0.00101243, 0.000552778, 0.00079279, 14.8556, 14.9853, 0, 0.0010125, 0.000302225, 0.00043066, 8.20396, 7.98897, 0, 0.00101261, -0.037985, -27.8623, -17.0557, 0.0156142, -17.7455, -6.23707, 0.000235431, -0.000324793, -0.000153793, 0.000126362, 0.000126362, 0.000126362
1020, 1,0.000551977, -0.000258706, 0.00021084, 19.0222, -14.5689, 0.00104247, 40.017, 12.4403, 0, 0.000978355, 0.00071152, 0.000906894, 24.3608, 12.1765, 0, 0.00097836, 0.000395341, 0.000494986, 13.8976, 6.18797, 0, 0.000978455, -0.14672, -32.961, -3.42175, -0.0640515, -20.818, 2.3181, 0.000188918, -0.000475489, 8.89949E-05, 9.63182E-05, 9.63182E-05, 9.63182E-05
1021, 1,0.000547226, -0.000341852, 0.000254176, 11.6002, -20.3877, 0.00105905, 22.2919, 37.3247, 0, 0.00108074, 0.00071242, 0.00110515, 15.4065, 24.5073, 0, 0.00108097, 0.000383137, 0.000600513, 7.90781, 13.5432, 0, 0.00108116, -0.30502, -36.5084, -36.7085, -0.167738, -23.3015, -17.1602, 0.000380123, -0.000343216, -0.000434573, 0.000210365, 0.000210365, 0.000210365
1022, 1,0.0004597, -0.000294282, 0.00021612, 9.22622, -17.6774, 0.000857142, 17.5646, 30.8407, 0, 0.00104661, 0.000596023, 0.000940844, 12.078, 21.5402, 0, 0.00104677, 0.000324752, 0.000513251, 6.4977, 11.7427, 0, 0.00104694, -0.186371, -30.5861, -33.848, -0.0750083, -19.7074, -15.4459, 0.000335765, -0.000272369, -0.000412914, 0.000183821, 0.000183821, 0.000183821
1023, 1,0.000442119, -0.000270893, 0.000201797, 10.1162, -16.1375, 0.000807006, 19.9771, 24.408, 0, 0.00101251, 0.000572773, 0.000870791, 13.1056, 18.6258, 0, 0.0010126, 0.000313204, 0.000473042, 7.26864, 9.9576, 0, 0.00101275, -0.0752012, -29.1341, -26.668, -0.00446876, -18.7009, -11.1674, 0.000292021, -0.000291293, -0.000302955, 0.000156988, 0.000156988, 0.000156988
1024, 1,0.000551003, -0.000284659, 0.000224075, 16.9535, -16.3931, 0.00102629, 34.9728, 18.1818, 0, 0.000978431, 0.000711168, 0.000963218, 21.7327, 15.7216, 0, 0.00097847, 0.000393665, 0.000524549, 12.3857, 8.14106, 0, 0.00097859, -0.165595, -34.1711, -12.828, -0.0757983, -21.7605, -2.58688, 0.000244394, -0.000441925, -5.75712E-05, 0.000126876, 0.000126876, 0.000126876
1025, 1,0.000575361, -0.000379731, 0.000276916, 10.6266, -22.8902, 0.00110809, 20.6593, 42.6343, 0, 0.00108081, 0.000747959, 0.00120484, 14.0791, 28.5172, 0, 0.00108106, 0.000404029, 0.000655276, 7.30076, 15.6586, 0, 0.00108128, -0.320341, -37.6702, -47.561, -0.176871, -24.1674, -22.6316, 0.000443005, -0.000301903, -0.000603833, 0.00024355, 0.00024355, 0.00024355
1026, 1,0.00048765, -0.000330487, 0.000238238, 8.3909, -20.0559, 0.000899957, 15.7241, 36.0284, 0, 0.00104668, 0.000631833, 0.00103702, 10.9575, 25.3248, 0, 0.00104686, 0.000344986, 0.000565679, 5.95905, 13.7564, 0, 0.00104706, -0.217415, -31.7442, -44.0127, -0.0879987, -20.5639, -20.6173, 0.000394764, -0.000234575, -0.000571118, 0.000215316, 0.000215316, 0.000215316
1027, 1,0.000464649, -0.000304099, 0.000221716, 9.1126, -18.3372, 0.000839345, 17.5103, 29.7698, 0, 0.00101258, 0.000601852, 0.000957788, 11.793, 22.2599, 0, 0.00101271, 0.000329254, 0.000520439, 6.58084, 11.9203, 0, 0.00101288, -0.110665, -30.262, -36.4071, -0.0204013, -19.5534, -16.1869, 0.000348539, -0.000255055, -0.000454682, 0.000187599, 0.000187599, 0.000187599
1028, 1,0.000558814, -0.000312924, 0.000239586, 15.2939, -18.3294, 0.00103557, 31.1494, 23.9018, 0, 0.000978503, 0.000721833, 0.00103068, 19.6177, 19.2718, 0, 0.000978577, 0.000398541, 0.000560715, 11.1792, 10.0944, 0, 0.000978722, -0.180259, -35.2365, -22.3987, -0.0829595, -22.6007, -7.59965, 0.000300031, -0.000405318, -0.000207425, 0.000157527, 0.000157527, 0.000157527
1029, 1,0.000609484, -0.000419426, 0.000301421, 9.9302, -25.4796, 0.00115993, 18.9409, 48.2422, 0, 0.00108087, 0.000791214, 0.00131234, 13.108, 32.5217, 0, 0.00108114, 0.000429176, 0.000714291, 6.8908, 17.7629, 0, 0.0010814, -0.316972, -38.6307, -58.6173, -0.169082, -24.8849, -28.2349, 0.000506213, -0.000256662, -0.000777262, 0.000276932, 0.000276932, 0.000276932
1030, 1,0.000520728, -0.000368109, 0.000261781, 7.82413, -22.4998, 0.000938734, 13.4265, 41.5741, 0, 0.00104675, 0.000674223, 0.00113973, 10.1746, 29.0819, 0, 0.00104696, 0.000368878, 0.000621727, 5.61859, 15.7438, 0, 0.00104719, -0.212011, -32.7003, -54.3335, -0.0654096, -21.2684, -25.8976, 0.00045411, -0.000193349, -0.000732657, 0.00024716, 0.00024716, 0.00024716
1031, 1,0.000493107, -0.000338815, 0.00024316, 8.4186, -20.6071, 0.000874267, 14.9264, 35.4529, 0, 0.00101266, 0.000638404, 0.00105213, 10.8633, 25.86, 0, 0.00101282, 0.000349681, 0.000572108, 6.12864, 13.8504, 0, 0.00101302, -0.105364, -31.1934, -46.2811, 0.00466577, -20.2581, -21.2978, 0.000405368, -0.000215542, -0.000609441, 0.000218551, 0.000218551, 0.000218551
1032, 1,0.000574257, -0.000343169, 0.000257034, 13.978, -20.3614, 0.00106559, 28.1091, 29.8928, 0, 0.000978576, 0.000742018, 0.00110785, 17.9339, 22.829, 0, 0.000978689, 0.000409162, 0.000602725, 10.2288, 12.0499, 0, 0.00097886, -0.186741, -36.1403, -32.16, -0.0824648, -23.325, -12.7421, 0.000355937, -0.000365291, -0.000361079, 0.000188356, 0.000188356, 0.000188356
1033, 1,0.000649956, -0.000460616, 0.000327363, 9.48797, -28.1388, 0.00120452, 16.7271, 54.0722, 0, 0.00108092, 0.000842215, 0.00142776, 12.4542, 36.5133, 0, 0.00108123, 0.000459252, 0.000778287, 6.66899, 19.8485, 0, 0.00108152, -0.275135, -39.328, -69.9369, -0.126857, -25.3933, -34.0253, 0.000570049, -0.00020645, -0.000956081, 0.000310763, 0.000310763, 0.000310763
1034, 1,0.000558432, -0.000406785, 0.000286368, 7.48209, -24.9894, 0.000951035, 9.48413, 47.6581, 0, 0.00104682, 0.000722313, 0.00124849, 9.66754, 32.8097, 0, 0.00104707, 0.000396285, 0.000681634, 5.44764, 17.705, 0, 0.00104732, -0.129937, -33.3797, -64.9195, 0.0265678, -21.7529, -31.3885, 0.000514624, -0.000147578, -0.000899432, 0.000280067, 0.000280067, 0.000280067
1035, 1,0.000526764, -0.000374685, 0.000265754, 7.9687, -22.9277, 0.000893814, 11.182, 41.7279, 0, 0.00101272, 0.000681325, 0.00115325, 10.2337, 29.4414, 0, 0.00101292, 0.00037411, 0.000628186, 5.86173, 15.7655, 0, 0.00101315, -0.0299597, -31.8858, -56.4085, 0.0940469, -20.7803, -26.6101, 0.000463373, -0.000172018, -0.000769087, 0.00025061, 0.00025061, 0.00025061
1036, 1,0.000597219, -0.000375139, 0.000276153, 12.9772, -22.4757, 0.00111048, 25.3613, 36.4565, 0, 0.000978654, 0.000771318, 0.00119426, 16.6382, 26.3652, 0, 0.000978815, 0.000425714, 0.000650691, 9.52051, 13.9786, 0, 0.000979011, -0.146654, -36.8415, -42.1073, -0.0370266, -23.8939, -18.0049, 0.00041248, -0.000321526, -0.000518768, 0.000219696, 0.000219696, 0.000219696
1037, 1,0.000695194, -0.00050291, 0.000354357, 9.1332, -30.8469, 0.0013234, 19.4677, 57.9828, 0, 0.00108099, 0.000899094, 0.00154924, 11.9414, 40.4971, 0, 0.0010813, 0.000492886, 0.000845923, 6.47354, 21.9266, 0, 0.00108163, -0.199188, -39.6827, -81.6094, -0.063674, -25.5988, -40.1173, 0.000634498, -0.00014849, -0.00114313, 0.000344936, 0.000344936, 0.000344936
1038, 1,0.000600325, -0.000446147, 0.000311596, 7.32021, -27.5025, 0.000990205, 7.98265, 52.1773, 0, 0.00104689, 0.000775331, 0.00136342, 9.38085, 36.461, 0, 0.00104715, 0.000427022, 0.000746017, 5.40657, 19.6015, 0, 0.00104744, 0.183783, -33.5851, -75.9818, 0.323149, -21.8262, -37.3016, 0.000578848, -9.36621E-05, -0.00107682, 0.000316298, 0.000316298, 0.000316298
1039, 1,0.000565641, -0.000411373, 0.000289142, 7.75933, -25.2785, 0.000951682, 10.2762, 46.6329, 0, 0.0010128, 0.000730338, 0.00126121, 9.88994, 32.9357, 0, 0.00101302, 0.000402789, 0.000689199, 5.78181, 17.6049, 0, 0.00101328, 0.261933, -32.1262, -66.9429, 0.377332, -20.9137, -32.2783, 0.000524588, -0.000120917, -0.000938103, 0.000285577, 0.000285577, 0.000285577
1040, 1,0.000628656, -0.000408669, 0.00029678, 12.2442, -24.6625, 0.00125996, 28.6717, 41.5467, 0, 0.000978743, 0.000810537, 0.00129055, 15.678, 29.8878, 0, 0.000978928, 0.000449298, 0.000705533, 9.01223, 15.8937, 0, 0.00097915, -0.0898781, -37.3396, -52.2338, 0.0170169, -24.308, -23.3901, 0.000469166, -0.000272908, -0.000681234, 0.000250998, 0.000250998, 0.000250998
1041, 1,0.000753303, -0.000546619, 0.000382695, 9.47199, -33.6248, 0.00167205, 36.8722, 56.7578, 0, 0.00108116, 0.000969982, 0.00168433, 12.1751, 44.2712, 0, 0.00108138, 0.000538352, 0.000924841, 6.92694, 23.7958, 0, 0.00108174, 0.162147, -39.7695, -93.2062, 0.263665, -25.6355, -46.0154, 0.000701717, -8.5741E-05, -0.00133434, 0.000381445, 0.000381445, 0.000381445
1042, 1,0.000648118, -0.000486255, 0.000337365, 7.2881, -30.05, 0.00112955, 15.1865, 51.3402, 0, 0.00104704, 0.000834567, 0.0014884, 9.24175, 40.3176, 0, 0.00104723, 0.000463339, 0.000819291, 5.47631, 21.7065, 0, 0.00104754, 0.586489, -33.6086, -87.9308, 0.663099, -21.8198, -43.9627, 0.000648212, -3.25328E-05, -0.0012699, 0.000356753, 0.000356753, 0.000356753
1043, 1,0.000614312, -0.000448846, 0.000313146, 7.98225, -27.6663, 0.00111879, 18.1453, 46.6644, 0, 0.00101296, 0.000789546, 0.00138148, 9.99639, 36.4641, 0, 0.00101312, 0.000440845, 0.000761192, 6.11468, 19.4791, 0, 0.0010134, 0.759116, -31.9182, -78.2332, 0.830444, -20.7, -38.5678, 0.000590661, -5.9444E-05, -0.0011229, 0.000324659, 0.000324659, 0.000324659
1044, 1,0.0006744, -0.000443702, 0.000318818, 12.1348, -26.9256, 0.00163945, 45.4145, 43.1717, 0, 0.000978903, 0.000865321, 0.0014017, 15.3985, 33.3068, 0, 0.00097906, 0.000485953, 0.000772546, 9.07358, 17.6991, 0, 0.000979308, 0.0702573, -37.5571, -62.4335, 0.166838, -24.5094, -28.7546, 0.000526394, -0.000217268, -0.000849583, 0.000282578, 0.000282578, 0.000282578
1045, 1,0.000795626, -0.000591633, 0.000412309, 8.24271, -36.4617, 0.00211491, 58.0879, 56.352, 0, 0.00108128, 0.00102611, 0.00181217, 10.8922, 49.2889, 0, 0.0010814, 0.000567204, 0.000994379, 5.77928, 26.9281, 0, 0.00108179, -0.522814, -41.6347, -105.709, -0.50452, -27.4344, -52.8454, 0.000766552, -4.00354E-05, -0.00152631, 0.00041484, 0.00041484, 0.00041484
1046, 1,0.000679546, -0.00052649, 0.000362949, 6.18445, -32.5978, 0.00127401, 19.9543, 54.0712, 0, 0.00104707, 0.000876688, 0.00160432, 8.00877, 44.8277, 0, 0.00104723, 0.000484258, 0.000883784, 4.50492, 24.4857, 0, 0.00104758, 0.9276, -34.0988, -101.312, 0.850049, -22.2867, -52.0205, 0.000726543, 2.71585E-05, -0.0014811, 0.000404577, 0.000404577, 0.000404577
1047, 1,0.00065107, -0.000486491, 0.00033716, 7.05644, -30.0548, 0.00121718, 20.2619, 50.0404, 0, 0.00101302, 0.000836697, 0.00149683, 8.95897, 40.9917, 0, 0.00101317, 0.000467073, 0.00082779, 5.28742, 22.3753, 0, 0.00101347, 0.582047, -32.2747, -91.2825, 0.530724, -21.0722, -46.5844, 0.000658105, 4.09318E-06, -0.00132736, 0.000363819, 0.000363819, 0.000363819
1048, 1,0.000717233, -0.000480493, 0.000342687, 11.5354, -29.2653, 0.00209708, 67.5031, 42.5433, 0, 0.000979085, 0.000918794, 0.00151562, 14.7057, 37.2969, 0, 0.000979169, 0.00051836, 0.000839452, 8.58811, 20.0981, 0, 0.000979442, -0.172359, -38.7989, -72.9196, -0.108658, -25.7481, -34.4375, 0.000583954, -0.000173219, -0.00101594, 0.00031437, 0.00031437, 0.00031437
1049, 1,0.000880902, -0.000642972, 0.00044799, 11.15, -39.6073, 0.00236714, 57.7899, 72.7556, 0, 0.00108123, 0.00112802, 0.00196461, 13.8191, 51.6662, 0, 0.0010816, 0.000638575, 0.00108483, 8.844, 27.386, 0, 0.00108203, 0.753581, -43.9478, -111.804, 0.647756, -29.7614, -53.0445, 0.000831319, -4.4857E-05, -0.00162483, 0.000446762, 0.000446762, 0.000446762
1050, 1,0.000714664, -0.000573217, 0.000394342, 6.34125, -35.4615, 0.00126405, 5.92517, 72.2886, 0, 0.00104684, 0.000924748, 0.00171183, 8.09637, 48.1075, 0, 0.00104726, 0.000508498, 0.000935702, 4.83833, 25.9969, 0, 0.00104763, 1.93535, -36.9577, -109.3, 1.63593, -25.2634, -54.3632, 0.000799492, 1.57217E-05, -0.00159583, 0.000444989, 0.000444989, 0.000444989
1051, 1,0.000683189, -0.000529949, 0.000366504, 7.30209, -32.7116, 0.00100612, -0.21547, 64.1501, 0, 0.00101286, 0.000883174, 0.00159857, 9.25894, 43.8553, 0, 0.0010132, 0.00048556, 0.000874441, 5.52269, 23.6059, 0, 0.00101353, 1.32976, -33.7035, -99.192, 1.05401, -22.6564, -49.2153, 0.000719088, 1.55532E-05, -0.00144627, 0.000394351, 0.000394351, 0.000394351
1052, 1,0.000806409, -0.00052193, 0.000371417, 13.9924, -31.8038, 0.00233068, 73.4491, 49.3637, 0, 0.000979129, 0.00102207, 0.00166197, 17.2252, 40.3546, 0, 0.000979272, 0.000594799, 0.000933317, 11.0653, 21.6046, 0, 0.00097957, -0.529103, -39.827, -80.7078, -0.532181, -26.9381, -37.3436, 0.000624504, -0.000141711, -0.00113762, 0.000329077, 0.000329077, 0.000329077
1053, 1,0.000946672, -0.000689874, 0.000479293, 9.67441, -42.5839, 0.00288545, 69.2411, 90.1924, 0, 0.00108157, 0.00120794, 0.00211325, 12.237, 58.5057, 0, 0.00108213, 0.000691407, 0.00117544, 7.55725, 32.2132, 0, 0.00108259, -2.72824, -49.6574, -123.131, -2.91294, -34.7043, -59.0224, 0.000865579, -4.62861E-05, -0.00176864, 0.000447655, 0.000447655, 0.000447655
1054, 1,0.00074167, -0.000614471, 0.000419236, 3.4838, -38.1327, 0.00131744, 3.05695, 79.534, 0, 0.00104728, 0.000961343, 0.00182692, 4.96395, 54.405, 0, 0.0010477, 0.000524722, 0.000999389, 2.19953, 30.3542, 0, 0.00104811, 0.0794503, -39.6019, -123.692, -0.40218, -27.5792, -63.0813, 0.000859316, 6.22512E-05, -0.00180438, 0.000470395, 0.000470395, 0.000470395
1055, 1,0.000710661, -0.000570735, 0.00039241, 4.49529, -35.3247, 0.00125462, 7.76775, 69.2176, 0, 0.00101319, 0.000921913, 0.00171744, 6.29323, 50.1374, 0, 0.00101351, 0.000502187, 0.000942135, 2.89786, 28.0351, 0, 0.00101387, -0.819813, -36.2248, -113.368, -1.2193, -25.0476, -57.8384, 0.000772986, 6.20584E-05, -0.00164861, 0.00041646, 0.00041646, 0.00041646
1056, 1,0.000881396, -0.000566806, 0.000403193, 12.6359, -34.5645, 0.00276684, 85.2741, 61.1145, 0, 0.000979303, 0.00111248, 0.00181688, 15.9219, 47.594, 0, 0.000979518, 0.000656834, 0.00103386, 9.80289, 27.1339, 0, 0.000979843, -5.04614, -46.9545, -90.7814, -5.01353, -33.8551, -42.5331, 0.000643517, -0.000171058, -0.00124476, 0.00032191, 0.00032191, 0.00032191
1057, 1,0.00106594, -0.000732991, 0.000511171, 14.5393, -45.1682, 0.00275524, 57.2129, 97.7721, 0, 0.00108211, 0.00134676, 0.0022732, 17.4765, 60.9603, 0, 0.00108275, 0.000791898, 0.0012746, 12.0844, 33.2035, 0, 0.00108324, -3.808, -51.2584, -127.814, -4.26344, -35.2159, -60.1311, 0.000881691, -4.30757E-05, -0.00182781, 0.00043497, 0.00043497, 0.00043497
1058, 1,0.000773281, -0.000647918, 0.00043897, 5.47002, -40.3423, 0.00165005, 20.6635, 76.8419, 0, 0.00104797, 0.00100091, 0.00188753, 6.6916, 54.7701, 0, 0.00104834, 0.000548018, 0.00101756, 4.43945, 29.0212, 0, 0.00104878, 1.34818, -36.1151, -129.543, 0.626827, -23.3026, -64.3877, 0.000891832, 0.000140543, -0.00192113, 0.000471082, 0.000471082, 0.000471082
1059, 1,0.000739464, -0.00060447, 0.000414031, 7.03748, -37.568, 0.00151067, 21.0559, 67.4515, 0, 0.00101392, 0.000960695, 0.00176857, 8.64904, 49.5567, 0, 0.00101421, 0.000520961, 0.000949035, 5.62057, 25.7014, 0, 0.0010146, 1.73629, -33.0534, -117.353, 1.30605, -21.0995, -57.3109, 0.000818099, 0.000118629, -0.00174089, 0.000433326, 0.000433326, 0.000433326
1060, 1,0.000988903, -0.000610868, 0.000435744, 16.3152, -37.2455, 0.00257308, 69.8314, 69.2668, 0, 0.000979909, 0.00123731, 0.00198452, 19.7969, 50.7539, 0, 0.000980203, 0.000749677, 0.00114659, 13.4272, 28.685, 0, 0.000980554, -5.52881, -51.8121, -94.9207, -5.42774, -37.6975, -42.9297, 0.000683714, -0.000223971, -0.00128333, 0.000338233, 0.000338233, 0.000338233
1061, 1,0.00130807, -0.000783913, 0.000555483, 29.8618, -47.8304, 0.00224126, 20.9429, 113.727, 0, 0.00108268, 0.00162882, 0.00253663, 34.4481, 57.0032, 0, 0.00108368, 0.000992095, 0.001443, 25.6233, 28.5355, 0, 0.00108418, 1.55935, -41.3263, -131.243, 0.588503, -25.4959, -60.699, 0.000933093, 9.48797E-05, -0.00195295, 0.000464284, 0.000464284, 0.000464284
1062, 1,0.000879953, -0.000676771, 0.000460134, 12.8617, -42.1304, 0.00167433, 8.2154, 95.2844, 0, 0.00104823, 0.00112295, 0.00199485, 14.401, 52.4765, 0, 0.00104895, 0.000637369, 0.00107686, 11.3774, 25.5672, 0, 0.00104941, 5.28823, -27.7721, -134.946, 4.46531, -14.7396, -66.4272, 0.000939132, 0.000274725, -0.00206539, 0.000497961, 0.000497961, 0.000497961
1063, 1,0.000820126, -0.000631178, 0.000434038, 11.7054, -39.2661, 0.0014354, 6.01913, 83.0433, 0, 0.0010143, 0.00105501, 0.00186377, 13.5278, 49.3252, 0, 0.00101485, 0.000586841, 0.00100041, 10.0004, 24.2802, 0, 0.00101527, 2.69357, -26.8331, -123.836, 2.43976, -14.6083, -60.672, 0.000834463, 0.000240925, -0.0018758, 0.00043469, 0.00043469, 0.00043469
1064, 1,0.00120388, -0.000659414, 0.000476868, 30.2054, -39.8644, 0.00202426, 36.2688, 79.3002, 0, 0.00098071, 0.00148755, 0.00220413, 35.0404, 47.0268, 0, 0.000981224, 0.000928041, 0.00127932, 25.8679, 24.0579, 0, 0.00098159, -2.75917, -45.2142, -93.1071, -2.77707, -30.3439, -39.0527, 0.000683498, -0.000152231, -0.00129439, 0.000321345, 0.000321345, 0.000321345
1065, 1,0.00163948, -0.000860776, 0.000625036, 39.6426, -51.818, 0.00229923, -2.95112, 149.41, 0, 0.00108235, 0.00201981, 0.00304366, 46.6819, 65.93, 0, 0.00108382, 0.00126501, 0.00181566, 32.988, 36.5051, 0, 0.00108434, 2.13139, -41.2779, -158.643, 0.999563, -29.0491, -81.4656, 0.00108559, 0.000234629, -0.00239002, 0.000598329, 0.000598329, 0.000598329
1066, 1,0.00110398, -0.000709765, 0.000488825, 17.3246, -44.0132, 0.00206057, 2.04772, 128.187, 0, 0.00104785, 0.00136919, 0.00232287, 19.6459, 60.9141, 0, 0.00104899, 0.000839589, 0.00134854, 15.0405, 33.1439, 0, 0.00104946, 3.54387, -21.5346, -164.751, 3.37391, -11.1984, -91.6071, 0.00103513, 0.00054064, -0.00256419, 0.000594229, 0.000594229, 0.000594229
1067, 1,0.000966984, -0.000658764, 0.000458704, 14.8183, -40.8327, 0.00168722, -5.78405, 114.936, 0, 0.00101405, 0.00122548, 0.00207256, 17.5551, 54.7113, 0, 0.00101505, 0.000708606, 0.00115555, 12.0816, 28.9634, 0, 0.00101547, -1.08215, -18.2011, -144.851, -0.531182, -8.13165, -78.2275, 0.000839379, 0.000508614, -0.00223578, 0.000445563, 0.000445563, 0.000445563
1068, 1,0.00147245, -0.000723467, 0.000535783, 42.205, -43.1732, 0.00191425, 9.6848, 107.919, 0, 0.000980765, 0.00181329, 0.00253745, 49.4814, 48.9208, 0, 0.000981704, 0.00113685, 0.00148588, 35.2717, 25.1795, 0, 0.000982082, -4.24058, -37.868, -104.654, -3.9996, -24.4657, -47.0731, 0.000681518, 2.87365E-05, -0.0015041, 0.000312686, 0.000312686, 0.000312686
1069, 1,0.00195535, -0.000974743, 0.000723233, 40.631, -57.8144, 0.00308568, 8.53543, 183.881, 0, 0.00108262, 0.00241386, 0.003717, 50.7315, 86.1361, 0, 0.00108434, 0.00150515, 0.0023047, 31.0474, 55.0913, 0, 0.00108489, -5.49251, -43.5495, -209.366, -6.86648, -39.3605, -119.047, 0.00124239, 0.000506687, -0.00314671, 0.000724512, 0.000724512, 0.000724512
1070, 1,0.00116654, -0.000755087, 0.000532814, 9.66705, -46.459, 0.00279619, 15.4154, 156.819, 0, 0.00104772, 0.00147621, 0.00260779, 13.8442, 75.2996, 0, 0.0010491, 0.000857527, 0.00154482, 5.49781, 46.7351, 0, 0.00104959, -6.34772, -17.2133, -202.338, -5.26745, -12.3944, -122.543, 0.00105234, 0.000863934, -0.00313811, 0.000625392, 0.000625392, 0.000625392
1071, 1,0.00109148, -0.00069232, 0.000492086, 11.7821, -42.6516, 0.00251745, 11.2506, 144.738, 0, 0.00101378, 0.00138098, 0.00233893, 15.8255, 66.6051, 0, 0.00101506, 0.000803631, 0.00136076, 7.78184, 40.2542, 0, 0.0010155, -9.76412, -12.843, -177.208, -7.84329, -7.34804, -105.571, 0.000843118, 0.000814684, -0.00273858, 0.000468799, 0.000468799, 0.000468799
1072, 1,0.00165951, -0.000796656, 0.000603328, 41.7493, -46.8599, 0.00244539, 4.60893, 148.461, 0, 0.000980664, 0.00206314, 0.00297453, 51.7809, 61.9812, 0, 0.000982041, 0.00126019, 0.00178502, 32.0083, 37.6366, 0, 0.000982429, -7.21835, -38.0885, -140.637, -6.92069, -30.3614, -75.6276, 0.000824179, 0.000232714, -0.00206264, 0.000447061, 0.000447061, 0.000447061
1073, 1,0.0024234, -0.00117025, 0.000865448, 55.0577, -69.703, 0.0051015, 15.7668, 219.398, 0.0509681, 0.00108276, 0.00297462, 0.00454977, 66.9151, 100.269, 0, 0.00108497, 0.00187791, 0.00284382, 43.5813, 62.1078, 0, 0.00108564, -4.28778, -16.2939, -280.224, -4.1559, -18.7301, -163.437, 0.00149106, 0.00130268, -0.00442073, 0.000893015, 0.000893015, 0.000893015
1074, 1,0.00159228, -0.000877573, 0.0006368, 26.7035, -53.3481, 0.00385471, 42.7168, 187.346, 0, 0.00104964, 0.00198055, 0.00315933, 33.4546, 81.1662, 0, 0.00105145, 0.00120798, 0.0018958, 20.1467, 49.6408, 0, 0.00105199, -10.6733, 1.98129, -234.807, -8.40691, -0.0200342, -140.496, 0.00105337, 0.00136222, -0.00373265, 0.000604891, 0.000604891, 0.000604891
1075, 1,0.00149576, -0.000792862, 0.000581465, 25.7429, -48.1388, 0.00344307, 30.8764, 177.128, 0, 0.00101557, 0.00186566, 0.00291744, 32.7896, 74.9439, 0, 0.00101726, 0.00112595, 0.00175508, 18.7107, 46.6133, 0, 0.00101772, -13.5007, -2.13497, -209.196, -10.745, -3.36288, -125.732, 0.00089522, 0.0011731, -0.00328443, 0.000507406, 0.000507406, 0.000507406
1076, 1,0.00205041, -0.000909548, 0.000695585, 49.9234, -53.2386, 0.00331695, 14.7261, 190.213, 0, 0.000981319, 0.00252422, 0.00367022, 62.2141, 77.5918, 0, 0.000983114, 0.00158129, 0.00229861, 37.93, 50.4184, 0, 0.000983547, -8.49841, -24.3788, -199.898, -7.92887, -25.4465, -117.88, 0.00104288, 0.000763528, -0.00306546, 0.000626999, 0.000626999, 0.000626999
1077, 1,0.00228934, -0.00138472, 0.000975587, 19.7879, -85.7576, 0.00725557, -21.3843, 277.034, 0.125969, 0.00108352, 0.0028549, 0.00501704, 26.4663, 145.965, 0, 0.0010862, 0.00172439, 0.00306749, 13.1555, 91.7886, 0, 0.00108716, -18.5473, -20.9758, -398.373, -13.2504, -17.9706, -244.145, 0.00191002, 0.00191157, -0.00619015, 0.00116905, 0.00116905, 0.00116905
1078, 1,0.00185252, -0.00106454, 0.000757767, 21.1119, -66.5502, 0.00538257, -24.4421, 272.687, 0.0620174, 0.00104999, 0.00229724, 0.00375326, 26.1215, 111.011, 0, 0.00105292, 0.00141061, 0.00224608, 16.2313, 67.6877, 0, 0.00105366, -27.6527, -5.46901, -299.91, -20.0315, -3.88201, -179.149, 0.00116469, 0.00167162, -0.00463769, 0.000643713, 0.000643713, 0.000643713
1079, 1,0.00163451, -0.000946525, 0.000686076, 19.9548, -58.8698, 0.00425381, -2.3093, 243.714, 0.0179481, 0.00101663, 0.00205982, 0.00331314, 26.1124, 96.0549, 0, 0.00101911, 0.00120942, 0.00194154, 13.8047, 58.3294, 0, 0.00101974, -22.9487, -9.19334, -256.023, -16.3105, -7.55916, -151.119, 0.00102764, 0.00135205, -0.00393839, 0.000574017, 0.000574017, 0.000574017
1080, 1,0.0021306, -0.00104249, 0.000767318, 37.3312, -63.1217, 0.00391372, -2.20954, 242.882, 0.00519746, 0.000981932, 0.00261908, 0.00406936, 46.6961, 104.014, 0, 0.000984158, 0.00164417, 0.00254324, 28.102, 67.0611, 0, 0.000984749, -14.6478, -18.0012, -279.392, -12.0254, -18.3217, -170.836, 0.00132879, 0.00130011, -0.00431675, 0.000802379, 0.000802379, 0.000802379
1081, 1,0.00225654, -0.00144515, 0.000988948, 14.2771, -93.3341, 0.00681228, -7.83942, 303.814, 0.0725904, 0.0010794, 0.00278896, 0.00489037, 14.5025, 157.414, 0, 0.0010822, 0.00172425, 0.00291383, 14.059, 90.3316, 0, 0.00108337, -20.8445, -34.6603, -416.738, -11.7463, -18.3939, -240.854, 0.00204114, 0.0017819, -0.00637743, 0.00117726, 0.00117726, 0.00117726
1082, 1,0.00195741, -0.00120555, 0.00083094, 30.3697, -77.6473, 0.00594533, -1.59639, 285.557, 0.0503762, 0.00104743, 0.00240986, 0.00391602, 31.1277, 111.1, 0, 0.00105054, 0.00150768, 0.00226918, 29.7854, 55.7232, 0, 0.00105148, -20.0796, -23.5378, -289.683, -8.42399, -9.42267, -149.323, 0.00132646, 0.00129146, -0.00442077, 0.000700971, 0.000700971, 0.000700971
1083, 1,0.00175464, -0.00107721, 0.000752297, 28.2067, -69.6015, 0.00483112, -3.91727, 286.919, 0.0134616, 0.00101318, 0.00217727, 0.00350371, 29.5206, 98.5085, 0, 0.00101632, 0.0013356, 0.00201402, 27.1181, 48.4327, 0, 0.00101714, -12.4776, -28.3193, -254.729, -1.97966, -13.434, -129.884, 0.0012885, 0.000987837, -0.00387487, 0.000722004, 0.000722004, 0.000722004
1084, 1,0.00186603, -0.00107512, 0.000752108, 18.1898, -69.2875, 0.00434247, -0.307927, 276.072, 0, 0.000977753, 0.00229471, 0.00379682, 20.0395, 118.676, 0, 0.000980253, 0.00143763, 0.00229428, 16.3647, 69.1636, 0, 0.000981041, -13.0146, -30.2859, -312.729, -6.69685, -18.1526, -182.641, 0.00159551, 0.00125417, -0.00477547, 0.000949462, 0.000949462, 0.000949462
1085, 1,0.00268293, -0.0014579, 0.00100272, 24.5004, -93.6831, 0.00841181, -28.0021, 310.241, 0.144039, 0.00106647, 0.00322632, 0.00562549, 25.531, 170.305, 0, 0.00106937, 0.00214126, 0.00362561, 23.5583, 103.959, 0, 0.00107052, -5.73579, -32.0049, -473.175, -1.1438, -15.2048, -295.527, 0.00256266, 0.00205039, -0.00737663, 0.00161493, 0.00161493, 0.00161493
1086, 1,0.00227885, -0.00129845, 0.00089441, 36.4305, -83.2803, 0.00735067, -42.8534, 313.842, 0.121287, 0.00103399, 0.00276821, 0.00456344, 37.7501, 124.982, 0, 0.00103755, 0.00179011, 0.00277868, 35.166, 66.3202, 0, 0.00103854, -4.27737, -23.7019, -346.966, 4.37359, -8.19367, -195.141, 0.00187843, 0.00151562, -0.00542216, 0.00113759, 0.00113759, 0.00113759
1087, 1,0.00205833, -0.00124891, 0.000865047, 32.5149, -80.1207, 0.00620915, -42.2838, 313.037, 0.079516, 0.00100057, 0.00253921, 0.00412556, 34.2539, 114.984, 0, 0.00100403, 0.00157766, 0.00239787, 30.8047, 58.4951, 0, 0.00100495, -19.4769, -11.4333, -314.041, -7.91064, 0.998751, -168.573, 0.00139945, 0.00161162, -0.00487694, 0.000754521, 0.000754521, 0.000754521
1088, 1,0.00220482, -0.00133161, 0.00092409, 25.4452, -85.1029, 0.00554857, -22.4704, 298.771, 0.04661, 0.000966096, 0.00272018, 0.00451458, 27.747, 135.302, 0, 0.000968788, 0.00168994, 0.00266795, 23.1625, 75.9105, 0, 0.000969722, -21.8772, -10.3743, -373.653, -13.7991, -0.225475, -213.707, 0.0016699, 0.00194155, -0.00580702, 0.000905487, 0.000905487, 0.000905487
1089, 1,0.00229257, -0.0012653, 0.000903414, 24.8903, -77.4967, 0.0075343, -6.42841, 261.188, 0.132569, 0.00108342, 0.00282667, 0.00491667, 32.6266, 136.506, 0, 0.00108599, 0.00176318, 0.0031254, 17.4311, 89.3699, 0, 0.00108682, -4.55772, -35.8441, -369.115, -2.55852, -33.9346, -231.617, 0.00205377, 0.00145326, -0.00572211, 0.00135377, 0.00135377, 0.00135377
1090, 1,0.00176873, -0.00101014, 0.000725425, 19.2062, -62.5789, 0.00550905, -12.2427, 257.37, 0.0662041, 0.0010503, 0.00220567, 0.00362148, 25.2333, 106.587, 2.1684E-19, 0.00105304, 0.00133373, 0.0021755, 13.282, 67.0338, 2.1684E-19, 0.00105372, -20.1428, -15.4544, -284.162, -15.3157, -13.9118, -171.874, 0.00125275, 0.00139382, -0.00437617, 0.00073199, 0.00073199, 0.00073199
1091, 1,0.0016511, -0.000970563, 0.000701891, 21.1494, -59.989, 0.00456696, 0.687788, 238.983, 0.0306245, 0.00101656, 0.00208347, 0.00331073, 27.6663, 95.447, 0, 0.001019, 0.00121918, 0.00190818, 14.6537, 57.7847, 0, 0.00101962, -28.3878, -4.99389, -252.959, -22.0373, -4.93542, -146.381, 0.000903234, 0.00143426, -0.00388633, 0.000444466, 0.000444466, 0.000444466
1092, 1,0.00204293, -0.00115058, 0.00083534, 35.7844, -69.8286, 0.00455335, 6.24835, 237.587, 0.0258415, 0.00098181, 0.00255836, 0.00405765, 44.8414, 102.698, 0, 0.000984017, 0.00153018, 0.00239697, 26.8976, 61.4761, 0, 0.000984676, -15.8161, -12.1779, -280.1, -12.2134, -12.1426, -160.072, 0.00128477, 0.00140437, -0.00435563, 0.000711874, 0.000711874, 0.000711874
1093, 1,0.00241658, -0.00105595, 0.000787854, 48.8041, -62.6022, 0.00478928, 16.4365, 217.966, 0.039198, 0.00108311, 0.00292987, 0.00454674, 60.5978, 105.552, 0, 0.00108517, 0.00190668, 0.00298745, 37.2432, 71.9362, 0, 0.00108576, -6.60842, -21.1279, -288.92, -6.5082, -25.0009, -184.299, 0.00152303, 0.00128507, -0.00452085, 0.000995747, 0.000995747, 0.000995747
1094, 1,0.00159513, -0.000840334, 0.000608554, 24.5275, -51.2477, 0.00388305, 47.1487, 183.175, 0, 0.00104962, 0.00197069, 0.00318954, 31.0096, 83.8316, 0, 0.00105131, 0.00122026, 0.00197448, 18.0865, 53.2177, 0, 0.00105184, -9.99934, -2.53421, -238.961, -7.77163, -3.72979, -148.152, 0.0011091, 0.00130913, -0.00377855, 0.000674128, 0.000674128, 0.000674128
1095, 1,0.00145004, -0.000817841, 0.000593433, 23.2919, -49.9054, 0.00359121, 40.9523, 172.989, 0, 0.0010156, 0.00181891, 0.0029042, 29.7111, 76.0164, 0, 0.0010172, 0.00108126, 0.00171776, 16.8859, 46.1175, 0, 0.00101769, -12.438, -3.15311, -212.458, -9.59983, -3.47519, -125.278, 0.000934555, 0.0011694, -0.00333746, 0.000523747, 0.000523747, 0.000523747
1096, 1,0.00197446, -0.000991371, 0.000746351, 45.325, -58.5895, 0.00330023, 13.3427, 191.27, 0, 0.000981202, 0.00246531, 0.00362576, 56.9129, 80.9352, 0, 0.00098296, 0.00149065, 0.0021606, 34.1759, 49.7853, 0, 0.000983457, -14.3818, -25.5835, -202.84, -13.4688, -25.2388, -110.648, 0.000971804, 0.000791186, -0.00307629, 0.000500609, 0.000500609, 0.000500609
1097, 1,0.00185738, -0.000889344, 0.000663195, 35.1556, -52.6606, 0.00302822, 6.21674, 183.686, 0, 0.00108232, 0.00228988, 0.00359533, 45.2259, 85.1173, 0, 0.00108406, 0.00142772, 0.00228051, 25.2906, 57.0702, 0, 0.00108455, -4.63921, -38.212, -212.501, -5.01107, -34.4667, -131.733, 0.00124315, 0.000606561, -0.00323084, 0.000793557, 0.000793557, 0.000793557
1098, 1,0.00119977, -0.000732189, 0.000517082, 9.96492, -45.0897, 0.00273466, 14.1949, 154.522, 0, 0.00104768, 0.00150065, 0.00264706, 14.0156, 76.5867, 0, 0.00104901, 0.000899601, 0.00161591, 5.92453, 48.791, 0, 0.00104948, -7.74581, -16.7531, -205.261, -6.33635, -11.8409, -128.196, 0.00104286, 0.000894058, -0.00317965, 0.000634947, 0.000634947, 0.000634947
1099, 1,0.00106794, -0.000720764, 0.000509536, 11.3607, -44.4136, 0.0024935, 13.4814, 140.213, 0, 0.00101388, 0.00136496, 0.00235507, 15.3379, 66.3375, 0, 0.0010151, 0.000771884, 0.00133969, 7.39817, 38.8658, 0, 0.00101555, -5.65707, -15.4165, -177.939, -4.41384, -9.10206, -103.082, 0.000925127, 0.000756144, -0.0027577, 0.000518799, 0.000518799, 0.000518799
1100, 1,0.00167753, -0.000866461, 0.000647297, 46.1285, -51.2759, 0.00241012, 5.78474, 144.645, 0, 0.000980722, 0.002097, 0.00299275, 55.7671, 58.8349, 0, 0.000982089, 0.00126457, 0.00172214, 36.9118, 31.4912, 0, 0.000982525, -2.82056, -33.3446, -140.34, -3.56148, -24.2214, -66.6908, 0.00086789, 0.000282049, -0.00210461, 0.000421628, 0.000421628, 0.000421628
1101, 1,0.00163635, -0.000799372, 0.000583964, 37.903, -48.0329, 0.00237788, 1.28556, 148.718, 0, 0.00108236, 0.00199935, 0.00303467, 45.0424, 66.775, 0, 0.0010838, 0.00127678, 0.00188081, 31.0052, 39.7305, 0, 0.00108427, -0.78542, -40.9932, -158.546, -0.893195, -29.7699, -88.5286, 0.00103578, 0.000256856, -0.00237616, 0.000607564, 0.000607564, 0.000607564
1102, 1,0.00107526, -0.000687566, 0.000475327, 15.9557, -42.5769, 0.00200671, 0.609878, 126.678, 0, 0.00104788, 0.00133783, 0.00229753, 18.5427, 60.393, 0, 0.00104901, 0.000812968, 0.00134791, 13.3761, 33.6627, 0, 0.00104946, 0.737354, -18.5564, -163.36, 0.808748, -8.92569, -92.8712, 0.000967324, 0.000595902, -0.00254319, 0.00054788, 0.00054788, 0.00054788
1103, 1,0.000973693, -0.000678603, 0.000469482, 14.1711, -42.1053, 0.00164184, -6.48546, 113.044, 0, 0.00101408, 0.00123379, 0.00210692, 16.6546, 56.4183, 0, 0.00101501, 0.00071376, 0.00116856, 11.6906, 29.773, 0, 0.00101545, 1.11328, -21.2075, -149.161, 0.969097, -10.1248, -80.1633, 0.000912238, 0.00047269, -0.00230041, 0.000489572, 0.000489572, 0.000489572
1104, 1,0.00144736, -0.00078261, 0.000571922, 38.7094, -47.0064, 0.00184536, 7.21762, 106.801, 0, 0.000980761, 0.0017976, 0.00257835, 45.3606, 53.4302, 0, 0.000981611, 0.0011056, 0.00146487, 32.5837, 26.8967, 0, 0.000982034, -2.77227, -45.272, -112.246, -3.6196, -29.498, -47.5726, 0.000784014, -5.77999E-05, -0.00159322, 0.000348249, 0.000348249, 0.000348249
1105, 1,0.00134518, -0.000732833, 0.000522526, 29.7823, -44.6368, 0.00234869, 25.1725, 114.953, 0, 0.00108258, 0.00165153, 0.00256392, 34.4926, 58.3879, 0, 0.00108357, 0.00104264, 0.00153408, 25.3494, 32.0286, 0, 0.00108403, -1.37528, -42.3814, -131.407, -1.59481, -28.0212, -66.4698, 0.000891618, 9.74207E-05, -0.0019365, 0.000471824, 0.000471824, 0.000471824
1106, 1,0.000880308, -0.000657865, 0.000448254, 12.5652, -41.0018, 0.00165669, 8.00294, 94.4318, 0, 0.00104822, 0.00111784, 0.00198457, 14.0861, 52.5081, 0, 0.00104894, 0.000643322, 0.00109048, 11.0963, 26.2296, 0, 0.00104938, 3.12554, -25.6598, -134.99, 2.68596, -12.9038, -68.4708, 0.000893671, 0.000320196, -0.00206591, 0.000470531, 0.000470531, 0.000470531
1107, 1,0.000836582, -0.000647568, 0.000442517, 13.3568, -40.3145, 0.00140955, 6.45739, 80.8293, 0, 0.00101434, 0.00107338, 0.00187083, 14.9993, 48.4876, 0, 0.00101487, 0.000600373, 0.000988454, 11.7759, 22.7003, 0, 0.0010153, 5.49707, -27.2444, -123.716, 4.71088, -14.1286, -58.6832, 0.000880284, 0.000218418, -0.00188552, 0.000457537, 0.000457537, 0.000457537
1108, 1,0.00121493, -0.000711295, 0.000509884, 31.505, -43.1568, 0.00193734, 34.1741, 76.5957, 0, 0.000980778, 0.00150733, 0.00223925, 35.8637, 47.1929, 0, 0.000981246, 0.000935338, 0.00126438, 27.9141, 21.943, 0, 0.000981648, 0.0235262, -47.4609, -94.1412, -0.78922, -31.1031, -33.9366, 0.000745344, -0.000200703, -0.00131046, 0.00033051, 0.00033051, 0.00033051
1109, 1,0.00106823, -0.000685599, 0.000479859, 15.6477, -42.1903, 0.00285593, 60.9157, 99.2788, 0, 0.00108203, 0.0013349, 0.00223628, 18.6903, 58.552, 0, 0.00108275, 0.000806841, 0.0012962, 12.9941, 32.8042, 0, 0.0010832, -3.07903, -49.6879, -122.889, -3.23367, -34.6048, -60.574, 0.00085814, -4.34665E-05, -0.00176479, 0.000449334, 0.000449334, 0.000449334
1110, 1,0.000793244, -0.000632134, 0.000429202, 6.34711, -39.3397, 0.00165597, 19.4314, 78.8805, 0, 0.00104791, 0.00101595, 0.00189813, 7.58867, 54.5156, 0, 0.00104833, 0.000573718, 0.00104995, 5.34043, 29.4621, 0, 0.00104875, 0.506215, -35.5114, -128.542, -0.122978, -23.1205, -65.1429, 0.000869882, 0.000150316, -0.00190482, 0.000462016, 0.000462016, 0.000462016
1111, 1,0.000753532, -0.000619401, 0.000423292, 6.63864, -38.4956, 0.00148943, 19.9853, 67.5729, 0, 0.00101392, 0.000978467, 0.00180099, 8.19658, 51.3169, 0, 0.00101419, 0.000530777, 0.000963038, 5.245, 26.8583, 0, 0.00101459, 1.92788, -35.6419, -120.237, 1.17451, -23.2196, -58.5298, 0.00084937, 9.11993E-05, -0.00177329, 0.000448236, 0.000448236, 0.000448236
1112, 1,0.000995654, -0.000655266, 0.000464562, 16.7794, -40.0438, 0.00247711, 68.1966, 65.3507, 0, 0.000980019, 0.00125581, 0.00201184, 20.0872, 51.4374, 0, 0.00098024, 0.000746738, 0.00112136, 14.1798, 27.454, 0, 0.000980621, -4.71687, -51.3349, -98.2606, -5.16828, -35.9815, -41.2122, 0.000711832, -0.000207516, -0.00133899, 0.00032458, 0.00032458, 0.00032458
1113, 1,0.000953875, -0.000647167, 0.000450727, 9.29821, -39.928, 0.0029378, 70.45, 91.9226, 0, 0.00108146, 0.00120182, 0.00209899, 11.9001, 58.5555, 0, 0.00108205, 0.00071061, 0.00121485, 7.05452, 34.0013, 0, 0.00108248, -3.53008, -50.2781, -121.858, -3.52575, -36.2214, -62.2567, 0.000847933, -5.39426E-05, -0.00174415, 0.000461275, 0.000461275, 0.000461275
1114, 1,0.000743716, -0.000599149, 0.000409001, 3.69556, -37.1813, 0.00131618, 2.77495, 79.8223, 0, 0.00104724, 0.000958668, 0.00181549, 5.18569, 53.9003, 0, 0.00104768, 0.000531098, 0.0010079, 2.37917, 30.4649, 0, 0.00104807, -0.745385, -38.6907, -122.265, -1.19057, -26.9123, -63.2919, 0.000833429, 7.49798E-05, -0.00178303, 0.000454929, 0.000454929, 0.000454929
1115, 1,0.000715181, -0.000583701, 0.000401252, 5.2579, -36.122, 0.0012277, 7.54065, 67.8189, 0, 0.00101322, 0.000930608, 0.00172474, 7.05438, 49.702, 0, 0.00101351, 0.000502602, 0.000933146, 3.66604, 27.0957, 0, 0.00101389, 0.724753, -37.2399, -112.591, 0.145217, -25.6442, -55.7882, 0.000798531, 3.30698E-05, -0.0016381, 0.000430256, 0.000430256, 0.000430256
1116, 1,0.000907057, -0.000608607, 0.000431644, 14.6232, -37.1383, 0.00269939, 85.1786, 56.9076, 0, 0.00097942, 0.00114914, 0.00185959, 17.7824, 47.4627, 0, 0.00097957, 0.000675158, 0.00103144, 12.1205, 25.3644, 0, 0.000979921, -3.30099, -48.4724, -90.6147, -3.62397, -34.4079, -38.0612, 0.000678854, -0.000209608, -0.00123941, 0.000324018, 0.000324018, 0.000324018
1117, 1,0.000894853, -0.000604772, 0.000422574, 11.9139, -37.2189, 0.00243129, 59.7831, 74.1581, 0, 0.00108112, 0.00113041, 0.00195299, 14.6506, 50.6973, 0, 0.00108153, 0.000662886, 0.00112088, 9.46044, 28.0063, 0, 0.00108193, 0.996764, -43.3992, -109.689, 0.950544, -30.0037, -54.9659, 0.000819443, -4.40386E-05, -0.00159805, 0.000461068, 0.000461068, 0.000461068
1118, 1,0.000717059, -0.000559161, 0.000384889, 6.13879, -34.5891, 0.00129154, 6.88443, 72.7523, 0, 0.00104681, 0.000922901, 0.00170905, 7.91161, 48.2421, 0, 0.00104723, 0.000514491, 0.000950659, 4.58085, 26.6972, 0, 0.0010476, 1.00869, -36.5589, -109.176, 0.709116, -25.0936, -55.707, 0.000781214, 2.78164E-05, -0.00159183, 0.000435569, 0.000435569, 0.000435569
1119, 1,0.000679463, -0.000540279, 0.000373236, 6.85739, -33.3694, 0.000978885, -0.885158, 63.2986, 0, 0.00101289, 0.00088214, 0.00160389, 8.76641, 44.4472, 0, 0.00101319, 0.000479516, 0.000866853, 5.14419, 23.7362, 0, 0.00101354, 1.61873, -34.646, -100.314, 1.2516, -23.2082, -49.252, 0.000734908, 3.81059E-06, -0.00145995, 0.000400992, 0.000400992, 0.000400992
1120, 1,0.000792029, -0.000556298, 0.000393906, 13.1124, -33.9701, 0.00224451, 71.3921, 46.6073, 0, 0.000979206, 0.00101729, 0.00167843, 16.2303, 41.3499, 0, 0.00097929, 0.000572071, 0.000908078, 10.3771, 21.1165, 0, 0.000979612, 0.281488, -40.9044, -83.4267, 0.0943407, -27.0602, -36.3837, 0.000658251, -0.000153126, -0.0011761, 0.000335674, 0.000335674, 0.000335674
1121, 1,0.000797167, -0.000557872, 0.000390156, 8.39014, -34.336, 0.00216612, 59.2415, 58.0785, 0, 0.00108119, 0.0010173, 0.00179007, 11.0995, 48.499, 0, 0.00108136, 0.000578798, 0.0010158, 5.84448, 27.5861, 0, 0.00108173, -0.501275, -42.0204, -102.975, -0.490903, -28.472, -53.7954, 0.000753362, -5.67715E-05, -0.00148357, 0.000424191, 0.000424191, 0.000424191
1122, 1,0.00067784, -0.000513774, 0.000354417, 6.11735, -31.8078, 0.00128755, 20.4032, 54.3415, 0, 0.00104705, 0.000870733, 0.00159696, 7.93888, 44.5455, 0, 0.00104722, 0.000486687, 0.000893112, 4.42892, 24.7183, 0, 0.00104755, 0.995514, -33.9203, -100.712, 0.925695, -22.3099, -52.7707, 0.000722803, 2.80643E-05, -0.00147369, 0.000409072, 0.000409072, 0.000409072
1123, 1,0.000648621, -0.000495549, 0.000342995, 6.75044, -30.6322, 0.00118906, 19.3504, 49.4557, 0, 0.00101304, 0.000836763, 0.0015044, 8.61596, 41.434, 0, 0.00101317, 0.000462316, 0.000823994, 5.03347, 22.4098, 0, 0.00101348, 0.760135, -32.684, -92.3782, 0.653642, -21.1772, -46.7057, 0.00066936, 1.21687E-06, -0.00134291, 0.000367531, 0.000367531, 0.000367531
1124, 1,0.00071728, -0.000510917, 0.000362514, 11.3075, -31.1848, 0.00201447, 64.7075, 40.9916, 0, 0.000979148, 0.000927171, 0.00153816, 14.3626, 38.2319, 0, 0.000979191, 0.000511044, 0.00082498, 8.53534, 19.7116, 0, 0.000979486, -0.086873, -39.2444, -75.3644, -0.119958, -25.42, -33.5948, 0.000601205, -0.000171706, -0.00104987, 0.000308865, 0.000308865, 0.000308865
1125, 1,0.000752086, -0.000515686, 0.000362239, 9.32492, -31.6857, 0.00171173, 37.2128, 58.8433, 0, 0.00108106, 0.000959349, 0.00166457, 12.0866, 43.7388, 0, 0.00108133, 0.000545993, 0.000944316, 6.68202, 24.5692, 0, 0.00108166, 0.260103, -39.9655, -91.5111, 0.325644, -26.3845, -47.6487, 0.000694734, -9.50205E-05, -0.00130945, 0.000394195, 0.000394195, 0.000394195
1126, 1,0.000648785, -0.00047481, 0.000329741, 7.20175, -29.3355, 0.00113652, 14.8391, 52.2605, 0, 0.00104701, 0.000831602, 0.00148424, 9.16466, 40.2468, 0, 0.00104721, 0.000467425, 0.000829872, 5.36642, 22.1089, 0, 0.00104752, 0.511542, -33.7264, -87.5254, 0.585768, -22.1433, -44.7692, 0.000644991, -3.48431E-05, -0.00126322, 0.000360915, 0.000360915, 0.000360915
1127, 1,0.000614973, -0.000456899, 0.000318358, 7.91002, -28.1776, 0.00109364, 17.1272, 46.4069, 0, 0.00101298, 0.000792296, 0.00139042, 9.8845, 36.7685, 0, 0.00101314, 0.000439723, 0.000760476, 6.10176, 19.4258, 0, 0.00101342, 0.839427, -32.1361, -79.0089, 0.904768, -20.7115, -38.4707, 0.0005975, -6.02821E-05, -0.00113384, 0.000325782, 0.000325782, 0.000325782
1128, 1,0.00067619, -0.00047055, 0.000336169, 12.0174, -28.6262, 0.00157665, 43.5843, 41.5753, 0, 0.00097896, 0.00087401, 0.00142358, 15.1489, 34.1298, 0, 0.000979078, 0.000481848, 0.000762598, 9.14899, 17.3362, 0, 0.000979345, 0.0962303, -37.9319, -64.5538, 0.155728, -24.2392, -27.925, 0.000540304, -0.000215434, -0.000878679, 0.000277104, 0.000277104, 0.000277104
1129, 1,0.000696514, -0.00047541, 0.000336336, 9.1874, -29.1156, 0.00137889, 20.5311, 60.0938, 0, 0.0010809, 0.000892412, 0.00153367, 12.0757, 39.9215, 0, 0.00108125, 0.000501676, 0.000864792, 6.41046, 22.5352, 0, 0.00108156, -0.0197378, -39.7892, -79.9556, 0.0633074, -26.2181, -41.4507, 0.000628741, -0.000156653, -0.00111988, 0.000356671, 0.000356671, 0.000356671
1130, 1,0.000602335, -0.000435719, 0.000304665, 7.34391, -26.8506, 0.00100591, 8.15503, 52.9527, 0, 0.00104685, 0.000774102, 0.00136041, 9.41846, 36.3473, 0, 0.00104713, 0.000432053, 0.000756273, 5.40221, 19.9224, 0, 0.00104741, 0.156346, -33.6035, -75.5946, 0.289527, -22.0409, -38.0159, 0.00057615, -9.47281E-05, -0.00107121, 0.000320302, 0.000320302, 0.000320302
1131, 1,0.000566487, -0.000418173, 0.000293457, 7.62689, -25.7139, 0.000926187, 9.36725, 46.2049, 0, 0.00101283, 0.000732794, 0.00126972, 9.71289, 33.3048, 0, 0.00101304, 0.000402252, 0.00068968, 5.70798, 17.6606, 0, 0.0010133, 0.0921861, -32.1885, -67.818, 0.237832, -20.8346, -32.3849, 0.00052712, -0.000117434, -0.000950105, 0.000283842, 0.000283842, 0.000283842
1132, 1,0.000629625, -0.000432061, 0.000311705, 12.0295, -26.1527, 0.00120262, 27.252, 39.7514, 0, 0.000978812, 0.000816987, 0.00131031, 15.312, 30.7115, 0, 0.000978955, 0.000445808, 0.000698398, 9.00854, 15.6577, 0, 0.000979195, -0.135377, -37.6852, -54.314, -0.0316496, -24.1102, -22.8314, 0.000481477, -0.000270288, -0.000709526, 0.000246603, 0.000246603, 0.000246603
1133, 1,0.000650781, -0.000436193, 0.000311439, 9.49621, -26.5983, 0.00126885, 18.3032, 56.0595, 0, 0.00108082, 0.000836225, 0.00141388, 12.555, 36.0253, 0, 0.00108118, 0.000466309, 0.000794459, 6.54401, 20.4226, 0, 0.00108145, -0.152338, -39.3751, -68.5485, -0.0603524, -25.8943, -35.3131, 0.000564609, -0.000212114, -0.000937062, 0.000320827, 0.000320827, 0.000320827
1134, 1,0.000559712, -0.000397321, 0.000280087, 7.46823, -24.3972, 0.000971939, 9.92315, 48.4071, 0, 0.00104678, 0.000720727, 0.00124551, 9.67167, 32.7172, 0, 0.00104705, 0.000400193, 0.00069052, 5.40017, 18.0091, 0, 0.0010473, -0.169203, -33.3666, -64.6159, -0.0188944, -21.9223, -32.086, 0.000512156, -0.000147807, -0.000895235, 0.000283706, 0.000283706, 0.000283706
1135, 1,0.000528632, -0.000380357, 0.000269307, 7.90331, -23.2927, 0.000872481, 10.4502, 41.3381, 0, 0.00101275, 0.000684407, 0.00116167, 10.122, 29.7626, 0, 0.00101294, 0.00037498, 0.000630115, 5.85528, 15.8187, 0, 0.00101317, -0.246384, -31.84, -57.2013, -0.0725001, -20.6469, -26.7365, 0.000464164, -0.000167025, -0.000780078, 0.000248254, 0.000248254, 0.000248254
1136, 1,0.000598938, -0.000395172, 0.00028875, 12.7958, -23.7591, 0.00105273, 23.8258, 34.8054, 0, 0.000978724, 0.000777223, 0.00121219, 16.2932, 27.1184, 0, 0.000978847, 0.000424251, 0.000646367, 9.55991, 13.8013, 0, 0.000979058, -0.251215, -37.0676, -44.0363, -0.127275, -23.6693, -17.6072, 0.000422377, -0.000317406, -0.000545002, 0.000215274, 0.000215274, 0.000215274
1137, 1,0.000610547, -0.000398131, 0.000287649, 9.95058, -24.1321, 0.00122002, 20.2715, 50.2938, 0, 0.00108076, 0.000786643, 0.00130102, 13.232, 32.0993, 0, 0.00108108, 0.000435297, 0.000728708, 6.76673, 18.2806, 0, 0.00108133, -0.198065, -38.6522, -57.4477, -0.10547, -25.3121, -29.4244, 0.000501845, -0.000261014, -0.000761693, 0.000286174, 0.000286174, 0.000286174
1138, 1,0.000522059, -0.00035963, 0.000256175, 7.80065, -21.9684, 0.000956141, 13.6537, 42.3849, 0, 0.00104672, 0.000673072, 0.00113764, 10.1734, 29.0246, 0, 0.00104695, 0.000372443, 0.000630107, 5.55628, 16.0444, 0, 0.00104717, -0.284043, -32.6635, -54.1263, -0.141516, -21.4056, -26.5861, 0.000451619, -0.000192681, -0.000729904, 0.000250216, 0.000250216, 0.000250216
1139, 1,0.000494843, -0.000343358, 0.000245944, 8.34579, -20.9022, 0.00085894, 14.4619, 35.0949, 0, 0.00101268, 0.000640951, 0.00105949, 10.742, 26.1563, 0, 0.00101283, 0.000350812, 0.000574499, 6.1162, 13.9236, 0, 0.00101303, -0.359773, -31.1091, -47.0001, -0.188064, -20.1252, -21.4575, 0.000404959, -0.000210073, -0.000619308, 0.000215945, 0.000215945, 0.000215945
1140, 1,0.000576032, -0.000359969, 0.000267417, 13.8159, -21.4451, 0.00101473, 26.8906, 28.266, 0, 0.000978648, 0.000746748, 0.00112319, 17.5977, 23.4874, 0, 0.000978723, 0.000408997, 0.000600332, 10.2976, 11.9047, 0, 0.000978907, -0.303708, -36.3269, -33.8318, -0.173833, -23.1391, -12.4013, 0.000364033, -0.000361608, -0.000383537, 0.000184364, 0.000184364, 0.000184364
1141, 1,0.000576376, -0.000361584, 0.000265317, 10.6432, -21.7362, 0.00116312, 21.7274, 44.7169, 0, 0.00108071, 0.000744521, 0.00119583, 14.2098, 28.1683, 0, 0.001081, 0.00040895, 0.000667726, 7.16396, 16.1282, 0, 0.00108121, -0.214901, -37.6928, -46.5971, -0.123917, -24.5483, -23.7122, 0.000439593, -0.000305401, -0.000591267, 0.000251898, 0.000251898, 0.000251898
1142, 1,0.000488981, -0.000323022, 0.000233336, 8.3702, -19.5866, 0.000915015, 15.8277, 36.8547, 0, 0.00104665, 0.00063108, 0.00103566, 10.9638, 25.2841, 0, 0.00104685, 0.000348156, 0.000573362, 5.89484, 14.035, 0, 0.00104704, -0.298238, -31.691, -43.863, -0.170358, -20.6756, -21.2589, 0.000392438, -0.000233436, -0.000569273, 0.000217985, 0.000217985, 0.000217985
1143, 1,0.000466213, -0.000307519, 0.000223734, 9.03262, -18.5629, 0.000827056, 17.1546, 29.462, 0, 0.00101261, 0.000603833, 0.000964113, 11.6627, 22.5272, 0, 0.00101272, 0.000330588, 0.000523271, 6.56147, 12.0085, 0, 0.00101289, -0.389089, -30.1376, -37.0548, -0.228636, -19.4152, -16.3818, 0.000347176, -0.000249146, -0.000463561, 0.000184913, 0.000184913, 0.000184913
1144, 1,0.00056002, -0.000326483, 0.000247745, 15.0996, -19.2132, 0.000992439, 30.2428, 22.3546, 0, 0.00097857, 0.000724826, 0.00104309, 19.2428, 19.8604, 0, 0.00097861, 0.000398912, 0.000559691, 11.2178, 10.0066, 0, 0.000978766, -0.32319, -35.3791, -23.879, -0.192421, -22.4427, -7.38454, 0.000306463, -0.000401576, -0.000227144, 0.000154033, 0.000154033, 0.000154033
1145, 1,0.000548038, -0.000326837, 0.000244737, 11.602, -19.4261, 0.00110884, 23.1583, 39.3436, 0, 0.00108064, 0.000709931, 0.00109832, 15.5311, 24.2354, 0, 0.0010809, 0.000386745, 0.000610936, 7.7499, 13.9681, 0, 0.00108108, -0.213438, -36.5372, -35.9554, -0.124694, -23.6402, -18.1395, 0.000377681, -0.00034593, -0.000425007, 0.000217857, 0.000217857, 0.000217857
1146, 1,0.000460809, -0.000287833, 0.000211924, 9.18908, -17.2703, 0.000870728, 17.6335, 31.6189, 0, 0.00104658, 0.000595451, 0.000940068, 12.0728, 21.5265, 0, 0.00104675, 0.0003273, 0.000520101, 6.41207, 12.0098, 0, 0.00104691, -0.282874, -30.5236, -33.7729, -0.170056, -19.7999, -16.0593, 0.000333603, -0.000270736, -0.000412164, 0.00018611, 0.00018611, 0.00018611
1147, 1,0.00044339, -0.000273197, 0.000203053, 10.0203, -16.2943, 0.000797158, 19.6873, 24.1687, 0, 0.00101254, 0.000574087, 0.000876023, 12.959, 18.8678, 0, 0.00101262, 0.000314586, 0.000476204, 7.23153, 10.0649, 0, 0.00101277, -0.376048, -28.9723, -27.2551, -0.228592, -18.5582, -11.408, 0.000289822, -0.000284941, -0.000311034, 0.0001543, 0.0001543, 0.0001543
1148, 1,0.000551927, -0.000295054, 0.000230086, 16.7548, -17.081, 0.00099183, 34.3655, 16.7896, 0, 0.000978494, 0.000712836, 0.00097298, 21.3532, 16.2253, 0, 0.000978503, 0.000394688, 0.000524885, 12.4134, 8.09547, 0, 0.000978632, -0.323817, -34.2556, -14.0964, -0.19399, -21.6173, -2.47512, 0.000249178, -0.000438044, -7.44028E-05, 0.000123872, 0.000123872, 0.000123872
1149, 1,0.000526328, -0.000294256, 0.00022628, 12.8651, -17.2199, 0.00106566, 25.1987, 33.8562, 0, 0.00108058, 0.000684029, 0.00100969, 17.2512, 20.313, 0, 0.00108082, 0.000369116, 0.000558822, 8.54607, 11.8131, 0, 0.00108097, -0.209223, -35.2213, -25.5086, -0.122701, -22.6197, -12.6969, 0.000315988, -0.000383111, -0.000262488, 0.000183947, 0.000183947, 0.000183947
1150, 1,0.000438832, -0.000254524, 0.000192403, 10.3136, -15.0428, 0.00083533, 19.9314, 26.2856, 0, 0.00104651, 0.000567921, 0.00085248, 13.5773, 17.7575, 0, 0.00104666, 0.000310733, 0.000471051, 7.14485, 9.97304, 0, 0.00104679, -0.258138, -29.2001, -23.8142, -0.158425, -18.8108, -10.9499, 0.000274779, -0.000305153, -0.000257765, 0.000154286, 0.000154286, 0.000154286
1151, 1,0.000427604, -0.000240883, 0.000184394, 11.3524, -14.1211, 0.000781513, 22.9349, 18.8186, 0, 0.00101246, 0.000553428, 0.000796905, 14.697, 15.1986, 0, 0.00101251, 0.000303556, 0.000434022, 8.14788, 8.11172, 0, 0.00101263, -0.357245, -27.6612, -17.5773, -0.221291, -17.596, -6.51786, 0.000232441, -0.000318007, -0.000161047, 0.000123695, 0.000123695, 0.000123695
1152, 1,0.0005524, -0.000266063, 0.000214831, 18.8105, -15.0669, 0.00101768, 39.7114, 11.2619, 0, 0.000978416, 0.000711837, 0.000914009, 23.9781, 12.5993, 0, 0.000978395, 0.000396547, 0.000496245, 13.893, 6.18905, 0, 0.000978497, -0.321796, -32.9911, -4.48493, -0.19344, -20.6934, 2.31972, 0.000192098, -0.000471435, 7.49066E-05, 9.38358E-05, 9.38358E-05, 9.38358E-05
1153, 1,0.000512665, -0.000264291, 0.000210396, 14.5008, -15.1391, 0.00103433, 27.871, 28.2712, 0, 0.00108053, 0.000668681, 0.000931776, 19.4597, 16.4004, 0, 0.00108074, 0.000357051, 0.000512357, 9.60072, 9.6623, 0, 0.00108085, -0.202591, -33.7626, -15.2361, -0.118239, -21.501, -7.36768, 0.000254495, -0.00041733, -0.000103289, 0.000150152, 0.000150152, 0.000150152
1154, 1,0.000424853, -0.000223687, 0.000175366, 11.8211, -12.9326, 0.000813207, 22.9279, 20.856, 0, 0.00104646, 0.000550874, 0.000775269, 15.5821, 13.9841, 0, 0.00104657, 0.000299688, 0.000427439, 8.14383, 7.93157, 0, 0.00104668, -0.236089, -27.7444, -13.972, -0.146995, -17.7277, -5.92, 0.000215826, -0.000337036, -0.000105702, 0.000122379, 0.000122379, 0.000122379
1155, 1,0.000420909, -0.000211209, 0.00016839, 13.1205, -12.0736, 0.000785233, 27.1222, 13.4353, 0, 0.00101239, 0.000544541, 0.000729438, 16.9984, 11.5239, 0, 0.00101242, 0.000298928, 0.00039815, 9.37279, 6.15313, 0, 0.00101251, -0.33995, -26.2248, -8.00692, -0.213331, -16.5452, -1.70085, 0.000174942, -0.000348654, -1.32729E-05, 9.3019E-05, 9.3019E-05, 9.3019E-05
1156, 1,0.00056284, -0.000239971, 0.000202446, 21.3396, -13.1931, 0.00106858, 46.1745, 5.82395, 0, 0.000978351, 0.000723705, 0.000868004, 27.2131, 8.97851, 0, 0.000978301, 0.000405413, 0.00047465, 15.7067, 4.28392, 0, 0.000978376, -0.316309, -31.6015, 4.98226, -0.18975, -19.6845, 7.02253, 0.000135175, -0.00050215, 0.000221296, 6.38874E-05, 6.38874E-05, 6.38874E-05
1157, 1,0.000508783, -0.000237442, 0.000197587, 16.5885, -13.2077, 0.00101781, 31.3215, 22.5811, 0, 0.00108046, 0.000666112, 0.000866802, 22.2592, 12.4979, 0, 0.00108064, 0.000351794, 0.000472776, 10.9704, 7.51628, 0, 0.00108072, -0.195137, -32.18, -5.11869, -0.112899, -20.2992, -2.13677, 0.000193174, -0.000448943, 5.29692E-05, 0.000116446, 0.000116446, 0.000116446
1158, 1,0.000421216, -0.000196055, 0.000161541, 13.8199, -10.9749, 0.000809834, 26.8673, 15.3501, 0, 0.00104638, 0.000547369, 0.00071149, 18.2294, 10.207, 0, 0.00104646, 0.000295804, 0.000390899, 9.48434, 5.88581, 0, 0.00104654, -0.217613, -26.1741, -4.22933, -0.136671, -16.5647, -0.956089, 0.000156734, -0.000366703, 4.43472E-05, 9.03756E-05, 9.03756E-05, 9.03756E-05
1159, 1,0.000425756, -0.000184952, 0.000155816, 15.4403, -10.1893, 0.000814217, 32.5101, 8.04288, 0, 0.00101231, 0.000550644, 0.00067683, 20.0154, 7.84381, 0, 0.00101231, 0.00030239, 0.000370266, 10.986, 4.18924, 0, 0.00101237, -0.32551, -24.6808, 1.47489, -0.205972, -15.4198, 3.0581, 0.000117294, -0.00037721, 0.000132644, 6.22442E-05, 6.22442E-05, 6.22442E-05
1160, 1,0.000584377, -0.000217245, 0.000193398, 24.3968, -11.4819, 0.00114436, 53.7341, 0.49161, 0, 0.00097826, 0.000750048, 0.000836577, 31.1358, 5.36469, 0, 0.000978183, 0.000421942, 0.000460763, 17.8866, 2.3818, 0, 0.00097823, -0.309801, -30.1066, 14.3223, -0.185148, -18.606, 11.6457, 7.83815E-05, -0.000530548, 0.000365127, 3.40044E-05, 3.40044E-05, 3.40044E-05
1161, 1,0.000516595, -0.00021421, 0.000188356, 19.2173, -11.4502, 0.00101977, 35.7181, 16.7933, 0, 0.00108039, 0.000678735, 0.000817166, 25.7625, 8.6044, 0, 0.00108053, 0.000354765, 0.000441488, 12.7212, 5.37408, 0, 0.00108059, -0.186349, -30.4905, 4.86366, -0.106259, -19.028, 3.01197, 0.000132019, -0.000478284, 0.000206643, 8.28238E-05, 8.28238E-05, 8.28238E-05
1162, 1,0.000430594, -0.000172438, 0.000151744, 16.4355, -9.20891, 0.000830901, 32.0019, 9.79025, 0, 0.0010463, 0.000560877, 0.000664611, 21.6828, 6.42567, 0, 0.00104636, 0.000300968, 0.000363313, 11.2552, 3.83543, 0, 0.00104641, -0.202689, -24.5071, 5.43274, -0.127497, -15.3355, 3.95675, 9.74935E-05, -0.000394494, 0.000192736, 5.82697E-05, 5.82697E-05, 5.82697E-05
1163, 1,0.000444635, -0.000162933, 0.000147497, 18.4309, -8.50771, 0.000872755, 39.2824, 2.66636, 0, 0.00101224, 0.000575042, 0.00064238, 23.9061, 4.15815, 0, 0.00101221, 0.000315625, 0.00035205, 13.0684, 2.21996, 0, 0.00101224, -0.314174, -23.0468, 10.8865, -0.199514, -14.2334, 7.77307, 5.94887E-05, -0.000404006, 0.000277051, 3.13606E-05, 3.13606E-05, 3.13606E-05
1164, 1,0.000617837, -0.000198282, 0.000188085, 28.0239, -9.95201, 0.00124313, 62.2906, -4.72352, 0, 0.000978188, 0.000792085, 0.000820925, 35.8069, 1.75599, 0, 0.000978085, 0.000446579, 0.000455013, 20.4563, 0.481121, 0, 0.000978105, -0.301685, -28.5222, 23.556, -0.179059, -17.4699, 16.2056, 2.16999E-05, -0.000556968, 0.000506784, 4.17302E-06, 4.17302E-06, 4.17302E-06
1165, 1,0.000537899, -0.00019501, 0.000183116, 22.4707, -9.88678, 0.00104475, 41.2749, 10.909, 0, 0.00108033, 0.000708758, 0.00078507, 30.0728, 4.71968, 0, 0.00108044, 0.000367361, 0.000419887, 14.918, 3.23545, 0, 0.00108046, -0.176353, -28.7125, 14.7298, -0.0983757, -17.7018, 8.09383, 7.1023E-05, -0.000505693, 0.000358084, 4.92785E-05, 4.92785E-05, 4.92785E-05
1166, 1,0.000455576, -0.000153576, 0.000146711, 19.7903, -7.66999, 0.000881915, 38.5862, 4.18422, 0, 0.00104623, 0.000594715, 0.000637938, 26.0991, 2.63961, 0, 0.00104626, 0.000317051, 0.000346547, 13.545, 1.78001, 0, 0.00104628, -0.191108, -22.7606, 15.0329, -0.119345, -14.0539, 8.83325, 3.81024E-05, -0.000420742, 0.000339809, 2.6057E-05, 2.6057E-05, 2.6057E-05
1167, 1,0.000479521, -0.000145833, 0.000144111, 22.1876, -7.06117, 0.000962681, 47.5205, -2.68773, 0, 0.00101215, 0.000620379, 0.000628725, 28.7973, 0.466175, 0, 0.0010121, 0.000339954, 0.000344815, 15.6844, 0.244681, 0, 0.00101211, -0.305617, -21.3396, 20.2467, -0.193698, -12.9991, 12.4588, 1.51893E-06, -0.000429374, 0.000420296, 3.63467E-07, 3.63467E-07, 3.63467E-07
1168, 1,0.000663458, 0.000190169, 0.000186742, 32.2328, 9.25802, 0.00136186, 71.703, -9.8241, 0, 0.000978114, 0.00085027, 0.000821494, 41.2485, -1.84816, 0, 0.000977987, 0.000479371, 0.000457438, 23.4184, -1.41846, 0, 0.00097798, -0.292183, -26.8659, 32.7026, -0.171737, -16.2898, 20.7169, -3.48836E-05, -0.00058176, 0.000646641, -2.56174E-05, -2.56174E-05, -2.56174E-05
1169, 1,0.000573978, 0.00018411, 0.000182083, 26.4092, 8.91077, 0.00109733, 48.2052, 4.93194, 0, 0.00108026, 0.000757672, 0.000771998, 35.2609, 0.843035, 0, 0.00108033, 0.000390656, 0.000409038, 17.6109, 1.09988, 0, 0.00108033, -0.16505, -26.863, 24.499, -0.089291, -16.3342, 13.1239, 1.01796E-05, -0.000531493, 0.000507632, 1.58047E-05, 1.58047E-05, 1.58047E-05
1170, 1,0.000497886, 0.000153835, 0.000146859, 23.966, 7.68584, 0.000966585, 46.7929, -1.46456, 0, 0.00104616, 0.000651017, 0.000633601, 31.5795, -1.15166, 0, 0.00104616, 0.000345374, 0.000341916, 16.4166, -0.280845, 0, 0.00104614, -0.182753, -20.9522, 24.5899, -0.112166, -12.7334, 13.6881, -2.14455E-05, -0.000445776, 0.00048591, -6.26828E-06, -6.26828E-06, -6.26828E-06
1171, 1,0.000531144, 0.000157953, 0.000145943, 26.7452, 8.11142, 0.00108256, 57.1553, -8.01816, 0, 0.00101208, 0.000687656, 0.000636858, 34.7367, -3.23249, 0, 0.001012, 0.000375848, 0.00034903, 18.857, -1.7369, 0, 0.00101198, -0.299743, -19.5765, 29.5737, -0.188523, -11.7301, 17.1293, -5.6619E-05, -0.000453647, 0.000562722, -3.07521E-05, -3.07521E-05, -3.07521E-05
1172, 1,0.000720822, 0.000206397, 0.000189368, 37.0028, 10.6637, 0.00149684, 81.8, -14.815, 0, 0.000978043, 0.000924158, 0.000837823, 47.4384, -5.44863, 0, 0.000977894, 0.000519954, 0.000467665, 26.7554, -3.31759, 0, 0.000977861, -0.281274, -25.1543, 41.7815, -0.163159, -15.0782, 25.1941, -9.13821E-05, -0.000605265, 0.000785066, -5.53766E-05, -5.53766E-05, -5.53766E-05
1173, 1,0.000625179, 0.00020111, 0.000185201, 31.0503, 10.3588, 0.00118105, 56.6734, -1.132, 0, 0.00108019, 0.00082577, 0.000778235, 41.3422, -3.02573, 0, 0.00108022, 0.00042506, 0.000409346, 20.8199, -1.03289, 0, 0.00108019, -0.152616, -24.9596, 34.1894, -0.0790339, -14.939, 18.1168, -5.05221E-05, -0.00055601, 0.000655627, -1.76063E-05, -1.76063E-05, -1.76063E-05
1174, 1,0.000557663, 0.000172926, 0.000152097, 28.9697, 9.23422, 0.00108537, 56.642, -7.15395, 0, 0.00104609, 0.000729833, 0.000651645, 38.1271, -4.94845, 0, 0.00104605, 0.00038616, 0.000349637, 19.8812, -2.34744, 0, 0.00104601, -0.177815, -19.0986, 34.1217, -0.10611, -11.3872, 18.5356, -8.11585E-05, -0.000469922, 0.000631377, -3.87134E-05, -3.87134E-05, -3.87134E-05
1175, 1,0.000598652, 0.000178501, 0.000152743, 32.0626, 9.72719, 0.0012283, 67.9955, -13.3273, 0, 0.00101201, 0.000775762, 0.000665665, 41.6705, -6.93835, 0, 0.0010119, 0.000422718, 0.000364098, 22.5576, -3.72523, 0, 0.00101185, -0.296457, -17.7736, 38.8852, -0.183938, -10.4387, 21.7983, -0.000114931, -0.000477146, 0.000704664, -6.19918E-05, -6.19918E-05, -6.19918E-05
1176, 1,0.000788926, 0.000226331, 0.000195722, 42.2847, 12.2444, 0.00164439, 92.4115, -19.7027, 0, 0.000977963, 0.00101247, 0.000868627, 54.3142, -9.04628, 0, 0.000977794, 0.000567614, 0.000484973, 30.4319, -5.21683, 0, 0.000977733, -0.268705, -23.4032, 50.8108, -0.153234, -13.8471, 29.6509, -0.000147804, -0.000627809, 0.000922407, -8.51112E-05, -8.51112E-05, -8.51112E-05
1177, 1,0.000690739, 0.000221902, 0.000192146, 36.3605, 11.9867, 0.00129745, 66.7488, -7.27806, 0, 0.00108012, 0.000911971, 0.000802689, 48.2686, -6.88736, 0, 0.00108012, 0.000470122, 0.000420354, 24.5254, -3.16327, 0, 0.00108005, -0.139119, -23.0187, 43.8199, -0.0677793, -13.5291, 23.0867, -0.000111091, -0.000579555, 0.000802402, -5.09611E-05, -5.09611E-05, -5.09611E-05
1178, 1,0.000633343, 0.000196555, 0.00016186, 34.728, 10.9994, 0.0012352, 67.9904, -12.8869, 0, 0.00104603, 0.000829047, 0.00068994, 45.6422, -8.75121, 0, 0.00104596, 0.000438394, 0.000368686, 23.8906, -4.42015, 0, 0.00104589, -0.176467, -17.216, 43.6461, -0.101299, -10.0276, 23.3894, -0.000141048, -0.00049349, 0.00077654, -7.12866E-05, -7.12866E-05, -7.12866E-05
1179, 1,0.000679934, 0.000203357, 0.000163834, 38.038, 11.5483, 0.00139458, 79.7953, -18.6231, 0, 0.00101195, 0.000881911, 0.000712348, 49.4648, -10.6517, 0, 0.00101182, 0.000479127, 0.000388577, 26.7163, -5.72052, 0, 0.00101173, -0.29593, -15.9468, 48.198, -0.180185, -9.13716, 26.4789, -0.000173424, -0.000500177, 0.000846444, -9.33633E-05, -9.33633E-05, -9.33633E-05
1180, 1,0.000866378, 0.000249543, 0.000205377, 48.0107, 13.9794, 0.00180129, 103.396, -24.4989, 0, 0.000977895, 0.00111338, 0.000912063, 61.7866, -12.6417, 0, 0.000977707, 0.000621418, 0.000508421, 34.4021, -7.11658, 0, 0.00097762, -0.254465, -21.6274, 59.8068, -0.141997, -12.6078, 34.0995, -0.000204156, -0.000649681, 0.00105897, -0.000114827, -0.000114827, -0.000114827
1181, 1,0.000768991, 0.000245978, 0.000202412, 42.2647, 13.7702, 0.00144566, 78.3843, -13.4997, 0, 0.00108003, 0.00101411, 0.000843189, 55.942, -10.7429, 0, 0.00107999, 0.000524652, 0.000440862, 28.6738, -5.29221, 0, 0.00107989, -0.124023, -21.0557, 53.4085, -0.0549964, -12.1162, 28.0478, -0.000171533, -0.00060242, 0.000948272, -8.4262E-05, -8.4262E-05, -8.4262E-05
1182, 1,0.000722296, 0.000223903, 0.000175327, 41.1178, 12.942, 0.00141045, 80.5738, -18.6659, 0, 0.00104594, 0.000945224, 0.000745039, 53.9637, -12.5609, 0, 0.00104584, 0.000500234, 0.000397214, 28.3584, -6.49973, 0, 0.00104574, -0.178733, -15.3195, 53.181, -0.0976661, -8.66633, 28.2632, -0.000201126, -0.000516775, 0.000921721, -0.000103996, -0.000103996, -0.000103996
1183, 1,0.000772347, 0.000231666, 0.000178358, 44.5453, 13.5335, 0.00157582, 92.2995, -23.9161, 0, 0.00101187, 0.00100261, 0.00077341, 57.9529, -14.3735, 0, 0.00101171, 0.000543274, 0.000420656, 31.2469, -7.72368, 0, 0.0010116, -0.297877, -14.1101, 57.5286, -0.176819, -7.83596, 31.1838, -0.000232107, -0.000523019, 0.000988361, -0.000124871, -0.000124871, -0.000124871
1184, 1,0.000951643, 0.000275516, 0.000217813, 54.1061, 15.8438, 0.00196529, 114.657, -29.219, 0, 0.000977817, 0.00122482, 0.000966071, 69.7558, -16.2348, 0, 0.000977611, 0.000680353, 0.000536998, 38.6166, -9.01685, 0, 0.000977496, -0.238512, -19.841, 68.7838, -0.129475, -11.3711, 38.5511, -0.000260439, -0.000671155, 0.00119503, -0.000144526, -0.000144526, -0.000144526
1185, 1,0.000857776, 0.000272769, 0.000215426, 48.6632, 15.6819, 0.00162357, 91.4951, -19.8168, 0, 0.00107995, 0.00112949, 0.000897029, 64.2367, -14.5912, 0, 0.00107986, 0.000587027, 0.000469252, 33.1904, -7.41837, 0, 0.00107974, -0.10901, -19.089, 62.9716, -0.0422174, -10.7144, 33.0117, -0.000231858, -0.00062492, 0.00109354, -0.000117517, -0.000117517, -0.000117517
1186, 1,0.000821628, 0.000254133, 0.000191658, 48.0038, 15.0217, 0.00160362, 94.045, -24.4998, 0, 0.00104587, 0.00107465, 0.000813224, 62.9176, -16.3781, 0, 0.00104573, 0.000569598, 0.000433138, 33.1875, -8.58654, 0, 0.0010456, -0.184194, -13.4246, 62.743, -0.0945472, -7.31528, 33.1695, -0.000261389, -0.000540065, 0.00106721, -0.00013683, -0.00013683, -0.00013683
1187, 1,0.000873327, 0.000262611, 0.0001955, 51.4619, 15.6436, 0.001766, 105.235, -29.2205, 0, 0.0010118, 0.0011345, 0.00084549, 66.9739, -18.1023, 0, 0.00101162, 0.000613391, 0.000458584, 36.0645, -9.73339, 0, 0.00101148, -0.303583, -12.2799, 66.8905, -0.174711, -6.54832, 35.9232, -0.000290986, -0.000545953, 0.00113068, -0.000156514, -0.000156514, -0.000156514
1188, 1,0.00104319, 0.000303718, 0.000232502, 60.4984, 17.812, 0.0021358, 126.214, -33.9225, 0, 0.000977761, 0.00134474, 0.0010286, 78.1237, -19.8255, 0, 0.000977537, 0.000743411, 0.000569701, 43.0279, -10.918, 0, 0.000977396, -0.220229, -18.0565, 77.7531, -0.114875, -10.1464, 43.0151, -0.000316638, -0.000692439, 0.00133078, -0.000174198, -0.000174198, -0.000174198
1189, 1,0.000955003, 0.000301709, 0.000230622, 55.4639, 17.6947, 0.00182839, 105.89, -26.1504, 0, 0.00107987, 0.00125547, 0.000961526, 73.0351, -18.4404, 0, 0.00107973, 0.000655675, 0.000503909, 38.0072, -9.54971, 0, 0.00107958, -0.0859714, -17.1253, 72.5326, -0.021681, -9.32734, 37.9982, -0.000292024, -0.000647304, 0.00123855, -0.000150683, -0.000150683, -0.000150683
1190, 1,0.000928809, 0.000286521, 0.000210126, 55.2709, 17.2038, 0.00180496, 107.801, -30.1982, 0, 0.00104579, 0.00121408, 0.000891213, 72.3548, -20.2094, 0, 0.00104562, 0.00064465, 0.000474591, 38.2949, -10.6868, 0, 0.00104546, -0.186726, -11.5369, 72.3518, -0.0859932, -5.97786, 38.1243, -0.000321812, -0.000563562, 0.0012133, -0.000169758, -0.000169758, -0.000169758
1191, 1,0.000980755, 0.000295515, 0.000214576, 58.6946, 17.8459, 0.0019578, 118.146, -34.3893, 0, 0.00101172, 0.00127478, 0.000925755, 76.4029, -21.8487, 0, 0.00101152, 0.000688015, 0.000500855, 41.1063, -11.7599, 0, 0.00101135, -0.302606, -10.4566, 76.3052, -0.162953, -5.27243, 40.7151, -0.000350009, -0.000569122, 0.00127366, -0.000188227, -0.000188227, -0.000188227
1192, 1,0.00113967, 0.000333654, 0.000248955, 67.1221, 19.86, 0.00231474, 138.131, -38.5755, 0, 0.00097771, 0.00147129, 0.00109786, 86.8016, -23.4109, 0, 0.00097747, 0.000809722, 0.000605679, 47.5934, -12.8181, 0, 0.000977302, -0.201652, -16.2894, 86.7239, -0.0995964, -8.94614, 47.5001, -0.000372758, -0.000713771, 0.00146641, -0.000203848, -0.000203848, -0.000203848
1193, 1,0.00105886, 0.000332316, 0.000247519, 62.571, 19.7854, 0.00206547, 121.82, -32.4975, 0, 0.00107977, 0.00138976, 0.00103444, 82.2189, -22.281, 0, 0.00107959, 0.000729238, 0.000543508, 43.0498, -11.6768, 0, 0.00107941, -0.0665249, -15.1923, 82.1017, -0.00508803, -7.97697, 43.0125, -0.000352115, -0.000670065, 0.00138372, -0.000183853, -0.000183853, -0.000183853
1194, 1,0.00104175, 0.00032049, 0.000230157, 62.8167, 19.46, 0.00200555, 121.245, -35.5199, 0, 0.00104571, 0.00136087, 0.000976531, 82.1462, -24.0585, 0, 0.00104551, 0.000723865, 0.000520216, 43.6045, -12.804, 0, 0.00104532, -0.165832, -9.67372, 82.015, -0.052344, -4.66898, 43.1334, -0.000382014, -0.000587781, 0.00136018, -0.000202417, -0.000202417, -0.000202417
1195, 1,0.00109297, 0.000329858, 0.000235068, 66.1497, 20.1155, 0.00214536, 130.562, -39.16, 0, 0.00101165, 0.00142129, 0.00101222, 86.1222, -25.5991, 0, 0.00101143, 0.000765992, 0.000546501, 46.3025, -13.7893, 0, 0.00101124, -0.298049, -8.67619, 85.7715, -0.145058, -4.0424, 45.5552, -0.000409036, -0.000593127, 0.00141755, -0.00021987, -0.00021987, -0.00021987
1196, 1,0.00124, 0.000364885, 0.000266739, 73.9345, 21.9671, 0.0025134, 151.033, -43.2994, 0, 0.000977665, 0.00160298, 0.00117228, 95.7267, -27.0031, 0, 0.000977406, 0.000878593, 0.000644184, 52.2893, -14.7302, 0, 0.000977212, -0.169354, -14.538, 95.7167, -0.0699267, -7.76609, 52.0265, -0.000428708, -0.000735264, 0.00160214, -0.000233397, -0.000233397, -0.000233397
1197, 1,0.00116963, 0.000364122, 0.000265648, 70.0001, 21.9321, 0.00233517, 138.548, -37.8336, 0, 0.00107967, 0.00153224, 0.00111515, 91.7851, -26.1739, 0, 0.00107947, 0.000808387, 0.000588238, 48.3498, -13.8591, 0, 0.00107925, -0.00422975, -13.2568, 91.7827, 0.0515158, -6.63438, 48.1602, -0.000412119, -0.000694301, 0.00153113, -0.000217037, -0.000217037, -0.000217037
1198, 1,0.00115866, 0.000355471, 0.000251187, 70.5378, 21.7633, 0.00220058, 132.878, -38.7457, 0, 0.00104559, 0.00151269, 0.00106689, 92.1655, -27.9703, 0, 0.00104541, 0.000805914, 0.000568695, 49.032, -14.9802, 0, 0.00104519, -0.0474703, -7.76496, 91.7233, 0.0746354, -3.33151, 48.1975, -0.000441164, -0.000612838, 0.00150786, -0.000234051, -0.000234051, -0.000234051
1199, 1,0.00120881, 0.000365116, 0.000256461, 73.8003, 22.4277, 0.00232963, 141.324, -41.8991, 0, 0.00101156, 0.00157239, 0.00110319, 96.0848, -29.4554, 0, 0.00101135, 0.00084655, 0.000594684, 51.6417, -15.9205, 0, 0.00101113, -0.154057, -6.82767, 95.348, 0.0110356, -2.7609, 50.5114, -0.000466791, -0.000618066, 0.00156282, -0.000250204, -0.000250204, -0.000250204
1200, 1,0.0013444, 0.000397131, 0.000285569, 80.8881, 24.1208, 0.00274007, 164.554, -47.0628, 0, 0.000977616, 0.00173975, 0.00125181, 104.839, -30.5646, 0, 0.000977354, 0.000950548, 0.000685728, 57.0807, -16.6145, 0, 0.000977133, -0.177329, -12.8703, 104.741, -0.0812626, -6.66997, 56.5949, -0.000485049, -0.000758425, 0.00173943, -0.000263402, -0.000263402, -0.000263402
1201, 1,0.00128439, 0.000396609, 0.000284488, 77.53, 24.1131, 0.00275805, 162.924, -43.7142, 0, 0.00107955, 0.00167958, 0.00120116, 101.498, -30.0789, 0, 0.00107932, 0.000890466, 0.000636296, 53.6947, -16.0557, 0, 0.00107907, 0.113965, -11.3205, 101.443, 0.160556, -5.30959, 53.3162, -0.000471218, -0.000720244, 0.00167954, -0.000249422, -0.000249422, -0.000249422
1202, 1,0.00127524, 0.000390924, 0.000272738, 78.0549, 24.088, 0.00251068, 149.323, -41.1124, 0, 0.00104545, 0.00166477, 0.00115908, 102.01, -31.8114, 0, 0.00104529, 0.000886934, 0.000617625, 54.2192, -17.0869, 0, 0.00104504, 0.111112, -5.84997, 101.173, 0.233789, -2.00612, 53.033, -0.000498421, -0.000639076, 0.00165369, -0.000263979, -0.000263979, -0.000263979
1203, 1,0.0013241, 0.000400818, 0.000278348, 81.1693, 24.7602, 0.00262755, 156.642, -43.5241, 0, 0.00101143, 0.0017235, 0.00119589, 105.793, -33.1409, 0, 0.00101126, 0.000925935, 0.000643336, 56.6669, -17.8819, 0, 0.00101101, -0.117741, -5.0767, 104.617, 0.0549038, -1.59173, 55.1825, -0.000524119, -0.000644771, 0.00170665, -0.000280227, -0.000280227, -0.000280227
1204, 1,0.00145373, 0.000429983, 0.000305036, 88.1082, 26.3051, 0.0031143, 185.108, -50.8966, 0, 0.000977546, 0.00188215, 0.00133737, 114.254, -34.2864, 0, 0.000977282, 0.00102661, 0.000731738, 62.0975, -18.6629, 0, 0.000977035, 0.0759283, -11.2008, 113.984, 0.171126, -5.57823, 61.3957, -0.000538352, -0.000785593, 0.00188029, -0.000290381, -0.000290381, -0.000290381
1205, 1,0.00140183, 0.000429803, 0.000303986, 84.8124, 26.3441, 0.0036541, 219.016, -62.1728, 0, 0.00107966, 0.00183042, 0.00129467, 111.015, -33.5482, 0, 0.00107916, 0.000974306, 0.000690186, 58.7381, -17.8018, 0, 0.00107888, -0.0403703, -10.1375, 110.823, -0.0186046, -4.73847, 58.1624, -0.000529337, -0.000755932, 0.00182964, -0.000280929, -0.000280929, -0.000280929
1206, 1,0.00138573, 0.000425998, 0.000293964, 84.8169, 26.4056, 0.00323616, 194.076, -55.1496, 0, 0.00104549, 0.00181059, 0.00125006, 111.104, -35.2177, 0, 0.00104516, 0.000961883, 0.000665356, 58.6384, -18.7472, 0, 0.00104488, 0.104918, -4.34343, 109.892, 0.195049, -1.15501, 57.2015, -0.000552378, -0.000669774, 0.00179361, -0.000291124, -0.000291124, -0.000291124
1207, 1,0.00143316, 0.000436104, 0.000299889, 87.8833, 27.0853, 0.00333945, 199.936, -56.4637, 0, 0.0010115, 0.00186822, 0.00128684, 114.853, -36.5528, 0, 0.00101117, 0.00099901, 0.000690204, 61.0179, -19.5546, 0, 0.00101089, -0.106776, -3.54342, 113.308, 0.0514092, -0.720277, 59.3327, -0.000577682, -0.000674774, 0.00184558, -0.000306718, -0.000306718, -0.000306718
1208, 1,0.00157499, 0.000463602, 0.000325158, 95.7623, 28.5464, 0.00397317, 237.71, -67.0202, 0, 0.000977679, 0.00203734, 0.00143489, 124.161, -37.9468, 0, 0.000977218, 0.00111367, 0.000788104, 67.4882, -20.6239, 0, 0.000976943, 0.16487, -10.0143, 123.69, 0.248533, -4.97448, 66.5976, -0.000594076, -0.000823584, 0.0020334, -0.000319611, -0.000319611, -0.000319611
1209, 1,0.00153661, 0.000463751, 0.000324312, 94.0647, 28.6103, 0.00499748, 309.84, -98.9405, 0, 0.0010801, 0.00199945, 0.00139542, 122.539, -38.4133, 0, 0.00107904, 0.00107457, 0.000749458, 65.7117, -20.9727, 0, 0.00107874, 0.883982, -7.8153, 122.171, 0.907371, -2.94284, 64.9535, -0.000586717, -0.000787332, 0.00199736, -0.000311598, -0.000311598, -0.000311598
1210, 1,0.00147395, 0.000460639, 0.000315281, 90.4091, 28.6706, 0.00444091, 268.974, -79.2795, 0, 0.0010457, 0.00193361, 0.00131951, 118.964, -38.4217, 0, 0.001045, 0.00101517, 0.000691919, 61.9638, -20.3152, 0, 0.0010447, 0.0333496, -2.02205, 117.254, 0.155491, 0.613542, 60.1765, -0.000604735, -0.000681073, 0.00190926, -0.000317036, -0.000317036, -0.000317036
1211, 1,0.00152712, 0.000471105, 0.000321681, 93.3813, 29.3677, 0.00456327, 275.461, -80.2265, 0, 0.00101171, 0.00199742, 0.00136721, 122.641, -39.2624, 0, 0.00101104, 0.00105753, 0.000728236, 64.2226, -20.6278, 0, 0.00101073, -1.37909, -1.43891, 120.605, -1.15255, 0.810933, 62.225, -0.000647239, -0.000683275, 0.0019676, -0.00034907, -0.00034907, -0.00034907
1212, 1,0.00169882, 0.000497485, 0.000345482, 104.251, 30.8043, 0.0052619, 324.072, -101.247, 0, 0.000978075, 0.00219567, 0.00153205, 134.942, -42.5521, 0, 0.000977144, 0.00120251, 0.000842893, 73.6558, -23.5426, 0, 0.000976843, 1.27809, -7.97067, 134.349, 1.39369, -3.51702, 72.7511, -0.000642879, -0.000857595, 0.00219094, -0.000341207, -0.000341207, -0.000341207
1213, 1,0.00170211, 0.000505162, 0.000351385, 101.818, 31.2646, 0.00691596, 400.133, -98.3585, 0, 0.00107996, 0.00220476, 0.00157022, 132.795, -39.3124, 0, 0.00107892, 0.00120146, 0.0008746, 71.0794, -20.1233, 0, 0.00107859, -0.502895, -13.2592, 131.699, -0.417904, -8.38538, 69.1731, -0.000631056, -0.000925787, 0.00219474, -0.000327103, -0.000327103, -0.000327103
1214, 1,0.00163166, 0.000501023, 0.000342174, 94.6053, 31.2155, 0.00646857, 356.281, -67.8081, 0, 0.00104535, 0.00212939, 0.00147554, 125.512, -35.3366, 0, 0.0010448, 0.00113675, 0.000801196, 63.9734, -15.6128, 0, 0.00104447, -8.34063, -7.57357, 121.924, -8.10946, -4.94537, 59.8932, -0.000734111, -0.000767403, 0.00207489, -0.000418638, -0.000418638, -0.000418638
1215, 1,0.00166361, 0.000511579, 0.000348471, 98.5038, 31.9169, 0.00651845, 364.277, -75.383, 0, 0.00101148, 0.00217256, 0.00150246, 130.156, -38.7554, 0, 0.00101088, 0.00115695, 0.000813152, 67.0902, -18.4995, 0, 0.00101055, -5.90267, -4.23022, 126.399, -5.51524, -2.0635, 63.0773, -0.000734535, -0.000751617, 0.00211501, -0.000407454, -0.000407454, -0.000407454
1216, 1,0.00186745, 0.000538483, 0.000371728, 111.952, 33.4455, 0.00697808, 410.145, -107.876, 0, 0.000978057, 0.0024049, 0.00169609, 145.232, -43.2157, 0, 0.000977031, 0.00133081, 0.000955685, 78.8055, -22.4178, 0, 0.000976702, -2.561, -12.029, 144.237, -2.32183, -7.79718, 77.3723, -0.000733844, -0.000960931, 0.002396, -0.000401442, -0.000401442, -0.000401442
1217, 1,0.00204669, 0.00055059, 0.000380803, 121.519, 34.3109, 0.0158569, 466.428, -150.325, 0.165135, 0.00108104, 0.00259439, 0.00182155, 155.367, -45.9437, 0, 0.00107894, 0.00150107, 0.00106738, 88.0164, -24.8434, 0, 0.00107857, -3.44219, -11.8018, 153.075, -3.21663, -6.72906, 84.476, -0.000798681, -0.00103322, 0.00257739, -0.000461719, -0.000461719, -0.000461719
1218, 1,0.0020118, 0.000538053, 0.000364478, 114.865, 33.6959, 0.0145939, 459.184, -139.47, 0.139961, 0.00104667, 0.00254729, 0.00176962, 148.193, -41.3298, -5.42101E-20, 0.0010448, 0.00147808, 0.0010476, 81.8114, -20.072, -5.42101E-20, 0.00104444, -10.9201, -8.13604, 143.046, -10.2315, -5.76306, 76.2106, -0.000884236, -0.000927092, 0.00248195, -0.00053499, -0.00053499, -0.00053499
1219, 1,0.00206091, 0.000549914, 0.000372375, 118.232, 34.4835, 0.0138686, 455.866, -134.962, 0.125761, 0.00101255, 0.00260897, 0.00180975, 152.428, -42.9871, 0, 0.00101088, 0.00151414, 0.00106917, 84.2521, -21.0812, 0, 0.00101052, -12.0201, -6.57589, 147.557, -11.1521, -4.82252, 79.2183, -0.000929564, -0.0009188, 0.00254588, -0.000566401, -0.000566401, -0.000566401
1220, 1,0.00209993, 0.00058753, 0.000403521, 125.303, 36.6853, 0.0137231, 460.818, -143.032, 0.123328, 0.00097873, 0.00268553, 0.00189386, 161.664, -48.2797, 0, 0.000977059, 0.00151578, 0.00109134, 89.1937, -25.3869, 0, 0.000976696, -2.82875, -12.0558, 159.724, -2.46133, -7.78567, 86.4076, -0.000816669, -0.00107016, 0.00267022, -0.000448708, -0.000448708, -0.000448708
1221, 1,0.00248354, 0.000613651, 0.000422697, 149.185, 38.3084, 0.027568, 493.075, -186.328, 0.391234, 0.0010823, 0.00309473, 0.0021181, 186.865, -57.4278, 0, 0.00107913, 0.00187398, 0.0012888, 111.952, -34.2519, 0, 0.00107873, -6.81828, -3.72949, 182.831, -5.71127, 2.14491, 106.322, -0.00104873, -0.00109016, 0.00307068, -0.000660589, -0.000660589, -0.000660589
1222, 1,0.00242856, 0.000584822, 0.000396198, 142.467, 36.5421, 0.0269446, 508.447, -212.909, 0.381934, 0.00104873, 0.00301226, 0.00207367, 178.572, -53.8901, 0, 0.00104505, 0.00184556, 0.00128438, 106.667, -31.686, 0, 0.00104467, -11.6367, 2.94044, 170.366, -9.08074, 5.77531, 98.3633, -0.00109755, -0.000958271, 0.00293021, -0.000694034, -0.000694034, -0.000694034
1223, 1,0.00242521, 0.000597641, 0.000407238, 138.839, 37.3753, 0.0256228, 500.155, -200.119, 0.356172, 0.00101431, 0.00302196, 0.00210242, 175.823, -49.8096, 0, 0.00101102, 0.00182904, 0.00129037, 102.135, -26.9096, 0, 0.00101065, -17.5672, -0.887254, 167.883, -14.8203, 1.30577, 94.2435, -0.00115408, -0.000977362, 0.00293961, -0.000735604, -0.000735604, -0.000735604
1224, 1,0.00250691, 0.000648929, 0.000446384, 151.277, 40.5027, 0.0242435, 483.029, -171.874, 0.327524, 0.000979643, 0.00315213, 0.00217911, 191.147, -59.3182, 0, 0.000977246, 0.00186427, 0.0012934, 111.872, -34.5638, 0, 0.000976854, -4.32043, -4.99916, 187.274, -3.1249, 0.427962, 106.388, -0.00101854, -0.00114354, 0.00312453, -0.000603871, -0.000603871, -0.000603871
1225, 1,0.00313424, 0.000725062, 0.000492922, 193.842, 45.5014, 0.0329141, 480.208, -162.042, 0.48922, 0.00108205, 0.00385816, 0.00265842, 238.868, -78.8668, 0, 0.00107953, 0.00241103, 0.00167639, 149.135, -50.7692, 0, 0.00107903, -4.00769, 5.78498, 234.823, -1.78158, 10.0949, 143.994, -0.00132302, -0.00123367, 0.00383632, -0.000833792, -0.000833792, -0.000833792
1226, 1,0.00294678, 0.000685083, 0.000472554, 178.222, 42.5471, 0.0325692, 481.453, -164.915, 0.48345, 0.00104803, 0.0036311, 0.00258941, 220.248, -67.3903, 0, 0.00104534, 0.00226293, 0.00164571, 136.549, -42.1741, 0, 0.00104491, -20.5667, 15.9789, 206.759, -15.2484, 17.9493, 123.822, -0.00149771, -0.000897248, 0.00348836, -0.000988397, -0.000988397, -0.000988397
1227, 1,0.00292656, 0.000693828, 0.000478755, 177.784, 43.0281, 0.0320764, 485.587, -171.957, 0.474776, 0.00101414, 0.00361914, 0.0025519, 220.212, -68.3981, 0, 0.00101142, 0.00223479, 0.00159617, 135.766, -42.9525, 0, 0.001011, -18.4441, 17.4726, 206.166, -12.6785, 19.3031, 122.233, -0.00146615, -0.000888922, 0.00346483, -0.000943761, -0.000943761, -0.000943761
1228, 1,0.00320589, 0.000748341, 0.000512646, 194.458, 46.6437, 0.0314317, 486.527, -173.091, 0.462325, 0.000980124, 0.00395176, 0.00273695, 240.502, -75.1345, 0, 0.000977613, 0.00246157, 0.00172091, 148.81, -46.8069, 0, 0.000977163, -11.1693, 0.450278, 236.123, -8.46502, 5.91287, 142.973, -0.00141159, -0.00129313, 0.00392378, -0.000908684, -0.000908684, -0.000908684
1229, 1,0.0041092, 0.000886362, 0.000606279, 249.607, 56.1722, 0.033907, 474.034, -150.801, 0.506184, 0.00108146, 0.00499399, 0.00348368, 305.356, -95.5636, 0, 0.00107946, 0.0032253, 0.00227688, 194.101, -59.0981, 0, 0.00107882, -16.8978, 2.02856, 301.56, -13.6075, 1.55352, 189.348, -0.00185844, -0.00155684, 0.00496587, -0.00121489, -0.00121489, -0.00121489
1230, 1,0.00373635, 0.000864836, 0.00060973, 230.624, 53.639, 0.0337997, 475.304, -153.361, 0.504493, 0.00104723, 0.00460027, 0.00334649, 283.823, -88.5339, 0, 0.00104511, 0.00287298, 0.00212886, 177.713, -56.21, 0, 0.00104456, -31.2742, 30.5439, 266.332, -22.2617, 28.3746, 162.517, -0.0020568, -0.000889466, 0.00438278, -0.00135738, -0.00135738, -0.00135738
1231, 1,0.00368505, 0.000876369, 0.000617283, 224.791, 54.1873, 0.0335187, 475.532, -153.68, 0.499103, 0.00101333, 0.00456035, 0.00337249, 278.456, -83.8605, 2.1684E-19, 0.00101121, 0.00281048, 0.00213956, 171.488, -51.5129, 2.1684E-19, 0.00101067, -40.8418, 32.4534, 259.97, -31.0512, 30.4457, 155.144, -0.00218369, -0.000781703, 0.00432606, -0.00146744, -0.00146744, -0.00146744
1232, 1,0.0039355, 0.000909602, 0.000619431, 244.305, 57.0793, 0.0330304, 475.01, -152.696, 0.489921, 0.000979714, 0.00484345, 0.00336393, 301.013, -99.5323, 0, 0.000977957, 0.00302855, 0.00212876, 187.841, -63.539, 0, 0.000977386, -12.989, 14.3017, 297.284, -8.76648, 16.0465, 183.337, -0.00183451, -0.00136604, 0.00481552, -0.00117872, -0.00117872, -0.00117872
1233, 1,0.00512121, 0.00108172, 0.000753198, 303.473, 67.7439, 0.0338433, 484.005, -166.979, 0.505753, 0.00108163, 0.00619534, 0.00438673, 370.422, -125.072, 0.00651743, 0.00107975, 0.00405125, 0.00289515, 237, -80.718, 0.00634868, 0.00107898, -16.1655, 26.6836, 364.699, -9.56818, 22.3173, 229.405, -0.00248879, -0.00160262, 0.00612816, -0.00164375, -0.00164375, -0.00164375
1234, 1,0.00513342, 0.00112789, 0.000812087, 280.252, 68.3601, 0.0341712, 480.264, -160.875, 0.511047, 0.00104701, 0.0062565, 0.00475226, 347.935, -89.3308, 0.007026, 0.00104471, 0.00401309, 0.00313448, 212.974, -47.6195, 0.00631308, 0.001044, -74.9639, 18.7443, 324.212, -60.4759, 11.8986, 191.436, -0.00320842, -0.00122035, 0.00588382, -0.00222482, -0.00222482, -0.00222482
1235, 1,0.00521305, 0.00115558, 0.000828806, 283.6, 69.6711, 0.0338532, 479.275, -159.447, 0.505153, 0.00101312, 0.00636125, 0.0047988, 352.477, -94.0781, 0.00871571, 0.00101102, 0.00406909, 0.00315384, 215.209, -51.2995, 0.0077516, 0.00101032, -70.0329, 24.5771, 327.69, -56.0606, 17.6174, 192.342, -0.00322813, -0.00119616, 0.00595813, -0.00223176, -0.00223176, -0.00223176
1236, 1,0.0052442, 0.00112982, 0.000785211, 292.898, 69.4192, 0.0332824, 479.344, -159.598, 0.494888, 0.000979902, 0.0063685, 0.00452383, 361.8, -109.631, 0.00853378, 0.000978149, 0.00412291, 0.00297331, 224.304, -63.945, 0.00741225, 0.00097742, -32.667, 4.86743, 356.693, -26.9555, 0.711436, 218.079, -0.002641, -0.00187353, 0.00630182, -0.0017679, -0.0017679, -0.0017679
1237, 1,0.00837495, 0.00135646, 0.000946836, 319.487, 80.3084, 0.0311257, 473.868, -152.085, 0.454723, 0.00108153, 0.00967548, 0.00701923, 398.674, -122.033, 0.0636478, 0.00108017, 0.00709342, 0.00524693, 240.962, -67.529, 0.0636478, 0.00107918, -26.5985, 1.4395, 391.257, -21.474, -7.00005, 231.061, -0.00414073, -0.00328751, 0.00948113, -0.00306785, -0.00306785, -0.00306785
1238, 1,0.00962691, 0.00147644, 0.00105087, 334.325, 85.6798, 0.0329816, 483.888, -167.355, 0.489154, 0.00104744, 0.0110617, 0.00793428, 419.443, -151.712, 0.0927597, 0.00104625, 0.00820545, 0.00589746, 249.609, -95.1976, 0.0927597, 0.00104524, 4.67892, 48.0021, 402.454, 14.0437, 37.338, 234.211, -0.00475493, -0.00319583, 0.0105467, -0.00350948, -0.00350948, -0.00350948
1239, 1,0.00957914, 0.00151022, 0.00107395, 333.251, 87.428, 0.0331549, 481.848, -163.863, 0.492057, 0.00101372, 0.0110397, 0.00786436, 420.009, -149.371, 0.0913592, 0.00101259, 0.00813497, 0.00578807, 246.976, -91.4454, 0.0913592, 0.00101159, 4.2997, 43.88, 399.934, 12.2801, 33.3318, 228.724, -0.00463177, -0.00324009, 0.0104256, -0.00338135, -0.00338135, -0.00338135
1240, 1,0.00921573, 0.00139341, 0.000977993, 326.308, 82.6538, 0.0321344, 480.032, -161.516, 0.473858, 0.00098054, 0.010571, 0.00750606, 408.42, -144.929, 0.0845793, 0.000979467, 0.00787312, 0.00562713, 244.568, -88.0944, 0.0845624, 0.00097852, 6.74953, 24.7655, 403.271, 9.49111, 16.4944, 238.298, -0.00427385, -0.00367949, 0.0104213, -0.00318887, -0.00318887, -0.00318887
1241, 1,0.0138503, 0.00164511, 0.00113685, 370.867, 91.4956, 0.0294797, 460.508, -149.11, 0.430503, 0.00108198, 0.0154392, 0.0112755, 462.045, -188.995, 0.172514, 0.0010822, 0.0122741, 0.00921099, 279.92, -124.534, 0.172514, 0.00108095, 53.4005, 55.5517, 458.034, 50.9154, 47.2224, 275.465, -0.00596129, -0.00591883, 0.0152735, -0.00470641, -0.00470641, -0.00470641
1242, 1,0.0148665, 0.00184366, 0.00127576, 373.374, 103.82, 0.0317061, 469.675, -149.826, 0.466692, 0.00104777, 0.0166784, 0.0119042, 477.04, -196.989, 0.192738, 0.00104808, 0.0130623, 0.00959844, 269.844, -122.877, 0.192738, 0.00104667, 62.5912, 59.085, 469.292, 56.3501, 48.5816, 263.699, -0.0062424, -0.00650526, 0.0163293, -0.00483604, -0.00483604, -0.00483604
1243, 1,0.0148363, 0.00186278, 0.00129202, 378.836, 104.49, 0.0324239, 479.511, -162.06, 0.479464, 0.00101445, 0.0166624, 0.0119349, 483.152, -203.03, 0.191917, 0.00101455, 0.0130192, 0.00962022, 274.675, -128.478, 0.191917, 0.00101318, 73.3027, 61.6171, 474.17, 65.2463, 52.6095, 267.578, -0.00592601, -0.00663734, 0.0162529, -0.0045247, -0.0045247, -0.0045247
1244, 1,0.0135462, 0.00165871, 0.0011549, 355.963, 94.64, 0.0313889, 477.99, -158.854, 0.460152, 0.000981328, 0.0151744, 0.0111067, 450.418, -174.754, 0.167738, 0.000980994, 0.0119253, 0.00894919, 261.648, -107.573, 0.167738, 0.000979815, 39.1415, 37.5191, 447.6, 35.4415, 28.6307, 258.648, -0.00589743, -0.00604227, 0.0150681, -0.00462822, -0.00462822, -0.00462822
1245, 1,0.0159072, 0.00177437, 0.00121331, 368.992, 97.1837, 0.0327807, 455.809, -131.026, 0.490005, 0.00109915, 0.0176212, 0.0132757, 465.897, -176.73, 0.210113, 0.00109951, 0.0142059, 0.0110214, 272.286, -106.036, 0.210113, 0.00109808, 38.6571, 37.7079, 453.825, 29.8882, 26.184, 262.035, -0.00679817, -0.00695444, 0.0170013, -0.00554685, -0.00554685, -0.00554685
1246, 1,0.0176785, 0.00204721, 0.00138686, 374.877, 112.587, 0.0335183, 438.242, -127.596, 0.512283, 0.00106448, 0.0196916, 0.014757, 487.356, -200.841, 0.248938, 0.00106542, 0.0156726, 0.0121757, 262.497, -115.792, 0.248938, 0.00106372, 81.423, 38.8144, 482.285, 59.1702, 29.7605, 258.447, -0.00641136, -0.00921626, 0.0194125, -0.00503363, -0.00503363, -0.00503363
1247, 1,0.0175793, 0.00206323, 0.00138907, 369.391, 113.682, 0.0339445, 443.183, -127.825, 0.516771, 0.00103031, 0.019613, 0.0148156, 482.977, -194.309, 0.247521, 0.00103108, 0.015552, 0.0122263, 255.893, -108.052, 0.247521, 0.00102941, 80.892, 23.9151, 478.121, 55.082, 16.9971, 252.076, -0.00600263, -0.00968869, 0.0193498, -0.00464712, -0.00464712, -0.00464712
1248, 1,0.0154885, 0.00181726, 0.00124389, 360.52, 101.92, 0.0332933, 464.08, -137.081, 0.496169, 0.000996753, 0.0172769, 0.0130315, 462.307, -176.815, 0.205187, 0.000996917, 0.0137066, 0.010684, 258.84, -102.102, 0.205187, 0.000995553, 49.8839, 26.7191, 453.843, 36.6176, 17.4476, 252.241, -0.00610992, -0.00750513, 0.0168553, -0.00483203, -0.00483203, -0.00483203
1249, 1,0.0125921, -0.00460765, 0.00313767, -3.74647, -187.109, 0.0331521, -24.808, 300.456, 0.975667, 0.000999414, 0.0142416, 0.0224397, -7.27463, 277.347, 0.35022, 0.00100453, 0.0109486, 0.0162035, -0.100265, 141.498, 0.311126, 0.00100736, -60.8249, -36.4823, -734.733, -35.4707, -18.9667, -370.057, 0.0110493, 0.0126385, -0.0292815, 0.00797863, 0.00797863, 0.00797863
1250, 1,0.013173, -0.00426906, 0.00291722, -11.7029, -195.102, 0.0354843, -29.4926, 343.153, 0.938879, 0.000969195, 0.0147193, 0.0218918, -14.6127, 325.215, 0.311887, 0.000974353, 0.0116335, 0.0161035, -8.65167, 176.54, 0.28676, 0.000977258, -136.73, -47.2902, -791.625, -87.2441, -29.94, -412.436, 0.00809048, 0.0130928, -0.0275726, 0.00565136, 0.00565136, 0.00565136
1251, 1,0.0122252, -0.00409497, 0.00279313, -11.1055, -196.137, 0.033795, -23.1488, 339.931, 0.879946, 0.000938471, 0.0136967, 0.0204887, -14.6308, 325.452, 0.279819, 0.000942781, 0.0107611, 0.0149518, -7.41859, 175.132, 0.258836, 0.000945552, -139.563, -44.897, -791.896, -87.6654, -27.3445, -410.387, 0.00734627, 0.0122987, -0.0259033, 0.00507677, 0.00507677, 0.00507677
1252, 1,0.0107957, -0.00412721, 0.00280999, -6.05761, -185.535, 0.0285245, -27.7603, 308.293, 0.823024, 0.000905759, 0.0122767, 0.019448, -8.30131, 282.746, 0.277014, 0.000909231, 0.00931881, 0.0138541, -3.71241, 148.641, 0.248623, 0.000911621, -73.6162, -32.8619, -741.761, -46.6033, -19.381, -379.938, 0.00892461, 0.0111345, -0.0254862, 0.00628296, 0.00628296, 0.00628296
1253, 1,0.0102157, -0.00375629, 0.00256423, -0.752217, -170.711, 0.0285466, -3.46114, 257.671, 0.879069, 0.0010825, 0.0115259, 0.0192216, 0.555582, 240.466, 0.294186, 0.00108634, 0.00891682, 0.0141894, -1.83765, 126.965, 0.274969, 0.00108877, -11.5381, -32.9603, -676.901, -9.30656, -24.8888, -346.7, 0.0108701, 0.00989964, -0.0254379, 0.00833329, 0.00833329, 0.00833329
1254, 1,0.00970127, -0.00344318, 0.00232652, 19.3807, -173.5, 0.0269158, 5.07729, 263.963, 0.776786, 0.00104982, 0.0108945, 0.0167656, 23.7583, 253.212, 0.21416, 0.00105286, 0.00851174, 0.0121431, 15.1225, 135.043, 0.201805, 0.00105517, -59.6579, -4.32781, -695.652, -43.3868, -3.3142, -358.429, 0.00713906, 0.0097959, -0.0216014, 0.00486326, 0.00486326, 0.00486326
1255, 1,0.00908612, -0.00330889, 0.00223135, 13.8404, -172.974, 0.0256253, 5.84243, 264.686, 0.730964, 0.00101589, 0.0102237, 0.015973, 17.8163, 257.347, 0.195973, 0.0010185, 0.00795256, 0.0115417, 9.99821, 139.523, 0.187083, 0.0010207, -63.2274, -9.91607, -698.899, -46.9594, -8.09049, -363.519, 0.00675078, 0.00919727, -0.0206368, 0.00459569, 0.00459569, 0.00459569
1256, 1,0.00875314, -0.00338661, 0.00230391, 3.91354, -168.593, 0.0243702, 1.38128, 252.6, 0.736939, 0.000981131, 0.00992353, 0.016682, 6.03782, 233.935, 0.232877, 0.000983684, 0.00759283, 0.012153, 2.01775, 122.701, 0.221719, 0.000985742, -10.6119, -27.1494, -664.045, -8.28763, -20.5249, -339.29, 0.00914017, 0.00852069, -0.0220238, 0.00690557, 0.00690557, 0.00690557
1257, 1,0.00642821, -0.00296852, 0.00201886, 17.5274, -163.755, 0.0235071, -0.938906, 251.957, 0.71713, 0.00108222, 0.00747262, 0.0125782, 23.1257, 221.759, 0.129639, 0.00108541, 0.00539085, 0.00858326, 12.2134, 116.84, 0.124713, 0.00108741, -9.00239, -25.4174, -630.857, -10.284, -19.0775, -321.159, 0.00633, 0.0059762, -0.0161851, 0.00433306, 0.00433306, 0.00433306
1258, 1,0.00615158, -0.00278023, 0.00188867, 13.7498, -158.781, 0.0230682, 9.00194, 247.334, 0.680686, 0.00104849, 0.00705496, 0.0121912, 17.8925, 217.2, 0.124873, 0.00105131, 0.00525038, 0.00851881, 9.73335, 116.834, 0.124024, 0.00105315, 3.2189, -22.8824, -631.937, -4.84353, -16.7972, -328.861, 0.00653859, 0.00581712, -0.016144, 0.00455684, 0.00455684, 0.00455684
1259, 1,0.0058377, -0.00270398, 0.00183953, 10.7618, -155.394, 0.0220017, 5.7996, 249.59, 0.649043, 0.00101454, 0.00671042, 0.0116889, 14.3785, 218.678, 0.113845, 0.00101714, 0.00496611, 0.00811928, 7.23273, 120.143, 0.112726, 0.00101888, -3.56001, -22.1758, -630.299, -10.5877, -15.8943, -333.948, 0.0061018, 0.00565093, -0.0155417, 0.00416408, 0.00416408, 0.00416408
1260, 1,0.00563039, -0.00272436, 0.0018484, 20.1713, -158.777, 0.0206298, 1.24665, 248.804, 0.616925, 0.000980555, 0.00657742, 0.0111509, 25.8722, 218.967, 0.0953359, 0.000982915, 0.00468971, 0.00749545, 14.7635, 117.327, 0.0944936, 0.00098463, -12.5847, -26.9742, -617.343, -13.7328, -19.0331, -319.214, 0.00536672, 0.00510566, -0.014225, 0.00354584, 0.00354584, 0.00354584
1261, 1,0.0046995, -0.00257861, 0.00174047, 12.6858, -152.163, 0.0214884, -2.34354, 250.33, 0.655843, 0.0010812, 0.00558329, 0.0100126, 15.9284, 208.497, 0.0772311, 0.00108431, 0.00382312, 0.0065702, 9.77965, 110.642, 0.0763418, 0.00108611, 11.0637, -54.6485, -581.906, 6.93378, -37.9826, -300.876, 0.00544982, 0.00373084, -0.0127161, 0.00373314, 0.00373314, 0.00373314
1262, 1,0.00419786, -0.00241962, 0.0016467, 14.5653, -144.067, 0.0210022, 4.83777, 252.659, 0.609887, 0.00104708, 0.00506925, 0.0091664, 19.4518, 199.057, 0.0597945, 0.0010501, 0.00333689, 0.00588125, 9.80134, 107.602, 0.05868, 0.00105171, 18.3821, -33.241, -582.312, 9.13197, -20.2507, -311.687, 0.00503866, 0.00380344, -0.0121835, 0.00330439, 0.00330439, 0.00330439
1263, 1,0.00386685, -0.00235963, 0.00161032, 17.4636, -141.217, 0.020049, 2.60411, 254.018, 0.580313, 0.00101315, 0.0047262, 0.0085553, 22.8589, 195.523, 0.0453189, 0.00101603, 0.00301038, 0.00533826, 12.1711, 106.163, 0.0440175, 0.00101754, 21.5007, -35.7262, -572.342, 11.329, -21.9953, -307.823, 0.00469427, 0.00338099, -0.0113301, 0.00298879, 0.00298879, 0.00298879
1264, 1,0.00380253, -0.00239155, 0.00161491, 17.9309, -143.728, 0.0189891, -1.91694, 247.312, 0.571885, 0.000979337, 0.0046266, 0.0083831, 20.9954, 200.239, 0.0401463, 0.000981858, 0.00298497, 0.00518466, 15.2357, 107.592, 0.0387502, 0.00098337, 12.0894, -58.1414, -554.664, 8.15503, -40.0287, -290.903, 0.00441585, 0.0028141, -0.0105535, 0.00280361, 0.00280361, 0.00280361
1265, 1,0.00368234, -0.00226969, 0.00152694, 23.6956, -138.665, 0.0198074, -6.04311, 253.538, 0.599453, 0.00108063, 0.00445834, 0.00800453, 26.1506, 193.261, 0.0327911, 0.00108386, 0.00290805, 0.00496359, 21.3766, 103.102, 0.0319703, 0.00108548, 20.2567, -60.4621, -539.578, 17.4586, -40.0769, -286.689, 0.00430971, 0.00255865, -0.0100627, 0.00279775, 0.00279775, 0.00279775
1266, 1,0.00312519, -0.00215608, 0.00146623, 23.2739, -131.878, 0.0198165, 1.03017, 266.206, 0.549586, 0.00104628, 0.00389863, 0.00712632, 27.4852, 187.118, 0.0141964, 0.0010496, 0.00235381, 0.00420183, 19.1976, 102.865, 0.0129279, 0.00105105, 25.6561, -49.0857, -537.924, 17.5125, -32.0426, -294.065, 0.00385903, 0.00238565, -0.00930514, 0.00231873, 0.00231873, 0.00231873
1267, 1,0.00299346, -0.00210696, 0.00143399, 27.6339, -128.99, 0.0191232, 1.70048, 265.903, 0.524624, 0.00101234, 0.00374954, 0.00682289, 31.6915, 179.839, 0.00951058, 0.00101556, 0.00224053, 0.00396684, 23.7541, 97.3728, 0.00811151, 0.00101692, 27.748, -48.1475, -519.117, 19.9492, -31.0999, -280.968, 0.00366959, 0.00219868, -0.00880195, 0.00216389, 0.00216389, 0.00216389
1268, 1,0.00307858, -0.00210482, 0.00142039, 32.8961, -129.221, 0.0175934, -5.62722, 250.096, 0.5251, 0.000978861, 0.00380849, 0.00684953, 35.4063, 175.394, 0.0112688, 0.00098168, 0.00235036, 0.00402103, 30.5618, 91.6519, 0.0098972, 0.000983025, 28.7208, -59.0043, -495.899, 25.9147, -39.4858, -261.385, 0.00366554, 0.00192269, -0.00845226, 0.00225018, 0.00225018, 0.00225018
1269, 1,0.00253926, -0.00202292, 0.00135695, 7.71192, -127.497, 0.0177775, -1.59746, 257.97, 0.502949, 0.00108067, 0.00322162, 0.00617741, 9.48983, 191.208, 0, 0.00108361, 0.0018593, 0.00347642, 6.37145, 108.315, 0, 0.00108506, -6.24772, -69.2222, -498.155, -8.64629, -48.727, -267.57, 0.0028791, 0.0018409, -0.00782265, 0.00152308, 0.00152308, 0.00152308
1270, 1,0.00272158, -0.00194936, 0.00131999, 30.3049, -121.188, 0.0180718, 0.352012, 274.445, 0.475255, 0.00104615, 0.00341113, 0.00623328, 33.4139, 168.542, 0.00190275, 0.00104963, 0.00203246, 0.0035964, 27.2278, 90.624, 0.00117102, 0.00105096, 32.9805, -53.7094, -484.898, 26.8905, -36.0951, -262.667, 0.00340223, 0.00179772, -0.0079377, 0.00202702, 0.00202702, 0.00202702
1271, 1,0.00257492, -0.0018967, 0.00128511, 28.1334, -118.677, 0.0173354, 1.03463, 273.027, 0.451282, 0.00101232, 0.00324787, 0.00596806, 31.6546, 163.334, 0.000141795, 0.00101564, 0.00190223, 0.00340129, 24.6333, 87.54, 2.63101E-05, 0.00101689, 30.5627, -53.0394, -467.526, 23.9457, -36.3458, -250.22, 0.00322795, 0.00168923, -0.00756773, 0.0018915, 0.0018915, 0.0018915
1272, 1,0.00225563, -0.00186515, 0.00125484, 2.46218, -117.38, 0.015409, -2.35, 255.505, 0.424289, 0.000978886, 0.00289284, 0.00556588, 4.40783, 177.493, 1.69407E-21, 0.000981388, 0.00162235, 0.00307114, 1.05375, 101.405, 1.69407E-21, 0.0009826, -9.27323, -75.1189, -448.088, -11.9724, -55.3105, -236.933, 0.0026076, 0.00146047, -0.00694817, 0.00135253, 0.00135253, 0.00135253
1273, 1,0.00262124, -0.00185404, 0.00124047, 30.5275, -117.064, 0.0141436, -3.35073, 249.997, 0.390421, 0.0010812, 0.00324405, 0.00594163, 31.4008, 163.389, 5.47229E-05, 0.00108394, 0.00199872, 0.00347042, 29.6732, 86.782, 1.34771E-05, 0.00108529, 30.4643, -67.9691, -452.662, 29.0561, -47.9048, -241.497, 0.0032183, 0.0014183, -0.00728789, 0.00198116, 0.00198116, 0.00198116
1274, 1,0.00209389, -0.00178145, 0.00120055, 4.58838, -112.039, 0.0139816, 5.24168, 268.396, 0.334961, 0.00104696, 0.00270848, 0.00532485, 6.76545, 162.614, 0, 0.00104981, 0.00148881, 0.00293778, 3.02196, 90.2806, 0, 0.00105104, 5.85679, -61.4433, -432.257, 1.49058, -43.8587, -228.474, 0.00268402, 0.00149057, -0.00681324, 0.00145272, 0.00145272, 0.00145272
1275, 1,0.00210216, -0.00173324, 0.00116926, 8.48812, -108.943, 0.0131488, 3.05719, 269.391, 0.308952, 0.00101299, 0.00270365, 0.00521993, 10.7484, 157.106, 0, 0.00101576, 0.00150438, 0.00289312, 6.56624, 86.825, 0, 0.00101692, 7.50598, -60.1971, -418.626, 3.18026, -43.0662, -220.589, 0.00263859, 0.00141082, -0.00659869, 0.00144038, 0.00144038, 0.00144038
1276, 1,0.00235941, -0.00169951, 0.00113898, 31.6863, -107.185, 0.0117737, -3.25389, 244.571, 0.309685, 0.000979458, 0.00293198, 0.00528604, 32.682, 141.801, 0, 0.000981907, 0.00178728, 0.00301992, 30.7208, 71.8401, 0, 0.000983022, 31.1781, -60.8618, -395.718, 29.7256, -41.8302, -203.416, 0.00290177, 0.00117888, -0.00638156, 0.00176952, 0.00176952, 0.00176952
1277, 1,0.00206738, -0.00170582, 0.00113831, -0.154807, -107.638, 0.0090489, 8.47806, 238.168, 0.193287, 0.00108208, 0.00263401, 0.00509089, 0.631549, 164.397, 0, 0.00108388, 0.00150326, 0.00282492, -0.565231, 93.7846, 0, 0.00108512, -13.801, -69.4848, -409.904, -14.7113, -49.8317, -216.811, 0.00229551, 0.0013288, -0.0062919, 0.00116436, 0.00116436, 0.00116436
1278, 1,0.00207661, -0.00164298, 0.00110094, 14.4436, -103.397, 0.00834142, 2.85583, 238.051, 0.17532, 0.00104782, 0.00263354, 0.00500353, 15.7109, 146.386, 0, 0.00104982, 0.00152004, 0.00280953, 13.2032, 79.1064, 0, 0.00105096, 15.3094, -59.3442, -395.124, 12.7736, -42.0591, -208.034, 0.00262815, 0.00122198, -0.00622545, 0.00151511, 0.00151511, 0.00151511
1279, 1,0.00190851, -0.00159547, 0.00107097, 11.5836, -100.292, 0.00744224, 1.96551, 235.615, 0.144459, 0.0010137, 0.00244814, 0.00470536, 12.8139, 138.376, 0, 0.00101564, 0.00137058, 0.00257722, 10.4299, 73.2497, 0, 0.00101671, 10.8293, -54.1677, -371.791, 8.23448, -37.1928, -190.791, 0.0024129, 0.00118733, -0.00584559, 0.00133244, 0.00133244, 0.00133244
1280, 1,0.00182232, -0.0015558, 0.00104103, 0.569766, -98.0291, 0.00705967, 11.5978, 233.936, 0.118262, 0.00097978, 0.00234506, 0.00451576, 1.53877, 145.209, 0, 0.000981454, 0.00130219, 0.00244321, -0.0765962, 80.9604, 0, 0.000982478, -8.90159, -65.1003, -361.625, -9.74575, -46.2894, -186.846, 0.00210456, 0.00107182, -0.00553264, 0.00107503, 0.00107503, 0.00107503
1281, 1,0.00192611, -0.00157481, 0.00105138, 9.52502, -99.235, 0.00549839, 26.222, 218.413, 0.0561946, 0.00108233, 0.00244579, 0.0047484, 9.79834, 142.048, 0, 0.0010838, 0.0014066, 0.00266159, 9.25795, 76.8536, 0, 0.00108495, 9.47119, -63.1093, -372.507, 9.03942, -44.3458, -195.254, 0.00243666, 0.00104993, -0.00579155, 0.0014009, 0.0014009, 0.0014009
1282, 1,0.00174672, -0.00151333, 0.00101025, 2.30494, -95.2189, 0.0056683, 55.4896, 197.783, 0.0487855, 0.00104832, 0.00225045, 0.00443569, 3.02196, 138.349, 0, 0.00104942, 0.00124481, 0.0024252, 1.74373, 76.0521, 0, 0.00105048, 0.486473, -57.7551, -357.777, -0.937974, -40.4345, -186.784, 0.00218871, 0.00107796, -0.0055116, 0.00117759, 0.00117759, 0.00117759
1283, 1,0.00173811, -0.00146812, 0.000982068, 6.74323, -92.2992, 0.00537525, 66.5525, 188.251, 0.0348964, 0.00101439, 0.00223219, 0.00431831, 7.67313, 131.188, 4.72784E-07, 0.00101539, 0.00124517, 0.00236366, 5.9058, 70.8969, 4.72784E-07, 0.00101638, 5.65003, -56.7187, -342.495, 4.30009, -39.9828, -177.008, 0.0021887, 0.000978242, -0.00529567, 0.00121071, 0.00121071, 0.00121071
1284, 1,0.00160594, -0.00143155, 0.000957825, 4.72505, -90.0922, 0.00418273, 41.8697, 199.573, 0.00570277, 0.000980279, 0.00207909, 0.00408835, 5.03188, 125.112, 0, 0.000981474, 0.00113386, 0.0021914, 4.45396, 65.9948, 0, 0.000982416, 3.65852, -58.1333, -320.862, 3.34493, -39.9435, -161.386, 0.00205134, 0.000857945, -0.00493943, 0.00111379, 0.00111379, 0.00111379
1285, 1,0.00166814, -0.00144889, 0.000968185, -0.252958, -91.2637, 0.00379778, 31.5864, 198.735, 0, 0.00108262, 0.00214958, 0.00425539, 0.317988, 135.249, 0, 0.00108374, 0.00119054, 0.00233528, -0.476278, 75.264, 0, 0.00108479, -4.58343, -63.5, -337.664, -4.72723, -45.2104, -175.854, 0.00203309, 0.00090768, -0.00513541, 0.00108543, 0.00108543, 0.00108543
1286, 1,0.00161805, -0.00139132, 0.000928092, 5.23097, -87.5581, 0.0041132, 68.6224, 168.959, 0, 0.00104878, 0.00207871, 0.00408286, 5.63543, 124.486, 0, 0.00104954, 0.00115749, 0.00223873, 4.8419, 67.0682, 0, 0.00105051, 5.08352, -55.9257, -322.616, 4.40908, -39.1834, -166.43, 0.0020684, 0.000880815, -0.00496919, 0.00114995, 0.00114995, 0.00114995
1287, 1,0.00152243, -0.00134489, 0.0008986, 3.29124, -84.6226, 0.00396753, 64.3132, 165.495, 0, 0.00101459, 0.00196949, 0.00389107, 3.7666, 119.949, 0, 0.00101534, 0.00107596, 0.00210669, 2.84865, 64.4734, 0, 0.00101626, 2.52572, -54.04, -308.332, 1.95535, -37.6795, -157.696, 0.00194464, 0.000844524, -0.00473552, 0.00105899, 0.00105899, 0.00105899
1288, 1,0.0014642, -0.00131009, 0.000876667, 2.77853, -82.4574, 0.0034164, 26.8623, 180.843, 0, 0.000980203, 0.00190201, 0.0037416, 3.41104, 115.418, 0, 0.000981244, 0.00103036, 0.00200375, 2.47466, 61.2982, 0, 0.000982106, -0.140467, -55.3696, -290.745, -0.180312, -38.0283, -145.686, 0.00181728, 0.00075273, -0.00444286, 0.000964207, 0.000964207, 0.000964207
1289, 1,0.00152439, -0.00132226, 0.000884065, 2.18369, -83.3048, 0.00315229, 11.3864, 184.882, 0, 0.00108242, 0.0019642, 0.00391148, 2.71811, 120.415, 0, 0.00108355, 0.00108971, 0.0021606, 2.1442, 65.6659, 0, 0.00108452, 1.78776, -58.1468, -304.885, 1.77077, -40.7421, -158.026, 0.00193476, 0.00077835, -0.00466702, 0.00107223, 0.00107223, 0.00107223
1290, 1,0.00143699, -0.00126821, 0.000846964, 1.44698, -79.8625, 0.00319556, 28.1615, 165.054, 0, 0.00104842, 0.00185563, 0.00370733, 1.84263, 114.97, 0, 0.00104927, 0.00102165, 0.00203043, 1.33065, 62.5306, 0, 0.00105016, 0.82375, -53.4885, -292.244, 0.55343, -37.525, -150.62, 0.00182877, 0.000777619, -0.00447195, 0.000997277, 0.000997277, 0.000997277
1291, 1,0.00137822, -0.00122413, 0.000818144, 2.7198, -77.0667, 0.00311968, 31.8799, 155.226, 0, 0.00101431, 0.00178534, 0.00354311, 3.18177, 108.979, 0, 0.00101507, 0.000973874, 0.00192117, 2.46118, 58.3957, 0, 0.00101591, 1.30871, -50.6654, -277.579, 1.15148, -35.1275, -141.211, 0.00174579, 0.000737119, -0.00425126, 0.000945923, 0.000945923, 0.000945923
1292, 1,0.00131186, -0.00118996, 0.000796628, 1.74691, -74.903, 0.00280859, 17.3425, 155.026, 0, 0.000980101, 0.00170961, 0.00339309, 2.32635, 104.877, 0, 0.000980899, 0.000918448, 0.00181571, 1.50469, 55.7157, 0, 0.000981682, -0.00311075, -52.9699, -261.657, 0.119283, -36.4282, -130.838, 0.00165361, 0.000626085, -0.00398147, 0.000882049, 0.000882049, 0.000882049
1293, 1,0.00137808, -0.00119535, 0.000799709, 1.00852, -75.3133, 0.00270974, 5.85437, 164.215, 0, 0.00108227, 0.00177608, 0.00353544, 1.57955, 110.204, 0, 0.00108322, 0.000984834, 0.00195307, 0.860259, 60.7457, 0, 0.00108409, -0.566644, -56.4696, -273.577, -0.537104, -39.9334, -141.766, 0.0017243, 0.000643214, -0.00415575, 0.000946065, 0.000946065, 0.000946065
1294, 1,0.00129315, -0.00114535, 0.000765591, 1.23377, -72.1479, 0.00266632, 15.1586, 148.92, 0, 0.00104822, 0.00167302, 0.0033455, 1.65434, 103.903, 0, 0.00104899, 0.000918259, 0.00183123, 1.18394, 56.5248, 0, 0.00104979, 0.500164, -51.1834, -261.026, 0.425149, -36.0672, -133.932, 0.00164785, 0.000644736, -0.00397857, 0.000900179, 0.000900179, 0.000900179
1295, 1,0.00122985, -0.00110398, 0.00073843, 1.29792, -69.5162, 0.00254681, 17.1432, 138.649, 0, 0.00101412, 0.00159728, 0.00318633, 1.75527, 98.9699, 0, 0.00101477, 0.000866561, 0.00172521, 1.1431, 53.3428, 0, 0.00101552, -0.218671, -48.8803, -247.811, -0.174909, -34.1985, -125.655, 0.00155571, 0.000609313, -0.00377096, 0.000838138, 0.000838138, 0.000838138
1296, 1,0.00118056, -0.00107101, 0.000717511, 1.55638, -67.4044, 0.00229879, 8.97589, 133.888, 0, 0.000979962, 0.00153907, 0.0030507, 2.15706, 94.4891, 0, 0.000980588, 0.000826743, 0.00163169, 1.33929, 50.2883, 0, 0.000981292, -0.676672, -50.2838, -232.507, -0.482594, -34.629, -115.753, 0.00147544, 0.000508053, -0.00351672, 0.00078351, 0.00078351, 0.00078351
1297, 1,0.00123454, -0.00106773, 0.000714732, 1.17802, -67.2762, 0.00235614, 2.46255, 146.327, 0, 0.00108208, 0.00159053, 0.00316469, 1.73455, 98.4016, 0, 0.00108293, 0.00088315, 0.00175145, 1.02939, 54.2616, 0, 0.0010837, -0.245846, -52.9827, -241.976, -0.200783, -37.4293, -125.155, 0.00154528, 0.000522105, -0.0036641, 0.000851141, 0.000851141, 0.000851141
1298, 1,0.00115679, -0.00102195, 0.000683559, 0.92764, -64.3863, 0.00225524, 7.42837, 133.207, 0, 0.00104801, 0.00149616, 0.00298691, 1.37355, 93.0674, 0, 0.00104869, 0.000822216, 0.00163615, 0.889926, 50.8023, 0, 0.00104941, -0.32489, -48.1724, -230.705, -0.319913, -34.0066, -118.08, 0.00145984, 0.000530141, -0.00350013, 0.000794381, 0.000794381, 0.000794381
1299, 1,0.0010964, -0.000983439, 0.000658189, 1.17579, -61.9329, 0.00212697, 8.85993, 123.116, 0, 0.0010139, 0.00142409, 0.00283768, 1.63253, 88.1766, 0, 0.00101448, 0.000773122, 0.00153665, 1.05828, 47.5438, 0, 0.00101515, -0.58876, -45.6845, -218.257, -0.451003, -31.9487, -110.232, 0.0013778, 0.00049928, -0.00330788, 0.000740863, 0.000740863, 0.000740863
1300, 1,0.00104848, -0.000952319, 0.000638557, 1.4471, -59.9215, 0.00193203, 5.04485, 115.871, 0, 0.000979771, 0.00136796, 0.0027099, 2.04069, 83.9456, 0, 0.000980279, 0.000733565, 0.00144825, 1.22403, 44.7024, 0, 0.000980904, -0.836522, -47.2288, -203.772, -0.611013, -32.5246, -100.972, 0.00130582, 0.000397637, -0.0030656, 0.00069262, 0.00069262, 0.00069262
1301, 1,0.00109022, -0.00093994, 0.000629595, 1.08031, -59.2238, 0.00208761, 2.10004, 129.763, 0, 0.00108185, 0.00140421, 0.00279135, 1.62472, 86.8072, 0, 0.00108261, 0.000780453, 0.00154703, 0.909097, 47.9981, 0, 0.00108329, -0.383983, -49.3035, -210.734, -0.340778, -34.8091, -108.844, 0.00135979, 0.000409353, -0.00317772, 0.000749563, 0.000749563, 0.000749563
1302, 1,0.00101937, -0.000898241, 0.000601187, 0.875025, -56.5966, 0.00191714, 2.78843, 117.998, 0, 0.00104776, 0.00131813, 0.00262868, 1.30112, 81.8787, 0, 0.00104838, 0.00072507, 0.00144151, 0.826371, 44.7548, 0, 0.00104901, -0.430164, -44.5394, -200.667, -0.390942, -31.4223, -102.451, 0.00128145, 0.000423467, -0.00303352, 0.00069768, 0.00069768, 0.00069768
1303, 1,0.000963387, -0.000862855, 0.000577935, 1.05818, -54.3364, 0.00178815, 3.97426, 108.157, 0, 0.00101367, 0.00125147, 0.00249051, 1.50474, 77.4031, 0, 0.00101417, 0.000679499, 0.00134904, 0.935958, 41.7885, 0, 0.00101476, -0.842847, -42.185, -189.181, -0.663951, -29.4898, -95.2116, 0.00120269, 0.000396425, -0.00285509, 0.000645647, 0.000645647, 0.000645647
1304, 1,0.00091984, -0.000833892, 0.000559811, 1.51945, -52.4491, 0.00164488, 3.27347, 100.009, 0, 0.00097955, 0.00120058, 0.00237177, 2.1157, 73.2776, 0, 0.000979975, 0.00064341, 0.00126669, 1.26831, 38.9931, 0, 0.00098052, -0.861847, -43.6998, -175.271, -0.625185, -30.0287, -86.3255, 0.00113716, 0.000296559, -0.00262274, 0.000602277, 0.000602277, 0.000602277
1305, 1,0.000947592, -0.000812207, 0.000544526, 1.10733, -51.167, 0.00183617, 2.31649, 113.501, 0, 0.00108163, 0.00121978, 0.00242001, 1.64974, 75.0993, 0, 0.00108231, 0.000679125, 0.00134412, 0.89592, 41.6255, 0, 0.00108289, -0.33144, -45.1303, -179.836, -0.295166, -31.7823, -92.7991, 0.0011765, 0.000305045, -0.00270015, 0.00065015, 0.00065015, 0.00065015
1306, 1,0.000882712, -0.000774362, 0.000518689, 0.847911, -48.7873, 0.0016569, 1.87659, 102.699, 0, 0.00104753, 0.00114088, 0.00227126, 1.26179, 70.6741, 0, 0.00104807, 0.000628564, 0.0012476, 0.773549, 38.7097, 0, 0.00104862, -0.50342, -40.51, -171.009, -0.451004, -28.5312, -87.1468, 0.00110346, 0.00032442, -0.00257467, 0.000601213, 0.000601213, 0.000601213
1307, 1,0.000832071, -0.000742193, 0.000497655, 1.09903, -46.7257, 0.00150948, 2.00176, 93.116, 0, 0.00101343, 0.0010807, 0.00214501, 1.54028, 66.5076, 0, 0.00101387, 0.000587194, 0.00116276, 0.947071, 35.9273, 0, 0.00101437, -0.886364, -38.2259, -160.41, -0.688152, -26.6562, -80.4375, 0.00103015, 0.000300873, -0.0024102, 0.000552783, 0.000552783, 0.000552783
1308, 1,0.000792894, -0.000715754, 0.000481348, 1.6383, -44.9855, 0.00139684, 3.17383, 84.3948, 0, 0.000979331, 0.00103524, 0.00203555, 2.2521, 62.6025, 0, 0.000979678, 0.000554507, 0.00108624, 1.3374, 33.2781, 0, 0.000980144, -0.87388, -39.8386, -147.095, -0.634528, -27.2753, -71.9245, 0.000968704, 0.000202284, -0.00218679, 0.000511987, 0.000511987, 0.000511987
1309, 1,0.000806467, -0.000684728, 0.000459718, 1.18676, -43.1165, 0.00158028, 2.51022, 96.9912, 0, 0.0010814, 0.00103722, 0.00205046, 1.74342, 63.4085, 0, 0.00108199, 0.000578862, 0.00114221, 0.912653, 35.2724, 0, 0.00108248, -0.306534, -40.6201, -149.299, -0.279555, -28.4971, -77.0404, 0.00099287, 0.000207443, -0.00222921, 0.000550374, 0.000550374, 0.000550374
1310, 1,0.000746871, -0.000650428, 0.000436196, 0.901911, -40.9664, 0.00140813, 1.87367, 86.9025, 0, 0.0010473, 0.000964591, 0.00191464, 1.31326, 59.4138, 0, 0.00104777, 0.000532652, 0.00105424, 0.786504, 32.621, 0, 0.00104823, -0.499874, -36.1163, -141.625, -0.441967, -25.3544, -72.0666, 0.000926186, 0.000231425, -0.00212168, 0.000505497, 0.000505497, 0.000505497
1311, 1,0.0007021, -0.000621566, 0.000417485, 1.21361, -39.1081, 0.00126276, 1.91613, 77.5833, 0, 0.00101322, 0.000911517, 0.00180087, 1.66501, 55.5898, 0, 0.00101358, 0.000495951, 0.00097744, 1.01397, 30.0557, 0, 0.001014, -0.905553, -33.939, -131.925, -0.697233, -23.5708, -65.8992, 0.000857773, 0.000211156, -0.00197095, 0.000460088, 0.000460088, 0.000460088
1312, 1,0.000668472, -0.000598047, 0.000403331, 1.87554, -37.5378, 0.00115681, 3.54123, 68.664, 0, 0.000979117, 0.000872935, 0.00170234, 2.53096, 51.9115, 0, 0.000979383, 0.000467573, 0.000907732, 1.49727, 27.549, 0, 0.000979771, -0.855523, -35.6479, -119.231, -0.617194, -24.2647, -57.7651, 0.000800664, 0.000114132, -0.00175712, 0.000422058, 0.000422058, 0.000422058
1313, 1,0.000667371, -0.000557733, 0.000375406, 1.36949, -35.0841, 0.00132369, 2.84087, 80.254, 0, 0.00108118, 0.000857287, 0.00168355, 1.96792, 51.7113, 0, 0.00108168, 0.000479967, 0.000941721, 0.999622, 28.9147, 0, 0.00108208, -0.265915, -35.8081, -119.06, -0.24915, -24.9804, -61.5147, 0.000809452, 0.000115443, -0.00176399, 0.000450824, 0.000450824, 0.000450824
1314, 1,0.000612348, -0.000526614, 0.000353885, 1.03047, -33.1436, 0.00115759, 2.06647, 70.734, 0, 0.00104709, 0.000789935, 0.00155939, 1.45744, 48.1366, 0, 0.00104747, 0.000437693, 0.000861687, 0.851702, 26.5258, 0, 0.00104784, -0.49222, -31.4372, -112.48, -0.432845, -21.9599, -57.1848, 0.000748722, 0.000143538, -0.00167334, 0.000409666, 0.000409666, 0.000409666
1315, 1,0.000574248, -0.000501181, 0.00033764, 1.44361, -31.4945, 0.00101964, 2.22583, 61.7339, 0, 0.001013, 0.000744887, 0.00145895, 1.93022, 44.6424, 0, 0.00101328, 0.000406391, 0.000793578, 1.17063, 24.1656, 0, 0.00101361, -0.901888, -29.3705, -103.655, -0.688276, -20.2701, -51.5384, 0.000685421, 0.000126325, -0.00153613, 0.000367481, 0.000367481, 0.000367481
1316, 1,0.000547812, -0.000481123, 0.000326122, 2.28303, -30.1232, 0.000926117, 4.40064, 52.8643, 0, 0.000978911, 0.000715253, 0.00137369, 3.02144, 41.2196, 0, 0.000979096, 0.000383534, 0.000732092, 1.78478, 21.8219, 0, 0.000979404, -0.835486, -31.1957, -91.6278, -0.600353, -21.0577, -43.8078, 0.000632649, 3.10039E-05, -0.00133249, 0.000332152, 0.000332152, 0.000332152
1317, 1,0.000531542, -0.000431693, 0.000292067, 1.70887, -27.093, 0.00107036, 3.45612, 63.3419, 0, 0.00108097, 0.000681685, 0.00132093, 2.39975, 40.0143, 0, 0.00108138, 0.000383218, 0.000743374, 1.18788, 22.5597, 0, 0.00108169, -0.22601, -30.7513, -89.0657, -0.22027, -21.278, -46.1808, 0.000626012, 2.80754E-05, -0.00130338, 0.000351272, 0.000351272, 0.000351272
1318, 1,0.000480265, -0.000403257, 0.000272094, 1.28864, -25.3357, 0.000909077, 2.51574, 54.3508, 0, 0.00104688, 0.000618364, 0.00120691, 1.76548, 36.8356, 0, 0.00104718, 0.000344492, 0.000670701, 1.00859, 20.4172, 0, 0.00104746, -0.474481, -26.5173, -83.5149, -0.416606, -18.3817, -42.4533, 0.000571086, 5.98599E-05, -0.00122865, 0.000313761, 0.000313761, 0.000313761
1319, 1,0.000450222, -0.000381494, 0.000258578, 1.86084, -23.9077, 0.000783486, 2.97498, 45.7329, 0, 0.00101279, 0.000582963, 0.00112141, 2.42912, 33.674, 0, 0.00101299, 0.000319805, 0.000612464, 1.46828, 18.2649, 0, 0.00101324, -0.892601, -24.575, -75.5544, -0.677242, -16.7975, -37.32, 0.000512852, 4.55093E-05, -0.00110476, 0.000274748, 0.000274748, 0.000274748
1320, 1,0.000433959, -0.000365764, 0.000250511, 3.00353, -22.78, 0.000713306, 6.07949, 37.1002, 0, 0.000978722, 0.000566, 0.00105341, 3.90287, 30.5234, 0, 0.000978826, 0.000304694, 0.000561628, 2.30738, 16.0938, 0, 0.000979055, -0.809663, -26.5284, -64.232, -0.579432, -17.69, -30.0121, 0.000464683, -4.80037E-05, -0.000911953, 0.000242312, 0.000242312, 0.000242312
1321, 1,0.000402137, -0.000307796, 0.000210891, 2.35683, -19.2006, 0.000825938, 4.59666, 46.2894, 0, 0.00108074, 0.000514756, 0.000966919, 3.24812, 28.3137, 0, 0.00108106, 0.0002906, 0.000549132, 1.5731, 16.2034, 0, 0.00108127, -0.183396, -25.4988, -59.2588, -0.189119, -17.4279, -30.993, 0.00044256, -5.56421E-05, -0.000846349, 0.000251734, 0.000251734, 0.000251734
1322, 1,0.000353456, -0.000281241, 0.000191703, 1.80712, -17.5861, 0.000668886, 3.45508, 37.8383, 0, 0.00104666, 0.000453592, 0.000860897, 2.41054, 25.5126, 0, 0.00104687, 0.000255011, 0.000483234, 1.34564, 14.2968, 0, 0.00104706, -0.451761, -21.4082, -54.678, -0.39804, -14.6599, -27.8325, 0.0003932, -2.05476E-05, -0.000786627, 0.000217709, 0.000217709, 0.000217709
1323, 1,0.000334776, -0.000263743, 0.000181537, 2.6883, -16.4076, 0.000566112, 4.65684, 29.6726, 0, 0.00101258, 0.000431725, 0.000794228, 3.44309, 22.6816, 0, 0.00101269, 0.000239717, 0.000437639, 2.07147, 12.351, 0, 0.00101286, -0.875126, -19.5985, -47.5711, -0.661423, -13.1884, -23.2031, 0.000340069, -3.21863E-05, -0.000675916, 0.000181897, 0.000181897, 0.000181897
1324, 1,0.000335222, -0.000254079, 0.00017861, 4.42143, -15.6103, 0.000543886, 9.75365, 21.4149, 0, 0.000978499, 0.000435542, 0.000751813, 5.65785, 19.8207, 0, 0.000978525, 0.000237339, 0.000402596, 3.35382, 10.363, 0, 0.000978675, -0.77998, -21.692, -36.99, -0.556242, -14.1968, -16.3359, 0.00029669, -0.00012378, -0.000494517, 0.000152469, 0.000152469, 0.000152469
1325, 1,0.000289123, -0.000190008, 0.000135852, 3.78722, -11.5967, 0.000606907, 7.04217, 29.0962, 0, 0.00108053, 0.000370371, 0.000635352, 5.17435, 16.6078, 0, 0.00108075, 0.000208247, 0.000365106, 2.44543, 9.84483, 0, 0.00108087, -0.138931, -20.1023, -29.5821, -0.156829, -13.4708, -15.9068, 0.000259055, -0.000136702, -0.00039184, 0.000152175, 0.000152175, 0.000152175
1326, 1,0.000241953, -0.000163872, 0.000116016, 3.05717, -10.0535, 0.000457472, 5.83188, 21.2247, 0, 0.00104644, 0.000308942, 0.000534676, 4.02193, 14.1657, 0, 0.00104656, 0.000176002, 0.000306036, 2.17723, 8.16292, 0, 0.00104666, -0.422659, -16.1592, -25.9154, -0.375763, -10.8328, -13.2802, 0.000215057, -9.86426E-05, -0.000346271, 0.000121509, 0.000121509, 0.000121509
1327, 1,0.0002448, -0.00015254, 0.000111127, 4.71383, -9.21605, 0.000413506, 9.42795, 13.5826, 0, 0.00101237, 0.000312698, 0.000498924, 5.98067, 11.6644, 0, 0.0010124, 0.00017834, 0.000281325, 3.54662, 6.42326, 0, 0.00101248, -0.850668, -14.4908, -19.6519, -0.641843, -9.48127, -9.14667, 0.000167032, -0.000107707, -0.000248591, 8.88967E-05, 8.88967E-05, 8.88967E-05
1328, 1,0.000278855, -0.000153172, 0.000117522, 7.80885, -8.9569, 0.000510823, 19.8158, 5.81671, 0, 0.000978294, 0.0003582, 0.000503214, 9.89537, 9.10994, 0, 0.000978242, 0.000201633, 0.000275154, 5.86178, 4.62815, 0, 0.000978313, -0.746408, -16.7345, -9.84891, -0.530643, -10.6153, -2.73848, 0.000128644, -0.000197265, -7.91899E-05, 6.26054E-05, 6.26054E-05, 6.26054E-05
1329, 1,0.000236448, -9.64699E-05, 8.50961E-05, 8.07853, -5.14587, 0.000481147, 14.0006, 11.7622, 0, 0.00108031, 0.000310046, 0.00038772, 11.0913, 4.89501, 0, 0.00108043, 0.000162974, 0.000218092, 5.07307, 3.48271, 0, 0.00108045, -0.0925435, -14.6144, 0.0218942, -0.123198, -9.44781, -0.877128, 7.54709E-05, -0.000216115, 6.12133E-05, 5.25762E-05, 5.25762E-05, 5.25762E-05
1330, 1,0.000200392, -7.11939E-05, 6.50804E-05, 7.61199, -3.69793, 0.000390195, 15.0971, 4.52069, 0, 0.00104623, 0.000258677, 0.000302484, 10.1092, 2.79345, 0, 0.00104625, 0.000142787, 0.000174423, 5.15952, 2.01445, 0, 0.00104627, -0.387315, -10.8214, 2.82832, -0.349985, -6.94033, 1.24697, 3.66341E-05, -0.000175412, 9.34519E-05, 2.51401E-05, 2.51401E-05, 2.51401E-05
1331, 1,0.000256401, -7.20111E-05, 7.14636E-05, 11.5393, -3.49217, 0.000533805, 27.1248, -2.52515, 0, 0.00101215, 0.000326198, 0.000335802, 14.7977, 0.620843, 0, 0.0010121, 0.000187514, 0.000195365, 8.34669, 0.480311, 0, 0.0010121, -0.818655, -9.30065, 8.25678, -0.618054, -5.71404, 4.89116, -6.27389E-06, -0.000182006, 0.000178211, -4.26727E-06, -4.26727E-06, -4.26727E-06
1332, 1,0.000348292, 9.63968E-05, 9.21934E-05, 17.1634, 4.79298, 0.000814662, 45.738, -9.69368, 0, 0.000978084, 0.00044278, 0.000416394, 21.8236, -1.61063, 0, 0.000977956, 0.000255284, 0.000236992, 12.6099, -1.11217, 0, 0.000977948, -0.709086, -11.704, 17.2449, -0.502838, -6.98247, 10.8218, -3.94859E-05, -0.000269402, 0.000335032, -2.73062E-05, -2.73062E-05, -2.73062E-05
1333, 1,0.0003919, 0.000135465, 0.000104018, 22.1613, 7.92806, 0.000706694, 37.6625, -5.71071, 0, 0.00108009, 0.000527267, 0.000417483, 30.0762, -6.82648, 0, 0.00108011, 0.000256643, 0.000209933, 14.2605, -2.88434, 0, 0.00108004, -0.0446106, -9.08702, 29.6111, -0.0885995, -5.39962, 14.1412, -0.000108225, -0.000294889, 0.000513881, -4.70881E-05, -4.70881E-05, -4.70881E-05
1334, 1,0.000406508, 0.000131301, 9.56005E-05, 23.8981, 7.9235, 0.000815292, 47.6941, -12.2703, 0, 0.00104601, 0.000537007, 0.000398505, 31.7646, -8.60606, 0, 0.00104595, 0.000276802, 0.000209818, 16.0888, -4.15004, 0, 0.00104587, -0.345492, -5.44554, 31.6092, -0.320526, -3.02198, 15.7926, -0.000142093, -0.000251841, 0.000533581, -7.14157E-05, -7.14157E-05, -7.14157E-05
1335, 1,0.000494395, 0.000146646, 0.000106269, 29.1553, 8.85189, 0.00108487, 65.1793, -18.6474, 0, 0.00101194, 0.00063988, 0.000472501, 37.9149, -10.4506, 0, 0.0010118, 0.000349914, 0.000262426, 20.4769, -5.47898, 0, 0.00101172, -0.779318, -4.07794, 36.2091, -0.59029, -1.92525, 18.9525, -0.000179876, -0.000256046, 0.000605503, -9.76169E-05, -9.76169E-05, -9.76169E-05
1336, 1,0.000599528, 0.000170481, 0.000126392, 35.2257, 10.1869, 0.00139497, 84.6516, -25.1198, 0, 0.000977872, 0.000768525, 0.00057057, 45.2871, -12.3425, 0, 0.000977669, 0.000431706, 0.000321508, 25.2664, -6.85912, 0, 0.000977582, -0.66818, -6.64858, 44.3442, -0.472973, -3.3354, 24.3857, -0.000207726, -0.000341135, 0.000749143, -0.000117286, -0.000117286, -0.000117286
1337, 1,0.000742382, 0.000245103, 0.000170795, 45.4175, 15.1406, 0.00134813, 81.0842, -23.3213, 0, 0.00107986, 0.000986707, 0.000689284, 60.4778, -18.5588, 0, 0.00107978, 0.000498817, 0.000350167, 30.4365, -9.2578, 0, 0.00107961, 0.00492833, -3.57269, 59.244, -0.0530378, -1.36732, 29.1938, -0.000292066, -0.000374035, 0.000967241, -0.000146842, -0.000146842, -0.000146842
1338, 1,0.000776011, 0.000245585, 0.000167983, 47.9075, 15.3203, 0.00152985, 94.0246, -29.1443, 0, 0.00104579, 0.00102032, 0.000699101, 63.1168, -20.0343, 0, 0.00104564, 0.000532893, 0.000367048, 32.8026, -10.3317, 0, 0.00104547, -0.297836, -0.0828283, 60.4836, -0.287991, 0.88239, 30.4007, -0.000321162, -0.000328913, 0.000975161, -0.000168189, -0.000168189, -0.000168189
1339, 1,0.000851567, 0.000257337, 0.000175986, 52.4083, 16.0346, 0.00178715, 110.383, -34.7838, 0, 0.00101172, 0.00110729, 0.000762542, 68.3037, -21.5513, 0, 0.00101151, 0.000597253, 0.000414206, 36.6359, -11.4558, 0, 0.00101134, -0.732834, 1.12826, 64.2584, -0.558718, 1.84705, 33.0789, -0.000353799, -0.000330782, 0.00103429, -0.000191173, -0.000191173, -0.000191173
1340, 1,0.000939515, 0.000274373, 0.000190368, 57.4764, 16.9972, 0.00206436, 127.712, -40.4659, 0, 0.000977663, 0.00121213, 0.000842421, 74.3149, -23.0867, 0, 0.000977388, 0.000668339, 0.000466126, 40.7707, -12.6135, 0, 0.000977222, -0.624219, -1.61595, 71.5002, -0.441543, 0.289078, 37.9931, -0.000376102, -0.000413388, 0.00116411, -0.000207358, -0.000207358, -0.000207358
1341, 1,0.00114617, 0.000366751, 0.00024954, 71.2042, 22.9323, 0.00212158, 130.844, -41.0599, 0, 0.00107964, 0.0015112, 0.00102591, 93.978, -30.3037, 0, 0.00107945, 0.000782751, 0.000532024, 48.5808, -15.6391, 0, 0.00107919, 0.05493, 1.87686, 88.9794, -0.0174395, 2.60871, 44.326, -0.000476106, -0.00045455, 0.00142238, -0.000246728, -0.000246728, -0.000246728
1342, 1,0.00117913, 0.000367604, 0.000248004, 73.5098, 23.0911, 0.00230196, 143.136, -46.0984, 0, 0.00104557, 0.00154476, 0.00104038, 96.426, -31.4937, 0, 0.00104533, 0.000815289, 0.000550318, 50.7538, -16.5324, 0, 0.00104507, -0.244281, 5.21744, 89.508, -0.252226, 4.73447, 45.1151, -0.000500607, -0.000407601, 0.00141924, -0.000265205, -0.000265205, -0.000265205
1343, 1,0.00123921, 0.000375748, 0.000253377, 77.0959, 23.5878, 0.00252567, 157.307, -50.9317, 0, 0.00101152, 0.00161274, 0.00109022, 100.489, -32.6823, 0, 0.00101122, 0.000867598, 0.000588758, 53.875, -17.4509, 0, 0.00101097, -0.68035, 6.2695, 92.4578, -0.524349, 5.56519, 47.312, -0.000528083, -0.00040715, 0.00146555, -0.000284968, -0.000284968, -0.000284968
1344, 1,0.00130815, 0.000387174, 0.000263227, 81.0602, 24.2302, 0.00276023, 171.967, -55.7373, 0, 0.000977455, 0.00169308, 0.00115141, 105.085, -33.8443, 0, 0.000977108, 0.000925107, 0.00063076, 57.2099, -18.3766, 0, 0.000976863, -0.576873, 3.34782, 98.7621, -0.408141, 3.85521, 51.6826, -0.000544626, -0.000487059, 0.00158086, -0.000297528, -0.000297528, -0.000297528
1345, 1,0.00156473, 0.000491954, 0.000331796, 97.7033, 30.895, 0.002933, 182.503, -58.9394, 0, 0.0010794, 0.00205409, 0.00138071, 128.367, -42.0634, 0, 0.0010791, 0.00107772, 0.000724768, 67.2526, -22.0297, 0, 0.00107875, 0.105717, 7.20991, 118.875, 0.0186323, 6.48815, 59.5823, -0.000660364, -0.000537442, 0.00188034, -0.000346753, -0.000346753, -0.000346753
1346, 1,0.001592, 0.000491896, 0.000330197, 99.5877, 30.9733, 0.00309117, 193.111, -63.1272, 0, 0.00104534, 0.00208121, 0.0013932, 130.323, -42.9843, 0, 0.001045, 0.00110518, 0.000740806, 69.0668, -22.752, 0, 0.00104466, -0.187813, 10.4035, 118.737, -0.215878, 8.49386, 59.978, -0.000680489, -0.000488882, 0.00186685, -0.000362512, -0.000362512, -0.000362512
1347, 1,0.00163725, 0.000496651, 0.000333203, 102.285, 31.2619, 0.00327622, 204.812, -67.0952, 0, 0.0010113, 0.00213105, 0.00143034, 133.296, -43.8453, 0, 0.00101092, 0.00114591, 0.000771028, 71.4962, -23.4661, 0, 0.00101058, -0.62117, 11.2976, 120.859, -0.486033, 9.19184, 61.6925, -0.000702736, -0.000486083, 0.00190027, -0.000379002, -0.000379002, -0.000379002
1348, 1,0.00168782, 0.000503184, 0.000339267, 105.158, 31.6148, 0.00346545, 216.621, -70.9516, 0, 0.000977245, 0.00218821, 0.00147438, 136.518, -44.6138, 0, 0.000976827, 0.0011898, 0.000803189, 74.0167, -24.1468, 0, 0.000976503, -0.530051, 8.19495, 126.176, -0.376287, 7.32589, 65.4908, -0.00071335, -0.000563031, 0.00200031, -0.000387848, -0.000387848, -0.000387848
1349, 1,0.00198915, 0.000618599, 0.000415444, 124.495, 38.9266, 0.00376299, 235.141, -76.9554, 0, 0.00107916, 0.00260439, 0.00174261, 163.125, -53.841, 0, 0.00107876, 0.00137692, 0.000921541, 86.1342, -28.4318, 0, 0.00107831, 0.155688, 12.3796, 148.988, 0.0534868, 10.2347, 75.0072, -0.000844921, -0.000623643, 0.00234221, -0.000446985, -0.000446985, -0.000446985
1350, 1,0.00200925, 0.000617196, 0.000413296, 125.896, 38.9056, 0.00388747, 243.468, -80.2179, 0, 0.00104513, 0.00262309, 0.00175097, 164.505, -54.5128, 0, 0.00104469, 0.00139838, 0.000934301, 87.5529, -28.9965, 0, 0.00104426, -0.122306, 15.4324, 148.228, -0.172646, 12.1277, 75.0343, -0.000860778, -0.000573649, 0.00231898, -0.000460068, -0.000460068, -0.000460068
1351, 1,0.00204026, 0.000618693, 0.000414092, 127.725, 38.9917, 0.00403134, 252.519, -83.2407, 0, 0.00101109, 0.0026555, 0.00177618, 166.411, -55.0387, 0, 0.00101063, 0.00142802, 0.000956854, 89.307, -29.4994, 0, 0.00101021, -0.563141, 16.1662, 149.513, -0.450973, 12.6907, 76.2586, -0.000877901, -0.000568428, 0.00233941, -0.000473398, -0.000473398, -0.000473398
1352, 1,0.00207266, 0.000620617, 0.000416703, 129.506, 39.0659, 0.00417611, 261.511, -86.1355, 0, 0.000977043, 0.00268994, 0.00180378, 168.269, -55.4008, 0, 0.000976556, 0.00145822, 0.00097924, 91.0041, -29.9301, 0, 0.000976153, -0.473856, 12.886, 153.79, -0.336025, 10.671, 79.4554, -0.000882157, -0.000642137, 0.00242326, -0.000478201, -0.000478201, -0.000478201
1353, 1,0.00241661, 0.000745956, 0.000499753, 151.444, 46.9914, 0.00460761, 288.723, -95.3109, 0, 0.00107892, 0.00315854, 0.00210809, 198.081, -65.6334, 0, 0.0010784, 0.00167828, 0.00112032, 105.128, -34.8421, 0, 0.00107787, 0.202823, 17.3264, 179.371, 0.0858189, 13.801, 90.6394, -0.00102977, -0.000714249, 0.00280901, -0.000547395, -0.000547395, -0.000547395
1354, 1,0.00242919, 0.000743083, 0.00049688, 152.345, 46.867, 0.00468543, 293.874, -97.2683, 0, 0.0010449, 0.00316829, 0.00211161, 198.862, -66.0648, 0, 0.00104437, 0.00169357, 0.00112953, 106.141, -35.2514, 0, 0.00104385, -0.0674802, 20.2398, 178.022, -0.141341, 15.5832, 90.3122, -0.00104167, -0.000662905, 0.00277657, -0.00055804, -0.00055804, -0.00055804
1355, 1,0.00244626, 0.000741396, 0.000495546, 153.331, 46.754, 0.00478683, 300.223, -99.3586, 0, 0.00101088, 0.00318364, 0.00212532, 199.731, -66.2741, 0, 0.00101034, 0.00171237, 0.0011447, 107.244, -35.5621, 0, 0.00100983, -0.483299, 20.8306, 178.475, -0.395075, 16.0274, 91.0539, -0.00105327, -0.000655183, 0.00278385, -0.000567822, -0.000567822, -0.000567822
1356, 1,0.00246054, 0.000738767, 0.000494829, 153.991, 46.549, 0.00489482, 306.887, -101.465, 0, 0.000976859, 0.00319546, 0.00213673, 200.193, -66.1822, 0, 0.0009763, 0.00172889, 0.00115737, 108.09, -35.7044, 0, 0.000975818, -0.450515, 17.357, 181.64, -0.328366, 13.8383, 93.6032, -0.00105158, -0.000725263, 0.00285074, -0.000569106, -0.000569106, -0.000569106
1357, 1,0.00284573, 0.000873669, 0.000584367, 178.502, 55.0722, 0.00547466, 343.155, -113.383, 0, 0.00107869, 0.0037148, 0.0024753, 233.168, -77.4694, 0, 0.00107806, 0.00198073, 0.00131989, 124.198, -41.2892, 0, 0.00107742, 0.276581, 22.0417, 210.09, 0.14477, 17.186, 106.537, -0.00121473, -0.000809976, 0.00328177, -0.000647818, -0.000647818, -0.000647818
1358, 1,0.00285086, 0.000869349, 0.000580731, 178.924, 54.847, 0.00548032, 343.689, -113.718, 0, 0.00104467, 0.00371569, 0.00247401, 233.372, -77.6924, 0, 0.00104406, 0.00198997, 0.00132576, 124.827, -41.568, 0, 0.00104344, 0.0410414, 24.8378, 208.198, -0.0571465, 18.878, 105.883, -0.00122261, -0.000757187, 0.00324047, -0.000655867, -0.000655867, -0.000655867
1359, 1,0.00285454, 0.000864528, 0.000577321, 179.041, 54.537, 0.00554157, 347.331, -114.721, 0, 0.00101066, 0.00371455, 0.00247686, 233.179, -77.5154, 0, 0.00101005, 0.00199844, 0.00133407, 125.253, -41.6177, 0, 0.00100947, -0.46509, 25.2382, 207.773, -0.400918, 19.1574, 106.097, -0.00123006, -0.000746875, 0.00323473, -0.000663455, -0.000663455, -0.000663455
1360, 1,0.00284962, 0.000857262, 0.000573274, 178.591, 54.0465, 0.00563589, 353.261, -116.711, 0, 0.000976691, 0.00370261, 0.00247146, 232.251, -77.0434, 0, 0.000976062, 0.00200028, 0.00133641, 125.266, -41.555, 0, 0.0009755, -0.308113, 21.6319, 209.807, -0.201074, 16.8583, 108.008, -0.00121975, -0.000813315, 0.00328321, -0.000658692, -0.000658692, -0.000658692
1361, 1,0.00327916, 0.00100169, 0.000669225, 205.704, 63.1637, 0.00632628, 397.619, -132.476, 0, 0.00107846, 0.00427574, 0.00284643, 268.418, -89.2378, 0, 0.00107771, 0.00228705, 0.00152297, 143.39, -47.6617, 0, 0.00107698, 0.168544, 26.3175, 241.227, 0.0238329, 20.2036, 122.758, -0.00140248, -0.000913096, 0.0037636, -0.000750876, -0.000750876, -0.000750876
1362, 1,0.0032743, 0.000995898, 0.000664785, 205.53, 62.8375, 0.00625177, 390.832, -128.06, 0, 0.00104441, 0.00426521, 0.00283858, 267.929, -89.2787, 0, 0.00104375, 0.00228774, 0.00152335, 143.516, -47.8321, 0, 0.00104305, 0.118074, 28.9993, 238.719, -0.00579267, 21.802, 121.7, -0.00140362, -0.000859246, 0.00371155, -0.000753615, -0.000753615, -0.000753615
1363, 1,0.00326433, 0.000987999, 0.000659338, 204.936, 62.3341, 0.00628566, 392.855, -128.626, 0, 0.00101044, 0.0042474, 0.00282995, 266.835, -88.9357, 0, 0.00100979, 0.00228554, 0.00152411, 143.418, -47.8406, 0, 0.00100912, -0.133582, 29.3758, 237.565, -0.0904003, 22.0798, 121.533, -0.00140302, -0.000846388, 0.00369252, -0.000755016, -0.000755016, -0.000755016
1364, 1,0.00324416, 0.000976039, 0.000651955, 203.275, 61.554, 0.00638333, 400.639, -132.903, 0, 0.000976558, 0.00421555, 0.00281019, 264.409, -87.6748, 0, 0.000975842, 0.00227674, 0.00151883, 142.507, -47.172, 0, 0.000975201, -0.68612, 25.4034, 238.307, -0.592585, 19.4478, 122.661, -0.0013953, -0.000907676, 0.00372563, -0.000755568, -0.000755568, -0.000755568
1365, 1,0.00371433, 0.00112954, 0.000753856, 233.383, 71.2456, 0.00717902, 443.68, -140.18, 0, 0.00107803, 0.00483853, 0.00321897, 304.154, -101.679, 0, 0.00107735, 0.00259478, 0.00172647, 163.031, -54.6974, 0, 0.00107653, 0.994266, 30.6737, 273.369, 0.833347, 23.344, 139.915, -0.00158127, -0.00102589, 0.00425706, -0.000844873, -0.000844873, -0.000844873
1366, 1,0.00369683, 0.00112233, 0.000748615, 232.275, 70.8214, 0.00704161, 431.58, -132.609, 0, 0.00104397, 0.00481392, 0.00320158, 302.636, -101.273, 0, 0.00104344, 0.0025843, 0.00171899, 162.322, -54.4898, 0, 0.00104264, 0.646467, 33.2976, 269.876, 0.494711, 24.8871, 138.087, -0.00158168, -0.000965726, 0.00419072, -0.000848205, -0.000848205, -0.000848205
1367, 1,0.00367834, 0.00111142, 0.000741183, 230.727, 70.1286, 0.00706745, 432.487, -132.19, 0, 0.00101004, 0.0047846, 0.00318777, 300.4, -100.099, 0, 0.00100951, 0.00257654, 0.00171842, 161.455, -53.791, 0, 0.00100875, -0.496728, 33.075, 267.718, -0.477192, 24.6027, 137.247, -0.00158655, -0.00095216, 0.00416297, -0.000856965, -0.000856965, -0.000856965
1368, 1,0.00363435, 0.00109498, 0.000730714, 228.499, 69.0705, 0.00714982, 442.574, -140.543, 0, 0.000976261, 0.00472446, 0.00314916, 297.125, -99.4141, 0, 0.000975609, 0.00254844, 0.00170096, 160.26, -53.8828, 0, 0.000974889, 0.991203, 29.5148, 267.736, 1.07577, 22.4256, 138.147, -0.00154468, -0.00101324, 0.00417107, -0.000825967, -0.000825967, -0.000825967
1369, 1,0.00416434, 0.00125699, 0.000837951, 261.709, 79.3447, 0.00925196, 463.507, -153.055, 0.0369796, 0.00107775, 0.00541627, 0.0036031, 340.564, -114.257, 0, 0.00107701, 0.00291678, 0.00194074, 183.284, -61.862, 0, 0.0010761, 1.0511, 35.1328, 306.586, 0.894113, 26.6877, 158.004, -0.00177889, -0.00114775, 0.00478063, -0.000957171, -0.000957171, -0.000957171
1370, 1,0.00413521, 0.00124816, 0.000831851, 259.581, 78.7937, 0.00887276, 456.686, -142.709, 0.0290949, 0.00104367, 0.00537831, 0.00357854, 337.9, -113.323, 0, 0.00104314, 0.00289648, 0.00192771, 181.68, -61.2252, 0, 0.00104226, 0.588972, 37.4053, 301.975, 0.44194, 27.9018, 155.332, -0.0017732, -0.00108669, 0.00469874, -0.000955941, -0.000955941, -0.000955941
1371, 1,0.00408479, 0.00123454, 0.000822731, 256.557, 77.9255, 0.00880044, 456.68, -142.877, 0.027712, 0.0010098, 0.00531422, 0.00353765, 334.005, -112.081, 0, 0.00100926, 0.00285979, 0.00190532, 179.527, -60.5783, 0, 0.00100842, 0.909455, 37.125, 298.207, 0.924932, 27.588, 153.222, -0.00174545, -0.00107259, 0.00463673, -0.000934175, -0.000934175, -0.000934175
1372, 1,0.00405829, 0.00121387, 0.000809298, 254.901, 76.6178, 0.00909053, 461.653, -150.319, 0.033692, 0.000976053, 0.00526751, 0.00350973, 331.059, -110.777, 0, 0.000975382, 0.00285304, 0.00190275, 179.142, -60.2106, 0, 0.000974582, -0.0391256, 33.6147, 298.756, 0.0643649, 25.5147, 155.053, -0.00174516, -0.00112188, 0.00466457, -0.000946786, -0.000946786, -0.000946786
1373, 1,0.00465113, 0.00138465, 0.000921704, 290.951, 87.5294, 0.0126896, 466.753, -154.015, 0.103958, 0.00107729, 0.00603122, 0.00402009, 377.961, -125.655, 0, 0.00107663, 0.00327488, 0.00218748, 204.387, -67.7691, 0, 0.00107562, -0.52314, 36.677, 340.81, -0.678352, 27.285, 176.701, -0.00199257, -0.00132066, 0.00535218, -0.00108437, -0.00108437, -0.00108437
1374, 1,0.00457005, 0.00137173, 0.000912586, 285.632, 86.7127, 0.0119615, 463.782, -150.064, 0.0896554, 0.00104338, 0.00593759, 0.0039566, 371.878, -124.209, 0, 0.00104281, 0.00320607, 0.00214033, 199.795, -66.7699, 0, 0.00104184, -0.244612, 39.4004, 333.471, -0.34636, 28.7427, 171.913, -0.00196323, -0.00124638, 0.00522509, -0.0010609, -0.0010609, -0.0010609
1375, 1,0.00452328, 0.00135612, 0.000902337, 282.708, 85.7083, 0.0118925, 461.526, -146.568, 0.0881573, 0.00100948, 0.00587487, 0.00391487, 367.925, -122.727, 0, 0.00100897, 0.00317557, 0.00211782, 197.92, -65.9932, 0, 0.00100804, -0.940258, 39.7474, 329.375, -0.873922, 29.1367, 169.717, -0.00195213, -0.00121543, 0.00515899, -0.00105743, -0.00105743, -0.00105743
1376, 1,0.00451594, 0.00133251, 0.000886898, 282.192, 84.2459, 0.0121035, 465.796, -153.129, 0.0925219, 0.000975756, 0.00584454, 0.00390044, 365.978, -121.233, 3.38813E-21, 0.000975119, 0.0031906, 0.00213483, 198.797, -65.4901, 3.38813E-21, 0.000974238, -2.0635, 34.5429, 331.22, -2.00267, 25.4699, 173.003, -0.00195226, -0.00129038, 0.00520984, -0.00107334, -0.00107334, -0.00107334
1377, 1,0.00514352, 0.00151622, 0.00100985, 320.382, 95.7031, 0.0197298, 473.308, -158.618, 0.24025, 0.001077, 0.0066563, 0.00445088, 415.536, -137.298, 0.00028379, 0.0010762, 0.00363362, 0.00243661, 225.697, -74.2425, 0.000162456, 0.0010751, -2.62275, 39.1372, 375.381, -2.34097, 29.2761, 195.792, -0.00222824, -0.00149645, 0.00595292, -0.0012264, -0.0012264, -0.0012264
1378, 1,0.00502387, 0.00149906, 0.000998626, 309.468, 94.666, 0.0181603, 466.429, -148.396, 0.209449, 0.00104298, 0.00651875, 0.00439046, 403.563, -130.481, 0, 0.00104234, 0.00353253, 0.0024, 215.872, -68.2562, 0, 0.00104129, -8.88742, 39.5415, 360.79, -8.28607, 28.698, 184.357, -0.00224654, -0.00138782, 0.00575163, -0.001254, -0.001254, -0.001254
1379, 1,0.00500725, 0.00147951, 0.000986204, 308.664, 93.4013, 0.0178206, 468.514, -152.227, 0.203208, 0.00100926, 0.00648272, 0.00436779, 401.524, -129.851, 9.90171E-07, 0.00100857, 0.00353518, 0.00240167, 216.272, -68.5171, 9.90171E-07, 0.00100757, -9.80806, 39.7768, 359.584, -8.90956, 29.0163, 185.445, -0.00225095, -0.00137201, 0.00572999, -0.00126628, -0.00126628, -0.00126628
1380, 1,0.00495347, 0.00145519, 0.000969783, 309.449, 91.993, 0.018202, 470.881, -155.774, 0.210702, 0.000975522, 0.00640601, 0.00428318, 400.984, -132.499, 8.42177E-08, 0.000974825, 0.00350314, 0.00234865, 218.301, -71.9495, 8.42177E-08, 0.000973868, -3.12579, 36.6236, 364, -2.41823, 27.1773, 191.09, -0.00215059, -0.00145858, 0.00575917, -0.0011824, -0.0011824, -0.0011824
1381, 1,0.00595789, 0.00166224, 0.00110745, 336.532, 103.821, 0.0384737, 479.525, -156.28, 0.58799, 0.00107714, 0.00761664, 0.00512924, 439.702, -145.013, 0.011625, 0.00107563, 0.00430179, 0.00292432, 233.935, -76.0343, 0.010878, 0.00107442, -2.21606, 40.8632, 396.393, -2.79528, 29.397, 201.501, -0.00261558, -0.0018803, 0.00686428, -0.00151689, -0.00151689, -0.00151689
1382, 1,0.00595261, 0.00164569, 0.00109903, 333.918, 102.072, 0.0362705, 482.141, -163.382, 0.550763, 0.00104352, 0.00759281, 0.00514216, 435.239, -143.376, 0.0116621, 0.00104197, 0.00431654, 0.00295281, 233.257, -75.9431, 0.0106697, 0.00104082, -5.66173, 47.8368, 387.952, -5.21475, 35.4748, 197.569, -0.00267306, -0.00172264, 0.00673743, -0.00157346, -0.00157346, -0.00157346
1383, 1,0.00582231, 0.00162863, 0.00108766, 331.798, 101.007, 0.0338037, 480.055, -161.487, 0.505795, 0.00100959, 0.00744536, 0.00502862, 432.064, -141.884, 0.00977059, 0.00100824, 0.00420352, 0.00286241, 232.176, -75.1441, 0.00870281, 0.00100714, -6.49356, 46.6161, 385.529, -5.94761, 34.4107, 196.969, -0.00261044, -0.00168271, 0.00660804, -0.00151861, -0.00151861, -0.00151861
1384, 1,0.00561594, 0.00160182, 0.00106847, 329.643, 99.9372, 0.0319193, 480.13, -161.522, 0.469736, 0.000975637, 0.00721535, 0.00486315, 429.033, -140.376, 0.00687485, 0.000974403, 0.00401844, 0.00273094, 230.721, -73.9841, 0.0059006, 0.000973349, -6.39612, 38.1217, 389.403, -6.49827, 27.2508, 201.2, -0.00250816, -0.00174463, 0.00653936, -0.00143928, -0.00143928, -0.00143928
1385, 1,0.00706929, 0.00180315, 0.00120842, 346.669, 110.803, 0.0606024, 513.246, -195.78, 0.955522, 0.00107957, 0.00886928, 0.00608112, 456.892, -150.26, 0.0316797, 0.00107491, 0.00527141, 0.00366902, 236.998, -78.3356, 0.0310545, 0.00107364, -5.38819, 43.7493, 412.42, -2.7041, 32.6234, 205.088, -0.00326527, -0.00232267, 0.00806998, -0.0020443, -0.0020443, -0.0020443
1386, 1,0.00691793, 0.00178287, 0.00120395, 345.545, 108.671, 0.0590293, 524.681, -218.051, 0.937218, 0.00104662, 0.00869524, 0.00592216, 453.456, -151.024, 0.0290825, 0.00104148, 0.00514434, 0.003525, 238.346, -81.3847, 0.0281828, 0.00104028, -1.40962, 51.3581, 403.123, 3.26183, 39.6066, 201.286, -0.0031286, -0.00215384, 0.00777342, -0.00188427, -0.00188427, -0.00188427
1387, 1,0.00678471, 0.00176888, 0.00119315, 344.006, 108.037, 0.0557886, 517.035, -208.485, 0.886803, 0.00101206, 0.00854712, 0.00583065, 451.245, -149.783, 0.0265322, 0.00100779, 0.00502673, 0.00345581, 237.51, -80.2527, 0.0256172, 0.00100664, -4.52514, 52.3773, 401.498, 0.063615, 40.2053, 200.489, -0.00311165, -0.00205864, 0.00763725, -0.00187783, -0.00187783, -0.00187783
1388, 1,0.00659943, 0.00174206, 0.00116705, 342.309, 107.602, 0.0515179, 495.797, -174.777, 0.81261, 0.000976592, 0.00833897, 0.00566259, 449.382, -147.963, 0.0230743, 0.000973903, 0.00486165, 0.00333266, 235.722, -77.4378, 0.0222195, 0.000972774, -4.60405, 39.6297, 408.862, -2.78191, 28.7728, 206.323, -0.00298603, -0.00221608, 0.00763428, -0.00180298, -0.00180298, -0.00180298
1389, 1,0.00851889, 0.00207587, 0.00140885, 347.579, 114.481, 0.067999, 609.75, -201.599, 1, 0.00107961, 0.0105924, 0.00734107, 461.694, -153.283, 0.065412, 0.00107441, 0.00644683, 0.00452737, 233.825, -78.0111, 0.0571495, 0.00107305, -1.30963, 41.3146, 419.844, 0.301192, 27.9722, 205.76, -0.00403714, -0.00305332, 0.00967183, -0.00256911, -0.00256911, -0.00256911
1390, 1,0.00808403, 0.00201049, 0.00137529, 343.567, 113.448, 0.0678181, 612.881, -209.041, 1, 0.00104665, 0.0100897, 0.00702018, 456.44, -145.02, 0.0549663, 0.00104117, 0.00608144, 0.00427732, 231.252, -72.9687, 0.0492879, 0.00103992, -12.4019, 42.7967, 404.664, -5.79603, 29.4175, 195.285, -0.00390883, -0.00265997, 0.00899631, -0.00244079, -0.00244079, -0.00244079
1391, 1,0.00780052, 0.00197413, 0.00135109, 344.2, 113.167, 0.0669601, 597.287, -211.903, 1, 0.00101286, 0.00976916, 0.00678447, 456.741, -145.806, 0.0484554, 0.00100746, 0.00583544, 0.00409063, 232.267, -74.3227, 0.0439332, 0.00100626, -13.7423, 45.4491, 405.711, -5.66969, 32.29, 196.348, -0.00379937, -0.00250493, 0.00873587, -0.00234404, -0.00234404, -0.00234404
1392, 1,0.00787532, 0.0019505, 0.00131966, 346.948, 113.278, 0.065129, 543.023, -192.383, 1, 0.000977728, 0.00982315, 0.0067946, 459.816, -151.015, 0.0496646, 0.000973296, 0.00592918, 0.00416008, 234.482, -77.6658, 0.04548, 0.000972102, -7.26777, 40.6374, 419.675, -3.02729, 29.0744, 206.95, -0.00376481, -0.00273795, 0.00902295, -0.00238771, -0.00238771, -0.00238771
1393, 1,0.0110384, 0.00250229, 0.0017221, 350.997, 115.894, 0.07158, 712.904, -239.592, 1, 0.00108046, 0.0135362, 0.00960922, 466.65, -159.595, 0.123627, 0.00107398, 0.00854305, 0.00617771, 235.588, -82.154, 0.10128, 0.00107251, 1.86246, 46.9227, 430, 2.85831, 31.5117, 212.092, -0.00557161, -0.0040627, 0.0124157, -0.00370834, -0.00370834, -0.00370834
1394, 1,0.0104576, 0.00245282, 0.00169356, 347.419, 115.349, 0.0714712, 710.447, -238.901, 1, 0.00104722, 0.0129039, 0.00908391, 462.399, -152.608, 0.111235, 0.00104082, 0.00801501, 0.00570683, 232.807, -77.5401, 0.0908615, 0.00103945, -3.10893, 48.1691, 412.763, 0.369106, 31.8419, 200.409, -0.00520815, -0.00357681, 0.011425, -0.00336024, -0.00336024, -0.00336024
1395, 1,0.0102147, 0.00240771, 0.00166206, 347.377, 115.255, 0.0707054, 687.743, -229.914, 1, 0.00101303, 0.0126144, 0.00889238, 462.241, -152.609, 0.105436, 0.00100717, 0.0078197, 0.00558278, 232.903, -77.6524, 0.0866262, 0.00100585, -5.75712, 50.3759, 413.21, -1.11807, 33.3603, 200.715, -0.00516081, -0.00340107, 0.0111929, -0.00332978, -0.00332978, -0.00332978
1396, 1,0.0101646, 0.00235852, 0.00161783, 349.224, 115.521, 0.0684804, 624.104, -207.361, 1, 0.000977755, 0.0125206, 0.00879534, 464.545, -156.635, 0.103023, 0.000972959, 0.00781013, 0.0055702, 234.102, -79.5647, 0.0852096, 0.000971656, -0.796914, 40.8529, 429.848, 0.635949, 25.9589, 212.099, -0.00504571, -0.00382083, 0.011563, -0.00329181, -0.00329181, -0.00329181
1397, 1,0.0157462, 0.00303048, 0.00211985, 347.883, 116.349, 0.0748372, 799.108, -264.206, 1, 0.0010801, 0.018771, 0.0135947, 464.13, -153.41, 0.224456, 0.00107272, 0.012724, 0.00940662, 231.732, -74.3658, 0.185614, 0.00107111, -3.70144, 27.119, 436.813, -4.35709, 12.423, 215.032, -0.00806473, -0.00662787, 0.0175381, -0.00567312, -0.00567312, -0.00567312
1398, 1,0.0157434, 0.00310116, 0.00216054, 352.853, 116.095, 0.0750562, 807.341, -269.553, 1, 0.00104637, 0.0188327, 0.0135211, 468.746, -160.809, 0.226969, 0.00103916, 0.0126596, 0.00928897, 237.159, -83.4171, 0.186331, 0.00103763, 12.8905, 42.6926, 426.843, 11.7099, 27.5186, 211.023, -0.00760668, -0.00624467, 0.016839, -0.0051912, -0.0051912, -0.0051912
1399, 1,0.0152805, 0.00306773, 0.00213716, 351.423, 116.419, 0.0739439, 777.31, -260.211, 1, 0.00101214, 0.0183309, 0.0131622, 467.593, -159.058, 0.217107, 0.00100547, 0.0122382, 0.0089784, 235.499, -80.8431, 0.177507, 0.00100398, 9.51853, 42.3271, 425.328, 7.97321, 25.8616, 208.695, -0.00745685, -0.00598126, 0.0163747, -0.00506826, -0.00506826, -0.00506826
1400, 1,0.0144794, 0.00291099, 0.00202736, 349.977, 116.247, 0.0713697, 704.875, -234.693, 1, 0.000977709, 0.0173845, 0.0125145, 466.112, -157.173, 0.197855, 0.000972103, 0.0115772, 0.00850566, 233.953, -78.4849, 0.162495, 0.000970679, 1.10806, 31.8325, 438.578, 0.864494, 17.5012, 217.089, -0.00733571, -0.00603373, 0.0162361, -0.00505313, -0.00505313, -0.00505313
1401, 1,0.0253068, 0.00394973, 0.0027694, 359.77, 117.284, 0.0774983, 887.295, -307.834, 1, 0.00108007, 0.02922, 0.0213679, 476.898, -171.568, 0.425845, 0.00107184, 0.0214063, 0.0159431, 242.797, -89.9774, 0.364731, 0.00106989, 23.7091, 37.9523, 453.043, 17.6675, 24.8607, 227.404, -0.0123605, -0.0113331, 0.027345, -0.00923609, -0.00923609, -0.00923609
1402, 1,0.0258719, 0.00410846, 0.00288263, 360.451, 118.274, 0.0780673, 898.055, -306.427, 1, 0.00104499, 0.0299381, 0.0224893, 478.539, -175.228, 0.441953, 0.0010372, 0.02182, 0.0168236, 242.545, -90.5418, 0.376323, 0.00103522, 44.7457, 34.8578, 446.082, 28.0949, 21.7837, 221.747, -0.0111282, -0.0123654, 0.0272674, -0.0081327, -0.0081327, -0.0081327
1403, 1,0.025195, 0.00401781, 0.00282128, 359.006, 118.19, 0.0769177, 866.573, -296.376, 1, 0.00101071, 0.0291635, 0.0219808, 476.985, -173.213, 0.427353, 0.00100347, 0.0212436, 0.0164559, 241.234, -88.7321, 0.364608, 0.00100158, 44.1662, 31.1375, 444.336, 27.3092, 18.8053, 220.082, -0.0106721, -0.0121849, 0.0265475, -0.00774113, -0.00774113, -0.00774113
1404, 1,0.023856, 0.00367383, 0.00256888, 356.69, 116.939, 0.0740463, 790.65, -274.895, 1, 0.00097749, 0.0274967, 0.0201677, 473.485, -166.804, 0.392919, 0.000971034, 0.0202266, 0.015128, 240.035, -85.6737, 0.34011, 0.000969336, 18.1097, 31.467, 450.835, 12.3055, 19.1783, 225.537, -0.0116141, -0.0107554, 0.0258359, -0.00875601, -0.00875601, -0.00875601
1405, 1,0.03534, 0.004948, 0.00346749, 362.921, 119.206, 0.0804932, 960.211, -321.245, 1, 0.00107836, 0.0402662, 0.0299105, 482.067, -176.181, 0.62782, 0.00107042, 0.0304202, 0.0230427, 243.834, -89.7959, 0.544978, 0.00106795, 28.791, 30.176, 469.577, 16.7011, 16.7321, 235.955, -0.017222, -0.0172659, 0.0388885, -0.0133908, -0.0133908, -0.0133908
1406, 1,0.036571, 0.0051249, 0.00363003, 377.196, 120.92, 0.0806681, 975.753, -336.331, 1, 0.00104313, 0.0416629, 0.0319601, 498.042, -204.672, 0.65946, 0.00103575, 0.0314888, 0.0247782, 256.426, -112.388, 0.573563, 0.00103309, 87.2971, 44.4134, 482.306, 57.3916, 33.0999, 246.673, -0.0142323, -0.0202808, 0.0397682, -0.0107977, -0.0107977, -0.0107977
1407, 1,0.0361801, 0.00501064, 0.00355005, 376.312, 120.973, 0.0797888, 950.327, -327.005, 1, 0.00100911, 0.0411567, 0.0316078, 497.21, -203.882, 0.650694, 0.00100226, 0.0312134, 0.0245912, 255.49, -110.96, 0.568099, 0.0009997, 87.6848, 42.6415, 481.321, 56.3105, 30.9357, 245.633, -0.0139011, -0.0201679, 0.0392636, -0.0105999, -0.0105999, -0.0105999
1408, 1,0.0336853, 0.00463881, 0.00325221, 363.012, 118.974, 0.0772035, 868.263, -290.229, 1, 0.000976115, 0.0383102, 0.0284889, 481.945, -177.312, 0.593115, 0.000969931, 0.0290646, 0.0220504, 244.12, -90.605, 0.518052, 0.000967769, 34.4214, 27.5097, 470.005, 20.102, 14.8892, 236.824, -0.015853, -0.0169074, 0.0370609, -0.0123207, -0.0123207, -0.0123207
1409, 1,0.0372039, 0.00553103, 0.0039237, 367.688, 120.337, 0.0807763, 970.507, -326.926, 1, 0.00110606, 0.0426961, 0.0319044, 487.935, -184.207, 0.671109, 0.0010981, 0.0317243, 0.0241446, 247.532, -95.7989, 0.571617, 0.00109537, 42.5545, 31.4389, 478.627, 26.1206, 20.1196, 241.156, -0.0175611, -0.0192259, 0.0415661, -0.0134427, -0.0134427, -0.0134427
1410, 1,0.0389828, 0.0058748, 0.0042722, 367.885, 123.399, 0.0816637, 990.356, -327.096, 1, 0.00106884, 0.0448146, 0.0346299, 491.186, -190.749, 0.712626, 0.00106152, 0.033165, 0.0261881, 244.68, -92.4068, 0.60395, 0.00105847, 71.6812, 18.7831, 481.782, 33.5183, 5.5948, 238.107, -0.0153625, -0.0230998, 0.0436014, -0.0117747, -0.0117747, -0.0117747
1411, 1,0.0385082, 0.00575413, 0.00419054, 370.928, 122.966, 0.0806273, 964.653, -321.745, 1, 0.00103401, 0.0442257, 0.0341989, 493.812, -195.778, 0.703225, 0.00102723, 0.0328024, 0.0259054, 248.127, -98.2859, 0.597542, 0.00102432, 79.7293, 22.7829, 484.82, 41.2858, 11.5887, 241.983, -0.0147961, -0.0230515, 0.0430767, -0.0113743, -0.0113743, -0.0113743
1412, 1,0.0348227, 0.00525407, 0.00373645, 366.632, 119.844, 0.0774091, 879.961, -299.9, 1, 0.00100144, 0.040046, 0.0299493, 486.396, -183.047, 0.624431, 0.000995002, 0.0296096, 0.0225518, 246.949, -95.2848, 0.529804, 0.000992655, 46.2304, 25.5469, 477.363, 28.3525, 16.661, 240.841, -0.0158485, -0.0186152, 0.0390227, -0.0120036, -0.0120036, -0.0120036
1413, 1,0.00554225, 0.00160203, 0.00109578, 316.772, 96.1367, 0.030749, 487.135, -174.04, 0.449258, 0.00155549, 0.00714415, 0.00503995, 412.903, -121.193, 0.0064453, 0.0015527, 0.00394046, 0.00284926, 220.647, -61.1069, 0.00497515, 0.00155118, -30.7927, -6.48542, 400.856, -23.5735, -6.74171, 213.636, -0.0027203, -0.00218895, 0.00688297, -0.00158287, -0.00158287, -0.00158287
1414, 1,0.0038807, 0.00119268, 0.000807807, 247.277, 74.7902, 0.00730387, 429.799, -113.653, 0, 0.00161155, 0.00507313, 0.00343602, 322.056, -110.561, 0, 0.00161147, 0.0026885, 0.00182099, 172.507, -61.0612, 0, 0.00161017, -2.17659, 17.2735, 316.585, 0.681889, 12.472, 170.03, -0.00178772, -0.0013762, 0.00495802, -0.000947637, -0.000947637, -0.000947637
1415, 1,0.0032634, 0.000974364, 0.000666356, 204.891, 61.4722, 0.00578467, 367.946, -127.031, 0, 0.00163586, 0.00423769, 0.00289322, 266.36, -88.7782, 0, 0.00163485, 0.00228916, 0.00156066, 143.425, -47.3398, 0, 0.00163375, -7.00297, 7.70955, 265.628, -4.05554, 2.97484, 143.1, -0.00154653, -0.0012351, 0.00422226, -0.000831526, -0.000831526, -0.000831526
1416, 1,0.00314767, 0.000912245, 0.000681229, 184.886, 53.1064, 0.0107531, 419.918, -79.0487, 0.0618121, 0.00159569, 0.00405909, 0.00299536, 237.949, -61.9315, 0, 0.00159517, 0.00223693, 0.00163478, 131.857, -35.0854, 0, 0.00159448, -5.89856, 28.2089, 163.484, -2.99281, 19.1115, 89.1375, -0.00110028, -0.00038378, 0.00248904, -0.000615976, -0.000615976, -0.000615976
1417, 1,0.00238728, 0.000694113, 0.00046386, 145.97, 43.5094, 0.00465415, 281.675, -82.9049, 0, 0.0016163, 0.00308071, 0.00208539, 189.448, -58.9186, 0, 0.00161567, 0.00169439, 0.00115967, 102.516, -30.1563, 0, 0.00161492, -4.88367, 32.4859, 149.154, -4.9965, 13.7263, 81.7392, -0.00103154, -0.000241471, 0.0022291, -0.000580925, -0.000580925, -0.000580925
1418, 1,0.00162992, 0.000493988, 0.000360054, 113.586, 34.1731, 0.00302797, 207.092, -85.9635, 0, 0.00162408, 0.00212372, 0.00154641, 147.751, -63.6538, 0, 0.00162349, 0.00113628, 0.000826605, 79.4292, -34.5641, 0, 0.00162272, 2.2805, 47.6238, 141.057, 1.62985, 25.8274, 76.235, -0.000954364, 5.16249E-06, 0.00198213, -0.000509975, -0.000509975, -0.000509975
1419, 1,0.00178448, -0.000569808, 0.000518433, 79.8117, -28.662, 0.00401743, 174.042, 21.2693, 0, 0.00176474, 0.00225135, 0.00242268, 100.145, 8.39118, 0, 0.00176511, 0.00131774, 0.00138613, 59.4843, 3.73872, 0, 0.00176524, 3.56345, 48.4158, -77.1528, 0.827875, 30.0777, -42.1218, 0.000207413, 0.00115438, -0.00149796, 7.62624E-05, 7.62624E-05, 7.62624E-05
1420, 1,0.00159358, 0.000452583, 0.000388922, 87.9894, 24.7946, 0.00340381, 183.668, -30.6355, 0, 0.00162931, 0.00204605, 0.00174608, 112.779, -21.6059, 0, 0.00162907, 0.0011412, 0.000968555, 63.204, -12.4571, 0, 0.00162882, 5.0952, 75.1635, -15.441, 2.92566, 41.7545, -7.30894, -0.000232716, 0.00124949, -0.000666165, -0.000134528, -0.000134528, -0.000134528
1421, 1,0.00118762, 0.000362679, 0.000249776, 74.4141, 22.7406, 0.00223669, 137.492, -42.7017, 0, 0.00160587, 0.00155016, 0.00106913, 97.148, -32.0894, 0, 0.00160559, 0.00082521, 0.000570311, 51.6861, -17.0426, 0, 0.0016052, 4.64702, 90.1284, 1.49269, 2.40819, 48.2743, 0.445461, -0.000407146, 0.00140165, -0.000473778, -0.000217531, -0.000217531, -0.000217531
1422, 1,0.00200625, 0.000589707, 0.000570219, 98.8962, 29.1638, 0.00377439, 183.061, -6.28838, 0, 0.00152263, 0.00259594, 0.00251814, 128.06, -7.21805, 0, 0.00152266, 0.00141656, 0.00137777, 69.7334, -3.74192, 0, 0.00152257, 6.7635, 123.974, -109.083, 3.70439, 67.5671, -60.0457, 2.9372E-05, 0.00250952, -0.00242176, 1.93996E-05, 1.93996E-05, 1.93996E-05
1423, 1,0.00249275, -0.000790085, 0.000757684, 113.493, -38.4843, 0.00472059, 210.425, 17.0271, 0, 0.00143446, 0.00321803, 0.00337226, 146.627, 7.33574, 0, 0.00143469, 0.00176747, 0.00185693, 80.3597, 4.26213, 0, 0.00143476, 8.30858, 141.74, -172.056, 4.63636, 77.7028, -95.1255, 0.000291303, 0.00311465, -0.00352499, 0.000165202, 0.000165202, 0.000165202
1424, 1,0.00181317, -0.000627719, 0.000573395, 80.1184, -31.5325, 0.00356921, 151.431, 23.1769, 0, 0.00151562, 0.0023322, 0.00256702, 102.782, 9.99374, 0, 0.00151595, 0.00129419, 0.00142037, 57.4561, 4.98094, 0, 0.00151607, 8.71605, 95.6384, -134.336, 5.23969, 53.4375, -73.6201, 0.000341672, 0.00218088, -0.00268472, 0.000189171, 0.000189171, 0.000189171
1425, 1,0.00197021, -0.000804697, 0.000685744, 75.1517, -43.3098, 0.00380774, 140.02, 53.6532, 0, 0.00141538, 0.002537, 0.00306193, 96.6599, 31.2229, 0, 0.0014159, 0.00140342, 0.00169048, 53.6435, 17.0394, 0, 0.00141622, 5.12996, 93.778, -192.577, 2.87172, 52.0551, -106.045, 0.000600214, 0.00247603, -0.00358291, 0.000329051, 0.000329051, 0.000329051
1426, 1,0.00105995, -0.000736514, 0.000512444, 12.0237, -45.9715, 0.00253332, 49.1059, 94.8775, 0, 0.00155061, 0.0013474, 0.00233808, 14.4461, 66.1416, 0, 0.00155133, 0.000773065, 0.0013145, 9.62755, 36.1489, 0, 0.00155209, -3.08381, 10.879, -206.22, -1.98184, 7.90512, -114.37, 0.000976651, 0.001272, -0.00332195, 0.000527602, 0.000527602, 0.000527602
1427, 1,0.000954217, -0.000683839, 0.000479736, 1.01322, -45.4539, 0.00208577, 4.62279, 126.221, 0, 0.00127416, 0.00122967, 0.0021387, 0.896368, 76.874, 0, 0.00127518, 0.000678912, 0.00117958, 1.13774, 41.5827, 0, 0.00127591, -2.55562, -28.7511, -199.315, -0.9653, -14.4848, -109.298, 0.00115677, 0.000602403, -0.00300663, 0.000634593, 0.000634593, 0.000634593
1428, 1,0.0017437, -0.000843039, 0.000665691, 21.0365, -58.3831, 0.00374762, 48.2381, 173.143, 0, 0.00098019, 0.00223189, 0.00297804, 25.5682, 107.361, 0, 0.000981237, 0.00125563, 0.00164719, 16.5111, 57.5462, 0, 0.00098203, 11.4682, -210.817, -122.735, 8.2163, -113.588, -67.2668, 0.00193426, -0.0027699, -0.000906538, 0.00108089, 0.00108089, 0.00108089
1429, 1,0.00180797, -0.00126451, 0.000918266, -0.434147, -84.2236, 0.00448875, 59.0201, 205.727, 0, 0.00123926, 0.00237897, 0.00397097, 2.08841, 148.251, 0, 0.00124042, 0.00123788, 0.00213724, -2.91159, 82.5277, 0, 0.00124174, -14.6962, -160.443, -269.615, -13.4193, -86.6757, -147.488, 0.00202582, -0.00105776, -0.00337379, 0.00101776, 0.00101776, 0.00101776
1430, 1,0.00297606, -0.00196651, 0.00136073, 29.3246, -128.602, 0.0114493, -34.9902, 306.309, 0.267157, 0.00122251, 0.00372753, 0.00632109, 29.1819, 197.404, 0, 0.00122574, 0.00222657, 0.00360431, 29.5623, 101.6, 0, 0.00122765, 14.9185, -126.518, -480.611, 19.521, -63.4834, -260.838, 0.00343039, 0.000445609, -0.00707933, 0.00201898, 0.00201898, 0.00201898
1431, 1,0.00655882, -0.00306969, 0.00205293, -35.174, -183.873, 0.0268556, -78.91, 390.713, 0.732766, 0.000966393, 0.00756118, 0.0134687, -42.8952, 300.418, 0.140038, 0.000971664, 0.00557621, 0.00943672, -26.9631, 163.056, 0.14002, 0.000974016, -56.0798, -115.766, -729.409, -37.9955, -68.5983, -382.574, 0.00709437, 0.00498691, -0.0173695, 0.00506204, 0.00506204, 0.00506204
1432, 1,0.00142201, -0.000860043, 0.000595385, -4.10612, -59.146, 0.00370146, 9.35126, 222.457, 0, 0.00121988, 0.00172181, 0.00309203, -8.37224, 120.154, 0, 0.00122191, 0.00113954, 0.00194536, 0.9576, 70.4787, 0, 0.00122289, -24.8376, -42.7123, -292.913, -17.2926, -18.2783, -175.865, 0.00136943, 0.000993246, -0.00431245, 0.000746766, 0.000746766, 0.000746766
1433, 1,0.0117229, 0.0015875, 0.00109149, 340.621, 91.2469, 0.0376035, 454.946, -124.694, 0.580778, 0.00130772, 0.0132933, 0.00979957, 431.75, -157.851, 0.133073, 0.00130742, 0.0101577, 0.00765761, 249.587, -97.0947, 0.133073, 0.00130603, 47.519, 27.081, 398.953, 39.4839, 22.2342, 229.566, -0.00404751, -0.00505501, 0.0118695, -0.00304156, -0.00304156, -0.00304156
1434, 1,0.0270807, 0.0043758, 0.00307704, 360.175, 119.888, 0.0745068, 788.756, -257.992, 1, 0.00133728, 0.0314171, 0.0234026, 479.928, -175.734, 0.466389, 0.00132978, 0.0227587, 0.0173208, 240.552, -86.3804, 0.39174, 0.00132705, 40.1473, 18.5815, 468.474, 19.3977, 7.23652, 232.507, -0.0121278, -0.0143617, 0.0303446, -0.00901483, -0.00901483, -0.00901483
1435, 1,0.00135776, -0.000767013, 0.000545014, 19.9167, -47.3374, 0.00362559, 78.3211, 124.972, 0, 0.00150135, 0.00167744, 0.0026522, 23.9364, 74.3269, 0, 0.00150258, 0.00104005, 0.00156969, 15.9954, 44.544, 0, 0.00150331, -20.517, -8.78889, -193.675, -17.5382, -0.538735, -115.555, 0.000737327, 0.000980109, -0.00292356, 0.000331314, 0.000331314, 0.000331314
1436, 1,0.00497292, 0.00123286, 0.000918906, 278.909, 70.4561, 0.0307874, 503.084, -205.213, 0.457655, 0.00146187, 0.00620368, 0.00459399, 349.27, -81.1977, 0.00189291, 0.00145726, 0.0037435, 0.00276026, 208.608, -46.0374, 0.00113809, 0.00145643, -22.1902, -2.02835, 267.812, -17.9292, -2.30992, 158.351, -0.00178127, -0.00138398, 0.00448425, -0.00112329, -0.00112329, -0.00112329
1437, 1,0.0145665, 0.002621, 0.0018218, 352.234, 113.81, 0.0660647, 594.215, -233.107, 1, 0.00146217, 0.0171793, 0.012376, 465.985, -158.15, 0.19369, 0.00145389, 0.0119574, 0.00884289, 238.545, -84.8273, 0.170737, 0.00145192, 12.7283, 8.65998, 453.061, 13.5654, 10.3263, 230.59, -0.00669156, -0.00695091, 0.0165199, -0.0047896, -0.0047896, -0.0047896
1438, 1,0.00521926, 0.00154957, 0.00108503, 303.492, 92.2896, 0.0312866, 496.261, -192.898, 0.465204, 0.00161095, 0.0067675, 0.00489193, 395.736, -107.651, 0.00187039, 0.00160696, 0.00367216, 0.00272386, 211.286, -53.556, 0.000981289, 0.00160555, -57.3581, -10.5295, 390.842, -41.0216, -7.17355, 208.863, -0.00296248, -0.00195751, 0.00666871, -0.00174056, -0.00174056, -0.00174056
1439, 1,0.00368108, 0.00113565, 0.000778258, 229.641, 70.5975, 0.00693974, 386.934, -79.1809, 0, 0.00166704, 0.00481644, 0.0033351, 300.225, -97.5204, 0, 0.00166754, 0.00254598, 0.00177951, 159.07, -52.0446, 0, 0.00166631, -14.161, 10.0265, 296.696, -8.62834, 7.33591, 157.426, -0.00183595, -0.00132408, 0.00474252, -0.00100266, -0.00100266, -0.00100266
1440, 1,0.0030781, 0.000927513, 0.000639919, 192.322, 58.0621, 0.00518121, 322.94, -104.876, 0, 0.00169231, 0.0040055, 0.00275704, 250.379, -82.0485, 0, 0.00169168, 0.00215079, 0.00147741, 134.268, -43.8234, 0, 0.00169063, -9.52739, 5.73867, 249.934, -5.03277, 2.41391, 134.089, -0.00149392, -0.00117081, 0.00399616, -0.000796782, -0.000796782, -0.000796782
1441, 1,0.00245484, 0.000704504, 0.00051801, 137.809, 40.2922, 0.00888467, 403.253, -53.9672, 0.0238795, 0.00165056, 0.00315864, 0.00226065, 178.069, -38.6571, -4.33681E-19, 0.00165014, 0.00175157, 0.00127283, 97.5752, -19.861, -4.33681E-19, 0.00164963, -27.7373, -1.4506, 145.159, -20.7856, 0.0966665, 80.2719, -0.00119626, -0.00064267, 0.00246623, -0.000753146, -0.000753146, -0.000753146
1442, 1,0.00190489, 0.000568327, 0.000380574, 118.384, 35.7343, 0.00376744, 222.144, -59.226, 0, 0.00167212, 0.0024726, 0.00165949, 154.091, -50.0214, 0, 0.00167187, 0.00133769, 0.000901917, 82.701, -26.1769, 0, 0.00167122, -2.17197, 23.4402, 128.796, -2.12785, 10.476, 70.1826, -0.000834066, -0.00029249, 0.00193827, -0.000457594, -0.000457594, -0.000457594
1443, 1,0.00141997, 0.000430834, 0.000313145, 98.392, 29.7661, 0.00236323, 159.488, -64.2117, 0, 0.00167994, 0.00185057, 0.00134556, 128.147, -54.6592, 0, 0.00167968, 0.000989576, 0.000719641, 68.6461, -29.3908, 0, 0.00167899, 2.86107, 37.6494, 123.467, 1.61135, 20.0779, 66.4831, -0.000800413, -6.42131E-05, 0.0017516, -0.000428886, -0.000428886, -0.000428886
1444, 1,0.000813454, -0.000447957, 0.000337132, 27.3491, -25.4004, 0.00167062, 51.8838, 36.3647, 0, 0.00183466, 0.00103959, 0.00146585, 33.8078, 20.5852, 0, 0.00183513, 0.000587415, 0.000791979, 20.8954, 9.22239, 0, 0.00183547, 8.76281, 10.7816, -81.2999, 5.08944, 8.66937, -41.426, 0.000509472, 0.000551076, -0.00139459, 0.000252784, 0.000252784, 0.000252784
1445, 1,0.00110118, 0.000325492, 0.000306538, 57.3119, 16.7986, 0.00208235, 103.52, -6.86108, 0, 0.00169008, 0.00142662, 0.00133129, 74.1081, -8.97872, 0, 0.00169014, 0.000775789, 0.000718394, 40.5176, -5.17575, 0, 0.00169003, 5.54661, 51.0358, -29.6462, 2.92369, 27.7761, -15.1725, -2.42958E-05, 0.000938041, -0.000768044, -1.99006E-05, -1.99006E-05, -1.99006E-05
1446, 1,0.00101732, 0.000309673, 0.000236668, 60.9633, 18.5006, 0.00181526, 105.646, -26.6746, 0, 0.00166174, 0.00132684, 0.00101309, 79.4564, -22.4996, 0, 0.00166163, 0.000707941, 0.000540614, 42.4766, -12.1145, 0, 0.00166135, 6.89371, 73.5559, -12.9508, 3.75632, 39.5958, -7.00868, -0.000208596, 0.00120206, -0.000628353, -0.000111415, -0.000111415, -0.000111415
1447, 1,0.00174846, -0.000568956, 0.000542727, 80.1171, -27.684, 0.0032183, 145.385, 9.02107, 0, 0.00157172, 0.00226494, 0.00237881, 103.732, 4.44888, 0, 0.00157184, 0.00123201, 0.00129356, 56.5036, 2.31425, 0, 0.00157189, 7.4591, 99.8231, -120.629, 4.14024, 54.4472, -65.5302, 0.000227797, 0.00218229, -0.00248228, 0.000123956, 0.000123956, 0.000123956
1448, 1,0.00218176, -0.00079797, 0.000717476, 91.6263, -41.1642, 0.00407396, 169.52, 30.925, 0, 0.00148224, 0.00281874, 0.0031685, 118.279, 20.0668, 0, 0.0014825, 0.00154478, 0.00173367, 64.9732, 10.7938, 0, 0.00148272, 6.96579, 114, -181.166, 3.86767, 62.6291, -98.878, 0.000463351, 0.00272822, -0.0035172, 0.000251753, 0.000251753, 0.000251753
1449, 1,0.0014373, -0.000613475, 0.000514204, 55.9893, -32.778, 0.00262313, 99.0519, 33.4768, 0, 0.00156198, 0.00185222, 0.00227258, 71.8147, 21.1234, 0, 0.00156229, 0.00102238, 0.00124424, 40.1642, 10.9553, 0, 0.00156255, 9.22691, 67.8943, -140.491, 5.26634, 37.9264, -76.0587, 0.000527708, 0.0017692, -0.00263968, 0.000283761, 0.000283761, 0.000283761
1450, 1,0.00157583, -0.000784888, 0.000620854, 50.6706, -44.2586, 0.00292137, 92.0234, 61.8558, 0, 0.00146015, 0.00203265, 0.00274497, 65.0965, 41.6039, 0, 0.00146063, 0.00111901, 0.00150332, 36.2448, 22.3558, 0, 0.00146109, 6.18308, 63.2405, -194.235, 3.51512, 35.2258, -105.808, 0.000785896, 0.00199338, -0.0034544, 0.00042629, 0.00042629, 0.00042629
1451, 1,0.00109686, -0.000723053, 0.00052198, 7.77236, -47.1504, 0.00254537, 42.8528, 104.047, 0, 0.00159461, 0.00141774, 0.0023091, 9.95981, 76.6344, 0, 0.00159532, 0.000776012, 0.00126541, 5.58593, 41.7645, 0, 0.00159622, 6.05922, -31.8657, -204.097, 3.39555, -17.2868, -111.402, 0.0013353, 0.000533046, -0.00311192, 0.000729754, 0.000729754, 0.000729754
1452, 1,0.00121112, -0.000650219, 0.000501454, 11.4744, -44.5175, 0.00267633, 40.2131, 115.907, 0, 0.00131251, 0.00156381, 0.00221374, 14.3551, 80.007, 0, 0.00131327, 0.00085845, 0.00121085, 8.59416, 42.9622, 0, 0.00131406, 10.2544, -59.9146, -190.361, 6.40594, -31.9244, -103.368, 0.00147701, -7.64144E-06, -0.00276766, 0.000812126, 0.000812126, 0.000812126
1453, 1,0.0020544, -0.00100583, 0.000798834, 31.99, -66.9028, 0.00474464, 101.212, 165.283, 0, 0.00100437, 0.00264618, 0.00354629, 40.5922, 113.48, 0, 0.00100522, 0.00146265, 0.00194878, 23.3896, 61.4446, 0, 0.00100606, 28.6693, -254.831, -114.277, 17.1017, -139.28, -62.1559, 0.00239422, -0.00360473, -0.00063096, 0.00132992, 0.00132992, 0.00132992
1454, 1,0.00235963, -0.00144948, 0.00104896, 19.7067, -96.5405, 0.00577784, 98.8204, 224.169, 0.00440634, 0.00127327, 0.00300804, 0.00473599, 22.315, 161.011, 0, 0.00127459, 0.00171123, 0.0026383, 17.0993, 85.6816, 0, 0.00127615, 11.3506, -225.487, -268.897, 10.9555, -123.306, -144.695, 0.00277713, -0.00223234, -0.00315756, 0.00158236, 0.00158236, 0.00158236
1455, 1,0.00304126, -0.00221177, 0.00150952, -1.85864, -146.958, 0.0111446, -135.483, 432.224, 0.263695, 0.00127016, 0.00384425, 0.00698617, -7.45509, 251.743, 0.0012808, 0.00127542, 0.00224158, 0.0039808, 3.89905, 135.828, 0.000722872, 0.00127782, -20.1453, -223.108, -511.975, -6.19774, -123.358, -277.93, 0.0035763, -0.000732828, -0.0069315, 0.00202945, 0.00202945, 0.00202945
1456, 1,0.00754448, -0.00328048, 0.00215075, -51.6698, -199.084, 0.0318991, -114.124, 491.332, 0.764366, 0.00100976, 0.00842607, 0.0143095, -66.3646, 365.396, 0.138106, 0.00101734, 0.00667838, 0.0101951, -36.5565, 208.119, 0.137761, 0.00102016, -147.092, -163.184, -785.912, -104.53, -100.042, -419.784, 0.00556953, 0.00509481, -0.0170889, 0.0035515, 0.0035515, 0.0035515
1457, 1,0.00117632, -0.000862003, 0.000590983, -14.0528, -61.6485, 0.00403715, 16.0643, 234.761, 0, 0.00126888, 0.00149259, 0.00265218, -19.9896, 121.484, 0, 0.00127121, 0.000862409, 0.00147939, -8.01242, 65.3353, 0, 0.00127237, -23.0438, -80.9996, -260.41, -11.0447, -45.0874, -139.874, 0.00142686, 0.000215225, -0.00361344, 0.000796434, 0.000796434, 0.000796434
1458, 1,0.0125417, 0.00165118, 0.00111362, 351.702, 95.8379, 0.0374648, 448.769, -116.462, 0.579943, 0.00135252, 0.0141872, 0.0105063, 447.514, -176.846, 0.150054, 0.00135298, 0.0108978, 0.0083521, 255.911, -109.341, 0.150045, 0.00135136, 69.0322, 18.9889, 442.518, 55.6339, 18.9863, 253.402, -0.00417854, -0.0066579, 0.0139685, -0.00309749, -0.00309749, -0.00309749
1459, 1,0.0297305, 0.00473835, 0.00340877, 371.428, 122.11, 0.0784593, 904.461, -299.828, 1, 0.00138288, 0.0344382, 0.0266279, 493.448, -200.419, 0.52803, 0.00137406, 0.0250336, 0.0198714, 249.496, -102.86, 0.442923, 0.00137077, 90.4084, 21.29, 489.56, 50.7013, 11.4332, 246.447, -0.0108015, -0.0186284, 0.0340409, -0.00789117, -0.00789117, -0.00789117
1460, 1,0.000861861, -0.000597993, 0.000433842, -6.02134, -42.4541, 0.00198513, -0.222172, 126.335, 0, 0.00156112, 0.00112982, 0.00182678, -7.54549, 81.8561, 0, 0.00156225, 0.000595258, 0.000966164, -4.43517, 43.7274, 0, 0.00156321, -7.88159, -58.9943, -178.693, -4.47858, -31.1693, -95.5344, 0.00112275, 3.99674E-05, -0.00249103, 0.000594247, 0.000594247, 0.000594247
1461, 1,0.0043677, 0.00106249, 0.000769694, 245.06, 60.6871, 0.0298386, 539.725, -268.037, 0.446621, 0.00151495, 0.00542707, 0.00384147, 305.638, -66.2596, 0, 0.00150782, 0.00331044, 0.00239124, 184.555, -38.159, 0, 0.00150713, -51.9217, -32.0312, 282.732, -39.5778, -19.069, 173.124, -0.00214311, -0.00174407, 0.00496239, -0.00143937, -0.00143937, -0.00143937
1462, 1,0.0144091, 0.00259298, 0.00179853, 354.079, 113.495, 0.0684086, 698.901, -298, 1, 0.00151581, 0.0169994, 0.012657, 467.555, -162.841, 0.191478, 0.00150376, 0.01182, 0.00914595, 240.623, -90.2138, 0.169866, 0.00150174, 37.5126, -12.9315, 463.943, 34.6418, -2.42651, 238.426, -0.00559269, -0.008269, 0.0168204, -0.00362208, -0.00362208, -0.00362208
1463, 1,0.00523827, 0.00153917, 0.00107479, 307.15, 91.5764, 0.0335916, 513.602, -219.51, 0.509169, 0.00166659, 0.00677661, 0.00485122, 398.703, -112.415, 0.00232084, 0.00166135, 0.00370062, 0.00270358, 215.616, -58.6531, 0.00136063, 0.00165989, -50.4624, -7.03618, 394.744, -34.1537, -3.53621, 213.649, -0.00290121, -0.00196947, 0.00669724, -0.00168327, -0.00168327, -0.00168327
1464, 1,0.00368902, 0.0011254, 0.000770295, 228.509, 70.0316, 0.0073706, 403.044, -73.5005, 0, 0.0017226, 0.00481392, 0.00334603, 298.519, -95.3802, 0, 0.00172321, 0.00256456, 0.0018062, 158.519, -50.1237, 0, 0.00172195, -16.9457, 7.39155, 295.695, -11.6157, 4.57199, 157.415, -0.0018607, -0.00134611, 0.00475458, -0.00103515, -0.00103515, -0.00103515
1465, 1,0.00307937, 0.000918319, 0.000633657, 192.575, 57.4921, 0.00527781, 330.351, -108.702, 0, 0.00174884, 0.00399765, 0.00275092, 250.066, -82.1211, 0, 0.00174809, 0.00216112, 0.0014837, 135.086, -44.2599, 0, 0.00174701, -8.84181, 5.62447, 249.581, -4.54298, 2.45567, 134.867, -0.00148044, -0.00117435, 0.0039874, -0.000793182, -0.000793182, -0.000793182
1466, 1,0.00234025, 0.000664498, 0.000493244, 130.303, 37.6609, 0.00963124, 407.816, -60.5928, 0.0388604, 0.00170644, 0.00300388, 0.00213722, 167.927, -34.8459, 0, 0.00170569, 0.00167725, 0.00122053, 92.7077, -18.0402, 0, 0.00170523, -29.153, 1.66094, 132.03, -22.0657, 2.71361, 73.4728, -0.00116576, -0.000517225, 0.00224844, -0.000751132, -0.000751132, -0.000751132
1467, 1,0.00184704, 0.000536226, 0.000361654, 113.504, 33.5654, 0.00379419, 219.728, -54.3023, 0, 0.00172796, 0.00238251, 0.00163145, 147.035, -46.2506, 0, 0.00172773, 0.00131219, 0.00090977, 80.0025, -24.1575, 0, 0.00172711, -2.78263, 22.3809, 119.154, -2.90145, 9.36438, 66.0097, -0.000787527, -0.000255497, 0.00179355, -0.000442091, -0.000442091, -0.000442091
1468, 1,0.0013242, 0.000394716, 0.000290063, 91.964, 27.2977, 0.0022628, 152.727, -61.5071, 0, 0.00173594, 0.00171858, 0.00126346, 119.247, -51.0794, 0, 0.00173565, 0.000930091, 0.000683878, 64.6944, -27.8569, 0, 0.00173499, 3.0408, 36.2753, 113.922, 1.89904, 19.4227, 62.2489, -0.00074025, -3.68653E-05, 0.001606, -0.000398663, -0.000398663, -0.000398663
1469, 1,0.000798225, -0.000495622, 0.00036156, 24.1307, -28.701, 0.00178486, 52.261, 43.1074, 0, 0.00190603, 0.00102523, 0.00154689, 29.5826, 25.3525, 0, 0.00190658, 0.000571512, 0.000825167, 18.6926, 11.1742, 0, 0.00190702, 10.8353, 12.7537, -99.6466, 7.12036, 9.82064, -50.4636, 0.00062827, 0.000667973, -0.00170765, 0.000326351, 0.000326351, 0.000326351
1470, 1,0.00111533, -0.000334966, 0.000331092, 54.0962, 15.6541, 0.00209614, 99.2341, -0.23064, 0, 0.00175157, 0.00144245, 0.00143492, 69.7457, -2.10914, 0, 0.00175162, 0.000788298, 0.000773157, 38.4505, -1.60046, 0, 0.0017516, 5.44644, 49.0685, -48.1875, 2.84421, 26.697, -24.7398, 8.17408E-05, 0.00100466, -0.00105217, 3.46847E-05, 3.46847E-05, 3.46847E-05
1471, 1,0.00105253, 0.000321031, 0.00027313, 58.6171, 17.6771, 0.00189066, 104.497, -20.3417, 0, 0.00171773, 0.00137348, 0.00115552, 76.2901, -15.2837, 0, 0.00171759, 0.000731657, 0.000609728, 40.9476, -8.55336, 0, 0.0017174, 6.35921, 69.6809, -30.1889, 3.54237, 37.4883, -15.3706, -0.00010631, 0.00123376, -0.000879437, -5.99121E-05, -5.99121E-05, -5.99121E-05
1472, 1,0.00178571, -0.000645246, 0.000586818, 76.1587, -33.1382, 0.00331077, 142.204, 19.1657, 0, 0.00162067, 0.00231408, 0.0025533, 98.4866, 14.6159, 0, 0.00162079, 0.00125736, 0.00137981, 53.8318, 7.51407, 0, 0.00162098, 4.99366, 93.6337, -142.475, 2.7684, 51.1007, -76.4113, 0.000335715, 0.00221149, -0.00278438, 0.000176779, 0.000176779, 0.000176779
1473, 1,0.00220859, -0.00087561, 0.000760378, 86.1736, -46.9753, 0.00414562, 163.731, 43.2516, 0, 0.00152999, 0.00285373, 0.00333811, 111.071, 31.9726, 0, 0.00153027, 0.00156344, 0.00181749, 61.2765, 16.9451, 0, 0.00153065, 2.02636, 106.473, -204.417, 0.9648, 58.706, -110.506, 0.000546335, 0.00275647, -0.00382163, 0.000287194, 0.000287194, 0.000287194
1474, 1,0.00147358, -0.000681344, 0.000553594, 52.6296, -37.6016, 0.00270314, 96.6699, 41.7571, 0, 0.00160839, 0.00189942, 0.00243103, 67.3546, 30.1125, 0, 0.00160869, 0.00104775, 0.00132393, 37.9049, 15.6022, 0, 0.00160907, 7.24519, 63.287, -160.87, 4.03254, 35.5482, -86.3872, 0.000627316, 0.00181333, -0.00292929, 0.0003308, 0.0003308, 0.0003308
1475, 1,0.00158504, -0.000845238, 0.000652266, 45.3518, -48.8917, 0.00296272, 86.9851, 71.2497, 0, 0.00150498, 0.00204432, 0.00286683, 58.1129, 51.7271, 0, 0.00150546, 0.00112577, 0.00156237, 32.5913, 27.6934, 0, 0.00150605, 1.74088, 55.6781, -212.6, 0.755757, 31.1456, -114.982, 0.000851296, 0.00199281, -0.0036835, 0.000451923, 0.000451923, 0.000451923
1476, 1,0.00112449, -0.000803428, 0.000569147, 5.02801, -52.1597, 0.00255385, 39.9138, 108.525, 0, 0.0016391, 0.00145909, 0.00249782, 6.65238, 83.7077, 0, 0.00163976, 0.000790134, 0.00136033, 3.41584, 45.5848, 0, 0.00164077, 5.7934, -34.9295, -221.987, 3.12664, -19.1837, -120.697, 0.00144076, 0.000579725, -0.00337884, 0.000783904, 0.000783904, 0.000783904
1477, 1,0.00121233, -0.000689936, 0.000525913, 8.30608, -47.4464, 0.00262684, 35.8119, 118.675, 0, 0.00135121, 0.00157421, 0.00229056, 10.5696, 85.7531, 0, 0.00135194, 0.000850454, 0.00123876, 6.04305, 45.8819, 0, 0.00135281, 7.38379, -65.9606, -198.683, 4.39821, -34.9577, -107.086, 0.00150654, -4.5072E-05, -0.00285301, 0.000815397, 0.000815397, 0.000815397
1478, 1,0.00201222, -0.000979811, 0.000786215, 33.2728, -64.781, 0.00457988, 102.697, 152.823, 0, 0.00102892, 0.00260483, 0.00344627, 42.806, 107.882, 0, 0.00102967, 0.00141961, 0.00187387, 23.7399, 58.2439, 0, 0.0010305, 33.3104, -245.93, -111.025, 18.4874, -133.298, -59.9206, 0.00240381, -0.00350459, -0.000649849, 0.00130838, 0.00130838, 0.00130838
1479, 1,0.00237226, -0.00147912, 0.00107067, 21.6923, -97.767, 0.00571453, 105.605, 211.546, 0.00419584, 0.00130772, 0.00303426, 0.00477054, 25.1171, 158.912, 0, 0.00130885, 0.00171042, 0.00262973, 18.2748, 84.0512, 0, 0.00131044, 21.4737, -228.915, -269.296, 16.4684, -124.724, -143.898, 0.00295733, -0.00233806, -0.003198, 0.00167238, 0.00167238, 0.00167238
1480, 1,0.00319152, -0.00228345, 0.00156482, 2.11823, -149.935, 0.0113999, -124.727, 420.696, 0.269578, 0.00131836, 0.00403307, 0.00723348, -2.2699, 251.627, 0.00400746, 0.00132357, 0.00235356, 0.00412024, 6.66757, 134.97, 0.00300978, 0.00132608, -4.66537, -241.667, -508.547, 4.88026, -137.745, -272.044, 0.00398123, -0.00112932, -0.00694428, 0.00231433, 0.00231433, 0.00231433
1481, 1,0.00794979, -0.00344849, 0.00226229, -52.8272, -202.826, 0.0326382, -111.672, 485.64, 0.788577, 0.00105419, 0.00887034, 0.0150092, -68.4957, 367.545, 0.154223, 0.00106217, 0.00704146, 0.0106818, -36.8401, 207.032, 0.150768, 0.00106521, -152.311, -166.045, -784.28, -107.214, -99.3433, -414.538, 0.00576644, 0.00536519, -0.0176576, 0.00362147, 0.00362147, 0.00362147
1482, 1,0.00130679, -0.000966408, 0.000670149, -13.0465, -67.9712, 0.004395, 32.2921, 235.646, 0, 0.00131653, 0.00167462, 0.00297094, -17.9358, 130.321, 0, 0.00131878, 0.00094361, 0.00164204, -7.94636, 70.4425, 0, 0.00132006, -32.2375, -71.0605, -287.666, -19.3245, -37.1364, -154.866, 0.00137105, 0.000565215, -0.00405102, 0.000701211, 0.000701211, 0.000701211
1483, 1,0.0125209, 0.00161833, 0.00110805, 351.708, 93.9128, 0.0374234, 449.729, -119.059, 0.580681, 0.0013973, 0.0141326, 0.0104912, 445.593, -179.223, 0.150711, 0.00139775, 0.010911, 0.00836215, 257.845, -112.916, 0.150658, 0.00139611, 68.3886, 28.1521, 441.128, 57.0731, 25.8507, 255.824, -0.00436504, -0.00639609, 0.0139365, -0.00326249, -0.00326249, -0.00326249
1484, 1,0.0304699, 0.00479727, 0.00345272, 372.506, 122.085, 0.0791723, 924.027, -306.1, 1, 0.00142979, 0.0352337, 0.0271851, 494.5, -201.626, 0.54235, 0.00142045, 0.0257177, 0.02035, 250.602, -104.304, 0.456338, 0.00141702, 87.2189, 26.2058, 491.454, 49.4565, 15.4069, 248.05, -0.0115663, -0.0186595, 0.0349179, -0.00858058, -0.00858058, -0.00858058
1485, 1,0.000957402, -0.000671088, 0.000485812, -6.10267, -47.0649, 0.00219018, 1.25042, 137.383, 0, 0.00162065, 0.00125684, 0.00205796, -7.29885, 89.6042, 0, 0.00162191, 0.000658858, 0.0010908, -4.86391, 48.3688, 0, 0.00162299, -11.5002, -56.4039, -200.908, -7.54116, -29.6996, -107.866, 0.00116786, 0.000216982, -0.00283888, 0.000602175, 0.000602175, 0.000602175
1486, 1,0.00433049, 0.00102004, 0.00074895, 240.641, 57.8448, 0.030445, 535.084, -260.287, 0.457814, 0.00156569, 0.00534821, 0.00383124, 298.411, -61.5414, 0, 0.00155838, 0.00331428, 0.00242232, 182.92, -35.6896, 0, 0.00155773, -59.6017, -28.8397, 273.066, -45.6182, -16.9389, 169.626, -0.00223016, -0.00160486, 0.00483367, -0.00152717, -0.00152717, -0.00152717
1487, 1,0.0145463, 0.00257621, 0.00178182, 352.524, 113.223, 0.0693386, 713.56, -292.459, 1, 0.00156648, 0.0171206, 0.0128349, 465.738, -160.394, 0.193931, 0.00155428, 0.0119727, 0.00933506, 239.32, -88.2911, 0.173109, 0.00155221, 32.6345, -15.7717, 464.318, 30.9938, -4.6067, 238.486, -0.00576979, -0.00836155, 0.01705, -0.00379934, -0.00379934, -0.00379934
1488, 1,0.00564175, 0.00159404, 0.00108525, 320.078, 95.6973, 0.0369817, 512.365, -211.75, 0.565673, 0.00172047, 0.00723578, 0.00506267, 415.773, -124.834, 0.00827521, 0.00171534, 0.00404773, 0.0028922, 224.384, -64.995, 0.00689392, 0.00171366, -24.5505, -5.28959, 404.342, -17.8921, -5.02222, 217.899, -0.0026848, -0.00226589, 0.0069858, -0.00156477, -0.00156477, -0.00156477
1489, 1,0.00388719, 0.00115831, 0.000784083, 245.717, 72.6428, 0.00954812, 432.554, -101.836, 0.0397871, 0.00177892, 0.00504491, 0.00342332, 318.333, -107.327, 0, 0.00177901, 0.00272998, 0.00185661, 173.124, -59.2344, 0, 0.00177762, -4.39377, 13.5744, 312.801, -1.58356, 8.53033, 170.756, -0.00178316, -0.00140358, 0.00492837, -0.000966261, -0.000966261, -0.000966261
1490, 1,0.0031749, 0.000924031, 0.000632408, 200.086, 58.2718, 0.00591319, 378.063, -132.456, 0, 0.00180546, 0.00409886, 0.00279465, 258.354, -86.8323, 0, 0.00180412, 0.002251, 0.00152995, 141.821, -47.6015, 0, 0.00180298, -5.2356, 8.24275, 257.49, -2.53663, 3.91282, 141.428, -0.00147839, -0.00119313, 0.00408057, -0.000803409, -0.000803409, -0.000803409
1491, 1,0.0029921, 0.000823986, 0.000637396, 169.173, 46.8324, 0.0134731, 432.391, -96.9571, 0.115924, 0.00176335, 0.0038157, 0.00292469, 215.987, -47.8019, 0, 0.00176176, 0.0021688, 0.00165063, 122.373, -26.6082, 0, 0.00176115, -11.9792, 27.8683, 127.517, -8.84126, 17.4789, 71.1868, -0.00100599, -0.000169618, 0.0019513, -0.000605843, -0.000605843, -0.000605843
1492, 1,0.00217938, 0.000602514, 0.000417907, 129.897, 37.0245, 0.00495451, 289.656, -74.5736, 0, 0.00178389, 0.00278073, 0.00194711, 166.868, -47.6189, 0, 0.00178311, 0.0015789, 0.00111433, 92.9657, -24.6495, 0, 0.00178245, -5.79463, 32.6625, 115.989, -6.20233, 14.0895, 66.0613, -0.00087295, -5.96972E-05, 0.00170537, -0.00051983, -0.00051983, -0.00051983
1493, 1,0.00131749, 0.000377506, 0.00027858, 91.9491, 26.2003, 0.00278046, 189.922, -78.606, 0, 0.00179194, 0.00169418, 0.00124726, 118.111, -51.1038, 0, 0.00179114, 0.000941459, 0.000691313, 65.8185, -28.6445, 0, 0.00179048, 2.17717, 43.0448, 108.089, 1.62522, 23.1388, 61.1697, -0.000759002, 0.000106033, 0.00148225, -0.000416959, -0.000416959, -0.000416959
1494, 1,0.00177347, -0.000698629, 0.000579077, 71.4662, -37.8181, 0.00435508, 178.242, 37.0467, 0, 0.00197872, 0.00223279, 0.00265271, 88.376, 23.0345, 0, 0.00197917, 0.00131427, 0.0014949, 54.5621, 10.1389, 0, 0.00197959, 6.57087, 57.0517, -132.726, 3.17548, 36.0613, -69.6534, 0.000501355, 0.00156814, -0.00244328, 0.000226393, 0.000226393, 0.000226393
1495, 1,0.00155, -0.000470823, 0.000456715, 74.2007, -22.5575, 0.00341593, 169.154, -10.3709, 0, 0.00181348, 0.00199233, 0.00201132, 94.8002, -0.85772, 0, 0.0018132, 0.00110791, 0.00109869, 53.6117, -1.67946, 0, 0.00181322, 5.76143, 69.3981, -72.5864, 3.30693, 38.7345, -37.003, 0.000108004, 0.00145443, -0.00154851, 4.3117E-05, 4.3117E-05, 4.3117E-05
1496, 1,0.00126325, 0.000386422, 0.000359451, 66.1211, 19.7561, 0.00236716, 130.087, -24.4671, 0, 0.00177383, 0.00164966, 0.00150281, 85.8764, -10.6283, 0, 0.00177343, 0.000876858, 0.000783962, 46.3665, -6.61569, 0, 0.00177331, 4.9261, 79.6638, -52.7051, 2.77093, 43.0493, -25.9732, -6.3377E-05, 0.00151837, -0.00128252, -4.57846E-05, -4.57846E-05, -4.57846E-05
1497, 1,0.00204442, -0.000791439, 0.000698501, 82.444, -41.9435, 0.00391669, 165.267, 26.6524, 0, 0.00166968, 0.00264996, 0.00302449, 106.523, 25.1452, 0, 0.00166972, 0.0014389, 0.00162755, 58.3657, 12.9489, 0, 0.00167005, 1.77687, 101.643, -178.855, 0.781021, 55.5938, -95.2215, 0.000433466, 0.00254684, -0.00338835, 0.000220305, 0.000220305, 0.000220305
1498, 1,0.00247519, -0.00103953, 0.00088123, 90.538, -57.1932, 0.00478441, 183.157, 57.7126, 0, 0.00157773, 0.00319811, 0.00386021, 116.64, 46.3554, 0, 0.00157802, 0.00175226, 0.0020978, 64.4357, 24.6895, 0, 0.00157857, -2.95053, 112.085, -248.2, -2.10207, 61.8704, -133.837, 0.000667581, 0.00310177, -0.00452157, 0.000344302, 0.000344302, 0.000344302
1499, 1,0.00186466, -0.000838551, 0.000686868, 66.6702, -46.538, 0.00370145, 137.391, 50.4328, 0, 0.00165499, 0.00239969, 0.00302394, 85.0493, 38.1043, 0, 0.00165532, 0.00132974, 0.00165049, 48.2965, 19.5456, 0, 0.00165582, 5.00387, 79.365, -198.682, 3.05621, 44.7688, -106.462, 0.000705759, 0.00227941, -0.0036035, 0.000372247, 0.000372247, 0.000372247
1500, 1,0.0019039, -0.000997403, 0.000774278, 52.5845, -58.2343, 0.00378243, 114.911, 85.7782, 0, 0.00154992, 0.00245506, 0.00340343, 67.5363, 65.1458, 0, 0.00155044, 0.00135276, 0.00185488, 37.6327, 35.3322, 0, 0.00155119, -5.98864, 64.6368, -254.085, -4.28106, 35.9471, -137.663, 0.000899198, 0.00239373, -0.00435007, 0.000465768, 0.000465768, 0.000465768
1501, 1,0.001269, -0.00095695, 0.000652379, 9.28301, -60.1197, 0.00284575, 52.1838, 110.565, 0, 0.0016841, 0.00161642, 0.00293657, 10.8097, 88.1121, 0, 0.00168471, 0.000921745, 0.00163239, 7.76496, 48.0963, 0, 0.0016858, -2.62257, 0.781243, -262.495, -1.90748, 1.58552, -143.967, 0.0013321, 0.00140471, -0.00416663, 0.000716981, 0.000716981, 0.000716981
1502, 1,0.0010221, -0.00079066, 0.000552707, -7.13638, -53.9638, 0.0020658, -4.18676, 136.787, 0, 0.00139029, 0.00133673, 0.00239006, -8.86278, 96.7782, 0, 0.00139119, 0.000707583, 0.00128486, -5.40451, 52.1858, 0, 0.0013922, -9.70239, -52.0852, -228.547, -5.73558, -27.4294, -123.392, 0.00131888, 0.000422185, -0.00331151, 0.000700483, 0.000700483, 0.000700483
1503, 1,0.00163044, -0.000824373, 0.000650978, 19.5786, -56.5992, 0.00332636, 47.0456, 147.994, 0, 0.00105396, 0.0021079, 0.00284072, 24.5051, 100.913, 0, 0.00105477, 0.0011531, 0.00153916, 14.6571, 53.5208, 0, 0.00105558, 20.2661, -202.658, -120.348, 12.544, -108.61, -64.4967, 0.00201817, -0.00269872, -0.000957001, 0.00110835, 0.00110835, 0.00110835
1504, 1,0.00184814, -0.00139208, 0.000997012, -2.1707, -91.4204, 0.00434933, 63.1695, 191.272, 0, 0.00134251, 0.00244873, 0.00421322, 0.585835, 154.685, 0, 0.0013433, 0.00124888, 0.00222218, -4.86514, 85.8228, 0, 0.00134481, -0.069556, -175.457, -288.528, -5.16426, -95.9126, -156.391, 0.00243473, -0.00127405, -0.0036708, 0.00124236, 0.00124236, 0.00124236
1505, 1,0.00330055, -0.00218515, 0.00151719, 32.4899, -139.472, 0.0121919, -30.7984, 307.04, 0.285095, 0.00136751, 0.00414532, 0.00701774, 33.7604, 208.843, 0.00473411, 0.00137097, 0.00245842, 0.00398956, 31.3406, 107.27, 0.00357354, 0.00137324, 33.5638, -154.891, -505.202, 31.2123, -81.4629, -271.559, 0.00414094, 5.61482E-05, -0.00759503, 0.00245556, 0.00245556, 0.00245556
1506, 1,0.0077597, -0.00357982, 0.00241612, -39.3604, -193.159, 0.0291797, -78.6619, 389.757, 0.804641, 0.00109966, 0.00897543, 0.0155893, -48.475, 313.599, 0.187011, 0.00110606, 0.00656172, 0.0108181, -29.8668, 167.386, 0.175434, 0.00110901, -59.3789, -137.172, -744.245, -39.0125, -78.2368, -384.909, 0.00852994, 0.00541679, -0.0196287, 0.00606328, 0.00606328, 0.00606328
1507, 1,0.00185688, -0.00115786, 0.000806653, -3.89393, -78.0636, 0.0044964, 26.1691, 250.292, 0, 0.00136277, 0.0022708, 0.00412566, -7.61473, 154.172, 0, 0.0013649, 0.00146912, 0.00257112, 1.03351, 91.4913, 0, 0.00136629, -36.3649, -31.8224, -394.328, -27.3147, -8.6271, -238.532, 0.00166021, 0.00176048, -0.00592248, 0.000864519, 0.000864519, 0.000864519
1508, 1,0.0120329, 0.00148193, 0.00102825, 344.946, 85.0575, 0.0383198, 459.335, -132.002, 0.595039, 0.0014424, 0.0134999, 0.00998667, 429.909, -155.24, 0.137026, 0.00144171, 0.01057, 0.00796386, 260.052, -98.9007, 0.137026, 0.00144028, 33.4449, 35.4972, 396.779, 29.6778, 26.7612, 240.263, -0.00465381, -0.00465767, 0.0120392, -0.00369016, -0.00369016, -0.00369016
1509, 1,0.0290247, 0.00452726, 0.00318382, 357.976, 119.877, 0.0775474, 871.979, -284.716, 1, 0.00147806, 0.0335111, 0.0249531, 477.726, -171.308, 0.504443, 0.00146836, 0.0245523, 0.0186681, 238.346, -82.124, 0.427082, 0.00146526, 26.6515, 19.656, 467.617, 9.05451, 6.15115, 231.166, -0.013892, -0.0147464, 0.0325074, -0.010601, -0.010601, -0.010601
1510, 1,0.00144926, -0.000947225, 0.000638099, 11.885, -59.8784, 0.00390135, 66.4289, 158.43, 0, 0.00168077, 0.00177813, 0.00311285, 12.3221, 96.3238, 0, 0.00168246, 0.0011204, 0.00183742, 11.4485, 55.7285, 0, 0.00168357, -21.745, -6.94065, -260.286, -17.8101, -0.166216, -149.209, 0.00105666, 0.00136639, -0.00398612, 0.000500525, 0.000500525, 0.000500525
1511, 1,0.00468371, 0.00113261, 0.00086374, 268.237, 64.7524, 0.0320864, 497.072, -195.547, 0.4824, 0.00161445, 0.0058137, 0.00439409, 332.892, -77.9954, 0, 0.00160949, 0.00355541, 0.00267457, 203.643, -47.8858, 0, 0.0016087, -16.8231, 8.59444, 242.215, -10.4626, 5.31282, 148.807, -0.00158088, -0.00108601, 0.00393255, -0.00097219, -0.00097219, -0.00097219
1512, 1,0.0154451, 0.00262782, 0.00182063, 353.954, 113.661, 0.0693715, 670.063, -242.962, 1, 0.00161515, 0.0180646, 0.0130861, 467.566, -160.863, 0.21112, 0.00160554, 0.0128289, 0.00953911, 240.393, -87.5313, 0.188706, 0.00160335, 8.33665, 17.4004, 456.853, 11.2605, 17.4954, 233.838, -0.00748699, -0.00703884, 0.0174849, -0.00558761, -0.00558761, -0.00558761
1513, 1,0.034359, 0.0051236, 0.00361615, 368.392, 119.989, 0.0757749, 839.724, -290.596, 1, 0.00101078, 0.0394011, 0.0296451, 488.206, -186.936, 0.613828, 0.00100468, 0.029344, 0.0225386, 248.753, -98.6875, 0.5254, 0.00100233, 48.4535, 31.706, 480.649, 31.4645, 21.5898, 243.008, -0.0158459, -0.0180936, 0.0385535, -0.0120265, -0.0120265, -0.0120265
1514, 1,0.0362994, 0.0056757, 0.00413129, 374.798, 123.245, 0.0788805, 922.463, -313.679, 1, 0.00104395, 0.0419025, 0.0321952, 497.889, -202.892, 0.662471, 0.00103739, 0.0307212, 0.0240703, 251.862, -104.546, 0.556061, 0.00103453, 84.8144, 34.5289, 489.333, 46.6756, 21.1764, 245.787, -0.0143348, -0.0212997, 0.0408578, -0.0109238, -0.0109238, -0.0109238
1515, 1,0.0351094, 0.0058319, 0.00428503, 370.231, 122.724, 0.0811524, 982.648, -331.499, 1, 0.00107919, 0.040863, 0.0314435, 492.762, -194.331, 0.643214, 0.00107139, 0.0293849, 0.0230375, 247.892, -98.1879, 0.528962, 0.00106855, 76.1156, 24.4848, 482.393, 39.6536, 14.5, 240.41, -0.0138979, -0.0208078, 0.0396247, -0.0104404, -0.0104404, -0.0104404
1516, 1,0.0313825, 0.00553838, 0.00398404, 358.102, 120.84, 0.0796251, 934.524, -311.059, 1, 0.00111485, 0.0368764, 0.0273976, 478.792, -169.782, 0.565417, 0.00110663, 0.0259068, 0.0195488, 237.558, -80.2215, 0.454045, 0.00110411, 26.1883, 16.4261, 466.731, 7.61596, 3.80162, 229.247, -0.0151705, -0.0164141, 0.0356096, -0.0111036, -0.0111036, -0.0111036
1517, 1,0.0315693, 0.00447068, 0.00311051, 360.626, 118.829, 0.0751591, 817.196, -278.945, 1, 0.000976009, 0.0359992, 0.0269493, 479.342, -174.051, 0.551525, 0.000970013, 0.0271518, 0.0208229, 242.02, -87.8923, 0.480853, 0.00096795, 30.766, 26.1415, 465.244, 17.0888, 13.8349, 232.753, -0.0149102, -0.0156307, 0.0346209, -0.0115331, -0.0115331, -0.0115331
1518, 1,0.0329473, 0.00490725, 0.00348794, 373.272, 121.052, 0.0781959, 910.019, -318, 1, 0.00100957, 0.0378039, 0.0288142, 494.203, -198.849, 0.588981, 0.00100266, 0.0281071, 0.0219317, 252.465, -106.042, 0.504375, 0.00100024, 77.6594, 42.4085, 476.48, 47.7714, 28.8691, 241.485, -0.01328, -0.0177912, 0.0358775, -0.0100902, -0.0100902, -0.0100902
1519, 1,0.0319404, 0.00508465, 0.0036504, 365.512, 120.838, 0.0803035, 959.588, -325.042, 1, 0.00104288, 0.0369761, 0.0283656, 486.22, -185.694, 0.573038, 0.00103508, 0.0269226, 0.0211502, 244.934, -94.0699, 0.479762, 0.00103266, 64.9268, 23.0028, 469.152, 35.622, 12.2638, 234.324, -0.0128071, -0.0179334, 0.03517, -0.0094745, -0.0094745, -0.0094745
1520, 1,0.0296612, 0.00496189, 0.00352318, 364.733, 119.447, 0.0795957, 939.103, -317.777, 1, 0.00107738, 0.0346084, 0.0256789, 484.138, -180.426, 0.525665, 0.0010693, 0.0247198, 0.0186778, 245.371, -93.7391, 0.431401, 0.00106702, 37.2141, 32.9372, 471.127, 23.5105, 19.7184, 237.989, -0.0142896, -0.0149139, 0.0333462, -0.0104598, -0.0104598, -0.0104598
1521, 1,0.0215976, 0.00345185, 0.00240666, 353.771, 116.597, 0.0731156, 753.149, -250.95, 1, 0.000977222, 0.0250339, 0.0184791, 470.262, -162.471, 0.345781, 0.000971427, 0.0181666, 0.0137774, 237.381, -82.1981, 0.298338, 0.00096981, 13.8134, 25.5079, 448.091, 8.52953, 14.6688, 223.396, -0.0105096, -0.00982222, 0.0235983, -0.00786314, -0.00786314, -0.00786314
1522, 1,0.0222037, 0.00383225, 0.0026666, 356.09, 118.274, 0.0756581, 831.442, -284.972, 1, 0.00101103, 0.0260082, 0.0194737, 474.203, -168.657, 0.366344, 0.00100395, 0.0184096, 0.0142016, 238.132, -84.3518, 0.305673, 0.00100216, 38.5446, 25.4183, 442.009, 22.2128, 12.6758, 218.167, -0.00948934, -0.0108144, 0.0237434, -0.00670747, -0.00670747, -0.00670747
1523, 1,0.0235048, 0.00401136, 0.00281897, 362.832, 118.534, 0.0773957, 880.788, -301.923, 1, 0.0010449, 0.0274638, 0.0205002, 481.15, -179.565, 0.39461, 0.00103725, 0.0195665, 0.0149623, 244.73, -94.719, 0.329404, 0.00103533, 48.4051, 40.0522, 450.237, 32.0904, 26.5198, 225.547, -0.010194, -0.0111735, 0.0251034, -0.0073031, -0.0073031, -0.0073031
1524, 1,0.0237166, 0.00391199, 0.00274915, 359.624, 117.635, 0.0772802, 873.484, -294.817, 1, 0.00107879, 0.0276045, 0.0201903, 477.175, -172.025, 0.39508, 0.00107101, 0.0198378, 0.0147557, 242.156, -89.4483, 0.33208, 0.00106908, 21.2646, 37.971, 456.84, 14.9034, 22.9764, 230.465, -0.011871, -0.010632, 0.0260832, -0.00879308, -0.00879308, -0.00879308
1525, 1,0.0136649, 0.00279194, 0.00194045, 350.594, 115.943, 0.0705804, 680.987, -225.145, 1, 0.000977799, 0.0164511, 0.0117903, 466.373, -158.141, 0.1796, 0.000972519, 0.0108816, 0.00798882, 234.977, -80.3151, 0.148555, 0.000971129, 5.63842, 31.7818, 437.003, 4.39142, 20.298, 216.256, -0.00676014, -0.00569549, 0.0153073, -0.00466816, -0.00466816, -0.00466816
1526, 1,0.0142528, 0.00299747, 0.00208662, 353.74, 116.315, 0.0729841, 752.567, -253.979, 1, 0.00101255, 0.0172397, 0.0123034, 469.877, -163.132, 0.195995, 0.00100614, 0.0112714, 0.00823224, 237.78, -85.1861, 0.157712, 0.00100468, 18.1482, 41.0228, 430.225, 14.8741, 26.8341, 213.85, -0.0067435, -0.00581706, 0.0155325, -0.00449683, -0.00449683, -0.00449683
1527, 1,0.0151566, 0.0031148, 0.00217411, 350.565, 116.602, 0.0741379, 783.506, -263.261, 1, 0.00104636, 0.0182405, 0.0130821, 466.855, -157.789, 0.214988, 0.00103932, 0.012088, 0.00884279, 234.584, -79.4892, 0.173889, 0.00103778, 8.61473, 39.8397, 424.912, 6.06582, 24.2254, 208.176, -0.00740828, -0.00595655, 0.0162739, -0.00504943, -0.00504943, -0.00504943
1528, 1,0.0157873, 0.00308863, 0.00215455, 353.255, 116.627, 0.0745004, 791.669, -263.59, 1, 0.00107929, 0.0188572, 0.0136382, 469.733, -162.611, 0.22718, 0.00107213, 0.0127259, 0.0093757, 236.924, -83.0763, 0.186652, 0.00107051, 5.00583, 43.5708, 439.256, 4.10888, 26.3974, 218.723, -0.00816826, -0.00620405, 0.0173934, -0.00576492, -0.00576492, -0.00576492
1529, 1,0.0100263, 0.0023266, 0.00160007, 348.848, 115.344, 0.0678389, 602.94, -197.299, 1, 0.000977726, 0.012348, 0.0086634, 463.885, -155.814, 0.0992461, 0.00097327, 0.0077074, 0.00552378, 234.116, -79.42, 0.0830511, 0.000971981, 2.74953, 36.7403, 427.952, 2.79137, 25.3552, 210.113, -0.00484293, -0.00385847, 0.0113778, -0.00318041, -0.00318041, -0.00318041
1530, 1,0.0106113, 0.00240543, 0.00166948, 347.341, 114.934, 0.0701669, 670.3, -222.017, 1, 0.00101312, 0.0130044, 0.00917416, 461.944, -152.227, 0.112529, 0.00100755, 0.00822526, 0.00586825, 233.068, -77.4589, 0.0939993, 0.00100623, -2.35078, 43.2149, 415.817, -0.0540612, 28.5306, 203.9, -0.00523072, -0.00375324, 0.0116194, -0.00347954, -0.00347954, -0.00347954
1531, 1,0.0103878, 0.00246224, 0.00170637, 346.156, 115.728, 0.0707942, 691.261, -232.326, 1, 0.00104722, 0.0128253, 0.00900764, 461.38, -150.974, 0.109171, 0.00104104, 0.00796516, 0.00569306, 231.436, -75.3418, 0.0889616, 0.00103966, -4.93827, 45.5033, 412.356, -2.42755, 29.0236, 199.429, -0.0051877, -0.00353788, 0.0113341, -0.00336436, -0.00336436, -0.00336436
1532, 1,0.0106736, 0.00250379, 0.00172411, 350.866, 116.151, 0.0709158, 693.719, -232.457, 1, 0.00107939, 0.0131671, 0.00933582, 466.788, -159.871, 0.11652, 0.00107319, 0.00818602, 0.00591598, 235.175, -81.883, 0.0938989, 0.00107171, 0.528001, 51.1063, 427.979, 1.309, 33.0596, 211.28, -0.00546639, -0.00371974, 0.0119604, -0.00360532, -0.00360532, -0.00360532
1533, 1,0.00816068, 0.00198562, 0.00135155, 346.428, 113.482, 0.0644158, 525.301, -188.729, 1, 0.000977905, 0.0101406, 0.00700826, 459.447, -150.41, 0.0552763, 0.000973601, 0.00618434, 0.00433357, 233.862, -76.8299, 0.0502693, 0.000972399, -2.95451, 33.7796, 420.406, -0.831452, 24.8273, 206.494, -0.00381148, -0.00299671, 0.00932648, -0.00244816, -0.00244816, -0.00244816
1534, 1,0.00815625, 0.00199579, 0.00137719, 345.083, 112.921, 0.0662215, 581.203, -211.128, 1, 0.00101311, 0.0101397, 0.00708018, 457.443, -147.033, 0.0554077, 0.00100776, 0.0061807, 0.00436811, 233.274, -75.8948, 0.0503741, 0.00100656, -10.5222, 42.6773, 408.944, -4.20747, 31.3702, 200.522, -0.0039535, -0.00268482, 0.00910018, -0.00254226, -0.00254226, -0.00254226
1535, 1,0.00821552, 0.00202137, 0.00138941, 346.625, 113.353, 0.0672047, 601.682, -211.521, 1, 0.00104686, 0.0102152, 0.00713121, 459.253, -149.904, 0.0577883, 0.00104138, 0.00622943, 0.00440813, 234.717, -78.3989, 0.0523848, 0.00104013, -8.92138, 50.0278, 408.605, -1.90469, 37.3635, 199.738, -0.00401854, -0.00255599, 0.00908793, -0.00257137, -0.00257137, -0.00257137
1536, 1,0.00803121, 0.00206179, 0.00140039, 346.059, 114.582, 0.0670772, 586.114, -195.382, 1, 0.00107865, 0.0100837, 0.00701593, 460.158, -150.955, 0.0558514, 0.00107365, 0.00598486, 0.00424287, 232.439, -76.1763, 0.0482482, 0.0010723, -7.82179, 46.9736, 413.712, -4.91491, 32.2544, 201.189, -0.00394584, -0.00259217, 0.00906619, -0.0024943, -0.0024943, -0.0024943
1537, 1,0.00671546, 0.00179595, 0.00120802, 346.246, 109.797, 0.0497078, 490.886, -167.896, 0.782384, 0.00097652, 0.00850384, 0.00578839, 455.273, -153.4, 0.0251678, 0.000974266, 0.00493254, 0.00340605, 237.951, -81.6505, 0.0240396, 0.000973116, 2.24266, 45.3113, 412.648, 2.86428, 36.3449, 205.742, -0.0030301, -0.00217464, 0.00772939, -0.00184804, -0.00184804, -0.00184804
1538, 1,0.00686082, 0.00180613, 0.00122998, 341.429, 108.324, 0.0530817, 511.23, -200.965, 0.84295, 0.00101178, 0.00865118, 0.00591978, 448.844, -147.176, 0.0283331, 0.00100801, 0.00508146, 0.0035043, 234.857, -77.629, 0.0264337, 0.00100686, -2.41306, 44.8894, 399.053, 0.00775979, 34.6063, 198.273, -0.00310008, -0.00217516, 0.00770179, -0.00188829, -0.00188829, -0.00188829
1539, 1,0.00694431, 0.00180957, 0.00123132, 337.714, 108.121, 0.0558638, 517.681, -209.126, 0.887254, 0.00104611, 0.00873288, 0.0060051, 444.861, -141.783, 0.0305221, 0.00104153, 0.00517012, 0.00361516, 231.466, -72.0871, 0.0284009, 0.00104033, -12.7002, 42.0124, 396.036, -9.72565, 30.5391, 195.448, -0.00327181, -0.00217765, 0.00778993, -0.00204516, -0.00204516, -0.00204516
1540, 1,0.00670921, 0.00180131, 0.00121247, 345.313, 109.216, 0.0574799, 492.765, -187.257, 0.917089, 0.00107833, 0.00850301, 0.00579343, 453.925, -153.093, 0.0269687, 0.00107434, 0.00492079, 0.00339261, 237.276, -81.7612, 0.0251176, 0.00107308, -0.0899228, 51.8357, 407.533, 1.485, 39.1867, 204.612, -0.00306993, -0.00205745, 0.00764942, -0.00185983, -0.00185983, -0.00185983
1541, 1,0.00551403, 0.00165187, 0.0011079, 337.759, 104.425, 0.0312414, 480.244, -162.118, 0.457298, 0.000975841, 0.00715979, 0.00482753, 441.369, -140.559, 0.000112358, 0.000974622, 0.00387343, 0.00263134, 234.858, -72.3411, 0.000112205, 0.000973543, -9.55006, 31.098, 400.13, -9.51223, 23.6477, 202.888, -0.00245481, -0.00176104, 0.00649677, -0.00137994, -0.00137994, -0.00137994
1542, 1,0.00569692, 0.00166389, 0.00112322, 325.349, 101.976, 0.0320095, 478.593, -159.878, 0.472191, 0.00100968, 0.00734981, 0.00501711, 426.416, -134.318, 0.00762018, 0.00100833, 0.00405302, 0.00281071, 225.082, -67.4826, 0.00588752, 0.00100723, -13.8363, 37.8014, 378.99, -14.4124, 27.252, 189.608, -0.0026388, -0.00166777, 0.00649542, -0.00155573, -0.00155573, -0.00155573
1543, 1,0.00563544, 0.00165902, 0.00111931, 328.958, 101.57, 0.0327714, 481.394, -164.12, 0.486576, 0.00104353, 0.00727893, 0.00489219, 429.485, -142.579, 0.0076768, 0.00104214, 0.00400477, 0.00270453, 229.354, -75.3875, 0.00570802, 0.001041, -1.69721, 46.0095, 383.424, -2.97226, 34.2687, 194.866, -0.0024832, -0.00163479, 0.00644152, -0.0014025, -0.0014025, -0.0014025
1544, 1,0.00598571, 0.0016383, 0.00109719, 331.443, 100.575, 0.0354351, 464.278, -153.848, 0.540254, 0.00107636, 0.00761822, 0.00515335, 431.474, -142.333, 0.0146078, 0.00107502, 0.00435749, 0.00297639, 231.88, -75.0105, 0.0128535, 0.00107384, -3.65927, 42.784, 387.873, -5.1328, 29.7399, 200.424, -0.00266715, -0.00179463, 0.00679027, -0.00159162, -0.00159162, -0.00159162
1545, 1,0.00502025, 0.00154367, 0.00103517, 314.491, 97.5417, 0.0186368, 471.318, -156.132, 0.219074, 0.00097577, 0.00655697, 0.00437205, 411.388, -137.94, 0, 0.000975138, 0.00348971, 0.00232171, 218.178, -73.7596, 0, 0.000974123, 2.57516, 36.1907, 375.053, 2.00372, 28.1111, 191.164, -0.00214352, -0.00154759, 0.0059294, -0.00114515, -0.00114515, -0.00114515
1546, 1,0.00493963, 0.00152546, 0.0010271, 306.969, 95.8783, 0.0177533, 467.772, -151.058, 0.201584, 0.00100946, 0.00645558, 0.0043346, 402.074, -132.869, 3.13512E-06, 0.00100885, 0.00343228, 0.0023175, 212.576, -70.5597, 4.90813E-07, 0.00100783, -1.86344, 42.134, 358.336, -2.06715, 32.8615, 180.885, -0.00216203, -0.00134393, 0.00566198, -0.00118507, -0.00118507, -0.00118507
1547, 1,0.00493288, 0.00149032, 0.00100273, 304.654, 93.6525, 0.0170553, 463.517, -145.854, 0.188114, 0.00104307, 0.00641499, 0.00432863, 397.707, -129.624, 1.22817E-05, 0.00104251, 0.00345783, 0.00235052, 212.13, -68.5552, 7.25542E-07, 0.00104148, -6.8951, 38.0089, 357.76, -6.68106, 27.9881, 184.359, -0.00220639, -0.00136361, 0.00567342, -0.00123986, -0.00123986, -0.00123986
1548, 1,0.0049514, 0.00145186, 0.000971561, 311.515, 91.275, 0.017671, 444.568, -144.475, 0.2086, 0.00107619, 0.00639953, 0.00426254, 402.404, -135.618, 0.000195893, 0.00107571, 0.00350637, 0.00233642, 220.949, -75.5476, 4.67085E-05, 0.00107466, 3.42075, 40.0414, 363.393, 3.83781, 29.1816, 193.623, -0.00207207, -0.00139752, 0.00567048, -0.0011136, -0.0011136, -0.0011136
1549, 1,0.00450987, 0.00144355, 0.000967745, 281.138, 91.0799, 0.0125922, 465.161, -151.457, 0.101889, 0.000975922, 0.00594755, 0.00396941, 371.681, -122.887, 0, 0.000975326, 0.00307774, 0.00206844, 191.108, -62.9734, 0, 0.000974378, 0.475604, 30.3903, 337.796, -0.209858, 22.5674, 166.563, -0.00194655, -0.0014, 0.00534062, -0.00101779, -0.00101779, -0.00101779
1550, 1,0.00449322, 0.00141308, 0.000952172, 278.679, 88.973, 0.0123529, 462.385, -147.281, 0.0967971, 0.00100968, 0.00589316, 0.00393772, 366.811, -120.934, 0, 0.00100911, 0.00310537, 0.00209327, 191.331, -62.5774, 0, 0.00100816, 0.767667, 34.5808, 327.453, -0.55611, 25.3286, 162.96, -0.00191478, -0.00128025, 0.00515739, -0.00102383, -0.00102383, -0.00102383
1551, 1,0.00454012, 0.00136344, 0.000915181, 283.881, 85.8373, 0.0122868, 459.081, -149.684, 0.0976928, 0.00104354, 0.00589492, 0.00393952, 369.087, -123.764, 0, 0.00104295, 0.00319275, 0.00213404, 199.228, -67.3313, 0, 0.001042, 1.85518, 39.7639, 329.674, 0.842189, 30.3765, 170.775, -0.00193138, -0.00120124, 0.00514093, -0.00106403, -0.00106403, -0.00106403
1552, 1,0.00452377, 0.00130084, 0.000869525, 284.921, 82.0778, 0.0123147, 406.072, -135.558, 0.117348, 0.00107654, 0.00581886, 0.00388268, 366.55, -123.802, -3.38813E-21, 0.00107617, 0.00323331, 0.00215845, 203.657, -69.3623, -3.38813E-21, 0.00107522, 1.99831, 39.4715, 329.937, 1.44901, 29.3062, 177.332, -0.00191453, -0.00118631, 0.00510979, -0.00106866, -0.00106866, -0.00106866
1553, 1,0.00411797, 0.00134775, 0.0009042, 255.382, 84.9553, 0.00991697, 465.144, -154.739, 0.0500304, 0.000976302, 0.00545925, 0.00366917, 339.777, -110.911, 0, 0.000975538, 0.00278296, 0.00188364, 171.543, -55.1283, 0, 0.000974656, -3.16452, 28.5596, 307.338, -3.96546, 21.3781, 147.972, -0.00183368, -0.00123661, 0.00487003, -0.000972429, -0.000972429, -0.000972429
1554, 1,0.00403953, 0.00130354, 0.000879555, 253.142, 81.9164, 0.00933264, 462.376, -151.093, 0.0381775, 0.0010101, 0.00532938, 0.00355955, 334.215, -112.463, 0, 0.00100941, 0.00276291, 0.00186049, 172.892, -58.9451, 0, 0.00100853, 5.39691, 34.9047, 297.088, 4.03691, 26.6137, 146.185, -0.00168317, -0.00111479, 0.0046229, -0.000869173, -0.000869173, -0.000869173
1555, 1,0.00408096, 0.00123531, 0.000830607, 253.099, 77.6732, 0.00936515, 450.972, -144.243, 0.041485, 0.00104383, 0.00530732, 0.00357279, 330.168, -108.539, 0, 0.00104317, 0.00286238, 0.00194063, 176.565, -57.5696, 0, 0.0010423, -2.55075, 33.7791, 294.388, -3.73771, 25.5103, 150.936, -0.00178567, -0.00106451, 0.00461145, -0.00100799, -0.00100799, -0.00100799
1556, 1,0.00411794, 0.00115734, 0.000774838, 258.237, 72.9024, 0.0098685, 372.611, -125.387, 0.0799064, 0.00107697, 0.00526775, 0.00352027, 330.612, -110.683, 0, 0.00107661, 0.00297399, 0.0019905, 186.279, -62.5148, 0, 0.00107577, 1.15888, 35.1988, 295.692, 0.579845, 26.8152, 160.149, -0.00172691, -0.00105796, 0.00458094, -0.000980351, -0.000980351, -0.000980351
1557, 1,0.00359137, 0.00124977, 0.000839427, 225.424, 78.719, 0.00760226, 455.289, -143.422, 0.00453022, 0.000976451, 0.00483537, 0.00321584, 303.671, -101.757, 0, 0.000975786, 0.00235358, 0.00156926, 147.693, -50.1162, 0, 0.000974969, 2.46313, 27.926, 274.883, 1.67155, 21.0397, 127.637, -0.00156832, -0.00108878, 0.00430829, -0.000772123, -0.000772123, -0.000772123
1558, 1,0.00367235, 0.00118935, 0.000803226, 228.631, 74.6946, 0.00736513, 449.9, -137.608, 0, 0.00101024, 0.00485124, 0.0032546, 302.669, -100.082, 0, 0.00100963, 0.00250347, 0.00168291, 155.231, -51.3504, 0, 0.00100883, 0.487377, 30.5379, 269.221, -0.922047, 22.9669, 132.006, -0.00159195, -0.000995617, 0.00421159, -0.000854393, -0.000854393, -0.000854393
1559, 1,0.00369952, 0.00110894, 0.000748694, 232.566, 69.6157, 0.00738464, 432.338, -136.899, 0.00759353, 0.00104415, 0.00479581, 0.00319033, 301.414, -101.986, 0, 0.00104355, 0.00261417, 0.00174076, 164.391, -56.4888, 0, 0.00104278, 3.80205, 33.8209, 268.336, 2.58541, 27.0088, 139.872, -0.00154759, -0.000943679, 0.00414621, -0.000856696, -0.000856696, -0.000856696
1560, 1,0.00368854, 0.00101236, 0.000678034, 229.895, 63.6998, 0.00759064, 348.005, -111.33, 0.0400839, 0.00107727, 0.00469356, 0.00314397, 293.109, -96.7862, 0, 0.00107697, 0.00268906, 0.0018079, 167.053, -54.7576, 0, 0.00107623, -1.64874, 30.3353, 261.672, -2.22029, 23.3733, 143.12, -0.00156833, -0.000926103, 0.004065, -0.000918232, -0.000918232, -0.000918232
1561, 1,0.00324239, 0.00115369, 0.000776062, 202.487, 72.6346, 0.00682641, 428.399, -142.284, 0, 0.000976835, 0.00439051, 0.0029323, 274.677, -90.8313, 0, 0.000976019, 0.00210046, 0.00140209, 130.797, -43.2783, 0, 0.000975267, 0.875412, 23.2053, 248.413, 0.0641765, 17.1472, 112.623, -0.00142938, -0.00100797, 0.00391124, -0.000698037, -0.000698037, -0.000698037
1562, 1,0.00324626, 0.00107704, 0.00072959, 202.377, 67.57, 0.00652291, 407.301, -133.934, 0, 0.00101063, 0.00431258, 0.00288373, 269.295, -89.2408, 0, 0.0010099, 0.00219067, 0.00146551, 136.119, -45.3407, 0, 0.00100918, 1.884, 26.7412, 239.097, 0.482999, 20.1765, 115.363, -0.00139177, -0.000897143, 0.00373701, -0.000730146, -0.000730146, -0.000730146
1563, 1,0.00325695, 0.000981012, 0.00066463, 202.724, 61.4938, 0.00631139, 392.315, -127.218, 0, 0.00104445, 0.00422458, 0.00282701, 263.423, -87.0474, 0, 0.00104377, 0.00230083, 0.00154098, 142.718, -47.0607, 0, 0.00104309, 0.531534, 26.7356, 233.875, -0.676799, 21.2655, 120.593, -0.00138178, -0.000849398, 0.00364371, -0.000777488, -0.000777488, -0.000777488
1564, 1,0.0032528, 0.000868537, 0.00058294, 203.675, 54.5801, 0.00623895, 319.713, -106.764, 0.0234778, 0.00107781, 0.00411335, 0.00274208, 257.751, -86.0945, 0, 0.00107742, 0.00239807, 0.00159964, 149.971, -50.198, 0, 0.0010768, 0.777377, 27.4775, 230.029, 0.229704, 22.1261, 128.238, -0.00134887, -0.000808546, 0.0035545, -0.000794789, -0.000794789, -0.000794789
1565, 1,0.00287129, 0.00105685, 0.000712054, 179.296, 66.5199, 0.00616554, 386.715, -128.298, 0, 0.000977019, 0.00392335, 0.00262218, 245.435, -81.1978, 0, 0.000976273, 0.00182485, 0.00121817, 113.609, -37.7331, 0, 0.000975585, 1.25596, 19.9861, 222.351, 0.441416, 14.6886, 98.0692, -0.00126999, -0.000918907, 0.00350648, -0.000603156, -0.000603156, -0.000603156
1566, 1,0.00285423, 0.000964672, 0.000655909, 177.721, 60.4473, 0.00579516, 362.404, -119.874, 0, 0.00101085, 0.00380859, 0.00255178, 237.56, -78.5836, 0, 0.00101018, 0.00191048, 0.00127877, 118.516, -39.4974, 0, 0.00100953, 1.86716, 22.8379, 211.046, 0.464942, 17.31, 100.717, -0.00122457, -0.000805908, 0.00330564, -0.00063879, -0.00063879, -0.00063879
1567, 1,0.00282906, 0.000853258, 0.000580814, 176.319, 53.3864, 0.00543721, 339.869, -112.284, 0, 0.00104469, 0.00366838, 0.00245135, 228.895, -75.9705, 0, 0.00104408, 0.00200183, 0.0013393, 124.456, -41.4723, 0, 0.00104349, 1.49829, 22.9852, 203.428, 0.295438, 18.8606, 105.261, -0.0011872, -0.000747352, 0.00316733, -0.000669205, -0.000669205, -0.000669205
1568, 1,0.00280532, 0.000724843, 0.000487996, 175.265, 45.4746, 0.00507281, 287.727, -95.2777, 0.00983151, 0.00107819, 0.00352166, 0.00235003, 220.224, -73.2632, -2.71051E-20, 0.00107779, 0.00209489, 0.00140004, 130.67, -43.4789, -2.71051E-20, 0.00107727, 0.306874, 22.677, 196.806, -0.227816, 18.9542, 111.71, -0.00115679, -0.00069972, 0.00304537, -0.000698643, -0.000698643, -0.000698643
1569, 1,0.00250684, 0.000960266, 0.000648239, 156.179, 60.4146, 0.00546703, 342.968, -113.91, 0, 0.000977193, 0.00346315, 0.00231924, 216.287, -71.2767, 0, 0.000976517, 0.00155549, 0.00104042, 96.4597, -31.8903, 0, 0.000975893, 1.16822, 16.0934, 196.569, 0.349748, 11.6132, 83.7081, -0.001116, -0.000838961, 0.00311156, -0.000513518, -0.000513518, -0.000513518
1570, 1,0.00246689, 0.000853657, 0.000583363, 153.263, 53.3874, 0.00505111, 315.978, -104.791, 0, 0.00101103, 0.00331041, 0.00222243, 206.077, -67.9302, 0, 0.00101043, 0.00163421, 0.00109464, 101.074, -33.6464, 0, 0.00100987, 1.91468, 18.6548, 183.221, 0.511784, 14.2649, 86.1626, -0.00105629, -0.000720269, 0.00287886, -0.000546173, -0.000546173, -0.000546173
1571, 1,0.00239682, 0.000726685, 0.000498068, 148.834, 45.3349, 0.0045726, 284.955, -93.4314, 0, 0.00104485, 0.00310893, 0.00208358, 193.341, -63.7721, 0, 0.00104435, 0.00169745, 0.00113709, 105.061, -34.75, 0, 0.00104386, 1.14688, 17.9065, 172.263, -0.0540441, 15.169, 89.1351, -0.00100296, -0.000655597, 0.00269339, -0.000571136, -0.000571136, -0.000571136
1572, 1,0.00235861, 0.000580965, 0.000393081, 147.396, 36.3651, 0.00404215, 251.161, -81.2403, 0, 0.00107857, 0.00293083, 0.001952, 183.245, -61.0883, 0, 0.00107821, 0.0017921, 0.00119695, 111.889, -37.4033, 0, 0.0010778, 1.0993, 17.2895, 164.876, 0.573818, 15.2009, 96.4353, -0.000948281, -0.000613516, 0.0025531, -0.000585943, -0.000585943, -0.000585943
1573, 1,0.00214659, 0.000863931, 0.000584649, 133.364, 54.3207, 0.00477603, 299.437, -99.3333, 0, 0.00097737, 0.0030074, 0.00201952, 187.461, -61.5129, 0, 0.000976771, 0.00129001, 0.000865546, 79.5755, -26.1979, 0, 0.000976211, 1.17537, 12.1134, 171.25, 0.355144, 8.49159, 69.7468, -0.000962463, -0.000762965, 0.00272359, -0.000424174, -0.000424174, -0.000424174
1574, 1,0.00207424, 0.000743874, 0.000511961, 128.363, 46.3875, 0.00429252, 268.094, -88.6733, 0, 0.00101122, 0.00280818, 0.00189249, 174.218, -57.0403, 0, 0.0010107, 0.00135155, 0.000906563, 83.1257, -27.5438, 0, 0.00101022, 1.79674, 14.1436, 155.181, 0.391438, 10.9162, 71.3239, -0.000887891, -0.000637432, 0.00245091, -0.000453216, -0.000453216, -0.000453216
1575, 1,0.0019927, 0.000601938, 0.000416984, 123.567, 37.375, 0.0037849, 236.139, -77.8915, 0, 0.00104506, 0.00257962, 0.00173162, 160.107, -52.8058, 0, 0.00104464, 0.00141895, 0.000951799, 87.7699, -29.2416, 0, 0.00104424, 1.60621, 13.3562, 143.455, 0.413687, 12.0812, 75.2299, -0.000821167, -0.00057203, 0.00225008, -0.000475098, -0.000475098, -0.000475098
1576, 1,0.0019225, 0.000439121, 0.000300192, 119.611, 27.3587, 0.00328642, 205.112, -67.2962, 0, 0.0010789, 0.00235157, 0.00157127, 146.391, -48.3393, 0, 0.00107857, 0.00149941, 0.00100493, 93.1776, -30.7451, 0, 0.00107826, 0.542924, 11.4415, 133.034, 0.0238005, 11.0934, 81.118, -0.000759329, -0.00052918, 0.00207293, -0.000492721, -0.000492721, -0.000492721
1577, 1,0.00178949, 0.000768001, 0.00052143, 110.659, 48.2458, 0.00408469, 255.853, -84.7153, 0, 0.00097754, 0.00255505, 0.00172331, 158.769, -51.7136, 0, 0.000977017, 0.00102761, 0.000694072, 62.7603, -20.4618, 0, 0.000976522, 1.12457, 7.90165, 146.115, 0.304083, 5.17263, 55.9086, -0.000809563, -0.000690884, 0.0023396, -0.000335309, -0.000335309, -0.000335309
1578, 1,0.00169064, 0.000635782, 0.000442149, 104.089, 39.4702, 0.00354778, 221.413, -73.2952, 0, 0.00101143, 0.002317, 0.00157065, 143.089, -46.4248, 0, 0.00101099, 0.00107584, 0.00072266, 65.6831, -21.7014, 0, 0.00101058, 1.86168, 9.56638, 127.846, 0.457945, 7.53781, 57.1085, -0.000719975, -0.000559945, 0.00203325, -0.000360438, -0.000360438, -0.000360438
1579, 1,0.00158501, 0.000480788, 0.000339454, 97.6272, 29.5879, 0.00301887, 188.023, -61.9044, 0, 0.0010453, 0.00204894, 0.00138409, 126.304, -41.1655, 0, 0.00104495, 0.00113601, 0.00076502, 69.7775, -23.0451, 0, 0.00104464, 1.28389, 8.20906, 114.003, 0.0943714, 8.4563, 60.5846, -0.000645205, -0.000490341, 0.00180354, -0.000384773, -0.000384773, -0.000384773
1580, 1,0.00148491, 0.000301263, 0.000211134, 92.1007, 18.5398, 0.00252575, 156.704, -50.4392, 0, 0.00107918, 0.00177287, 0.00118894, 109.9, -36.0589, 0, 0.00107893, 0.00120377, 0.000808257, 74.684, -24.5484, 0, 0.00107873, 0.486866, 6.17095, 101.519, -0.023665, 7.59621, 66.0727, -0.000567134, -0.000440026, 0.0015923, -0.000396093, -0.000396093, -0.000396093
1581, 1,0.00143877, 0.000672602, 0.000458696, 88.2899, 42.1967, 0.00339418, 212.311, -70.1078, 0, 0.000977735, 0.00210915, 0.00143284, 130.433, -41.9863, 0, 0.000977289, 0.000772273, 0.000529241, 46.244, -14.7895, 0, 0.000976858, 1.11384, 3.58431, 121.261, 0.295687, 1.77303, 42.2998, -0.000656926, -0.000621811, 0.00196005, -0.000246522, -0.000246522, -0.000246522
1582, 1,0.00131321, 0.000530388, 0.000374969, 80.0483, 32.6837, 0.00281675, 175.389, -57.9325, 0, 0.00101163, 0.00183472, 0.00125814, 112.339, -35.7356, 0, 0.00101126, 0.000803935, 0.000541694, 48.3304, -15.7709, 0, 0.00101093, 1.75536, 4.77709, 100.674, 0.353721, 3.97674, 42.9822, -0.000554458, -0.000485532, 0.00161986, -0.000269817, -0.000269817, -0.000269817
1583, 1,0.00117912, 0.000365554, 0.000267754, 71.847, 22.0832, 0.00226363, 140.397, -45.8574, 0, 0.00104553, 0.00152486, 0.0010435, 92.8846, -29.6386, 0, 0.00104526, 0.000851648, 0.000575963, 51.8071, -16.948, 0, 0.00104504, 1.19749, 3.03427, 84.684, 0.010523, 4.82252, 46.0111, -0.000465949, -0.000410789, 0.00135768, -0.00029094, -0.00029094, -0.00029094
1584, 1,0.00105404, 0.000175428, 0.00013401, 64.8648, 10.2873, 0.00177271, 108.953, -33.8452, 0, 0.00107944, 0.00120577, 0.000818726, 73.8937, -23.6766, 0, 0.00107926, 0.000911923, 0.000615424, 56.3463, -18.2466, 0, 0.00107917, 0.36269, 0.557376, 70.1099, -0.135477, 3.80953, 51.0658, -0.000374751, -0.000356233, 0.00111519, -0.000299137, -0.000299137, -0.000299137
1585, 1,0.00109852, 0.000578001, 0.000396722, 66.3881, 36.1867, 0.00270504, 168.75, -55.402, 0, 0.000977925, 0.001673, 0.00115173, 102.562, -32.2674, 0, 0.000977558, 0.00053144, 0.000378654, 30.2453, -9.11677, 0, 0.000977191, 1.06399, -0.841387, 96.5795, 0.250152, -1.71688, 28.817, -0.000505202, -0.000554876, 0.00158368, -0.000158469, -0.000158469, -0.000158469
1586, 1,0.000947574, 0.000429258, 0.000311967, 56.6096, 26.1023, 0.00209378, 129.723, -42.5454, 0, 0.00101185, 0.0013688, 0.000961618, 82.4274, -25.0979, 0, 0.00101156, 0.00053975, 0.000368328, 31.3198, -9.87821, 0, 0.00101131, 1.69833, -0.0920442, 73.6874, 0.300501, 0.352261, 28.9819, -0.000388632, -0.000413406, 0.00120929, -0.000178634, -0.000178634, -0.000178634
1587, 1,0.000786033, 0.000262221, 0.000207871, 46.6606, 15.145, 0.00152673, 93.7155, -29.847, 0, 0.00104578, 0.00102465, 0.000726418, 60.5843, -18.119, 0, 0.00104558, 0.000572111, 0.000390477, 34.0908, -10.8457, 0, 0.00104546, 1.11857, -2.27989, 55.5185, -0.0635525, 1.06393, 31.5367, -0.000286578, -0.000334137, 0.000914733, -0.000196741, -0.000196741, -0.000196741
1588, 1,0.000637881, -0.000108319, 0.000101043, 38.4664, -5.4133, 0.00107995, 64.2378, -17.1922, 0, 0.00107972, 0.000671486, 0.000481079, 39.54, -11.3578, 0, 0.00107962, 0.000625204, 0.000427301, 38.4234, -12.0046, 0, 0.00107963, 0.311319, -5.13052, 38.8927, -0.172995, -0.0353197, 36.2222, -0.000181783, -0.000274868, 0.00064096, -0.000201499, -0.000201499, -0.000201499
1589, 1,0.000779537, 0.000484606, 0.000335913, 45.4583, 30.2356, 0.00201878, 125.207, -40.5649, 0, 0.000978085, 0.0012545, 0.00088806, 75.541, -22.5733, 0, 0.0009778, 0.000329228, 0.00026663, 15.8396, -3.46028, 0, 0.000977496, 1.02321, -5.3195, 72.0162, 0.215459, -5.24983, 15.4152, -0.000353629, -0.00048923, 0.00120915, -7.03916E-05, -7.03916E-05, -7.03916E-05
1590, 1,0.000612745, 0.000335385, 0.000256133, 34.6933, 19.8684, 0.0013845, 84.6685, -27.1245, 0, 0.00101204, 0.00094028, 0.000702096, 54.3795, -14.4903, 0, 0.00101183, 0.000302478, 0.000223912, 15.5129, -4.00179, 0, 0.00101166, 1.64453, -5.01986, 46.8461, 0.252837, -3.32413, 15.0766, -0.000223132, -0.000342847, 0.000801103, -8.7507E-05, -8.7507E-05, -8.7507E-05
1591, 1,0.00043606, 0.000183408, 0.000172439, 23.5725, 9.37491, 0.000841839, 49.6979, -13.8796, 0, 0.00104599, 0.000596984, 0.000481498, 31.8135, -6.64845, 0, 0.00104587, 0.000310125, 0.000221327, 17.3448, -4.77964, 0, 0.00104583, 1.07051, -7.63406, 26.5089, -0.105481, -2.73384, 17.1782, -0.00010725, -0.000259001, 0.000474133, -0.000102353, -0.000102353, -0.000102353
1592, 1,0.000291257, -0.000202158, 0.000146216, 15.6451, -12.143, 0.000591059, 29.5704, -0.694562, 0, 0.00107996, 0.00030596, 0.000312134, 13.4196, 0.956786, 0, 0.00107993, 0.000355385, 0.000255928, 21.6332, -5.76356, 0, 0.00108005, 0.250149, -10.8914, 7.77092, -0.219073, -3.94787, 21.4576, 1.09609E-05, -0.000195037, 0.000168553, -0.000104002, -0.000104002, -0.000104002
1593, 1,0.000512441, 0.000393168, 0.000277015, 26.961, 24.3799, 0.00134678, 82.1708, -25.5654, 0, 0.000978271, 0.000874611, 0.000662755, 50.3618, -12.8948, 0, 0.00097807, 0.000223878, 0.000251385, 6.50432, 2.18912, 0, 0.00097783, 0.976107, -9.81355, 47.5218, 0.177068, -8.79695, 2.05251, -0.000202379, -0.000424019, 0.00083564, 1.75519E-05, 1.75519E-05, 1.75519E-05
1594, 1,0.000368183, 0.000254341, 0.000213038, 17.2727, 14.2476, 0.000725395, 41.9498, -11.6509, 0, 0.00101223, 0.000605033, 0.000535431, 30.9513, -3.91988, 0, 0.0010121, 0.000170448, 0.000185051, 5.12408, 1.8508, 0, 0.00101201, 1.59718, -9.95113, 20.1136, 0.214156, -7.00662, 1.24006, -5.79943E-05, -0.000272867, 0.000394459, 3.52479E-06, 3.52479E-06, 3.52479E-06
1595, 1,0.000249092, -0.000209017, 0.000176674, 8.60201, -11.2271, 0.000394733, 17.4471, 2.0179, 0, 0.00104621, 0.000380666, 0.00044762, 13.4987, 4.79311, 0, 0.00104616, 0.000143352, 0.000149183, 5.48106, 1.26951, 0, 0.00104622, 1.0235, -12.9951, -2.4077, -0.14475, -6.54833, 2.88456, 7.17207E-05, -0.00018444, 3.49368E-05, -8.09189E-06, -8.09189E-06, -8.09189E-06
1596, 1,0.000209762, -0.000331508, 0.000226959, 5.07114, -20.5599, 0.000505037, 13.4586, 15.6493, 0, 0.0010802, 0.000315246, 0.000517982, 4.93152, 13.2601, 0, 0.00108024, 0.000166768, 0.000165921, 9.02838, 0.469018, 0, 0.00108047, 0.192016, -16.6581, -23.3142, -0.261059, -7.87632, 6.73033, 0.000203632, -0.000115517, -0.000303287, -6.50102E-06, -6.50102E-06, -6.50102E-06
1597, 1,0.000359861, 0.000305175, 0.000221511, 14.0817, 18.6914, 0.00074168, 42.0422, -10.3684, 0, 0.000978457, 0.000584739, 0.00052724, 29.4978, -3.23346, 0, 0.000978343, 0.000228424, 0.000345955, 3.14868, 7.83015, 0, 0.000978168, 0.926353, -14.2787, 23.0527, 0.138062, -12.321, -11.3075, -5.13952E-05, -0.000358386, 0.000462248, 0.000105412, 0.000105412, 0.000105412
1598, 1,0.000298758, 0.000194754, 0.000191308, 8.31505, 9.65168, 0.000342628, 12.6066, 3.87406, 0, 0.00101244, 0.000453495, 0.000552089, 16.3716, 6.61861, 0, 0.0010124, 0.000187727, 0.000295408, 2.16846, 7.68482, 0, 0.00101238, 1.54942, -14.843, -6.56228, 0.177505, -10.6619, -12.5701, 0.000106732, -0.000202548, -1.15966E-05, 9.44098E-05, 9.44098E-05, 9.44098E-05
1599, 1,0.000278916, -0.000293716, 0.000218124, 3.93091, -17.2645, 0.00041421, 6.81666, 17.8867, 0, 0.00104644, 0.000408207, 0.000657311, 6.78486, 16.2036, 0, 0.00104647, 0.00016319, 0.000264719, 2.09493, 7.29929, 0, 0.00104662, 0.979994, -18.3058, -31.285, -0.178822, -10.3348, -11.3842, 0.000250371, -0.000109356, -0.000403957, 8.60746E-05, 8.60746E-05, 8.60746E-05
1600, 1,0.000305098, -0.00047035, 0.000317292, 2.51405, -29.4235, 0.000645535, 7.90072, 31.7658, 0, 0.00108044, 0.000463538, 0.000862888, 2.81685, 25.5589, 0, 0.00108055, 0.00016392, 0.000262008, 3.93262, 6.69934, 0, 0.00108088, 0.131903, -22.381, -54.4277, -0.30414, -11.7848, -8.0091, 0.000396222, -3.52202E-05, -0.00077575, 9.09812E-05, 9.09812E-05, 9.09812E-05
1601, 1,0.000343244, 0.000223856, 0.000172621, 7.87921, 13.3256, 0.000423533, 15.3988, 5.06976, 0, 0.000978627, 0.000455307, 0.000551929, 16.3234, 6.41043, 0, 0.000978606, 0.000283003, 0.000490477, 1.97469, 13.4632, 0, 0.000978494, 0.87483, -18.6723, -1.43378, 0.0987385, -15.7873, -24.7009, 9.93444E-05, -0.000291495, 8.81253E-05, 0.000193208, 0.000193208, 0.000193208
1602, 1,0.00035135, -0.000232223, 0.000197906, 4.9375, -12.3455, 0.000418365, 4.93662, 19.4626, 0, 0.00101265, 0.000472676, 0.000739096, 9.70453, 17.124, 0, 0.00101269, 0.000256399, 0.000457038, 1.328, 13.4986, 0, 0.00101275, 1.50735, -19.647, -33.2322, 0.14931, -14.2514, -26.3937, 0.000271176, -0.000130959, -0.000418101, 0.000185277, 0.000185277, 0.000185277
1603, 1,0.0003817, -0.000399403, 0.000280626, 2.4635, -24.2959, 0.000602365, 3.9063, 33.6824, 0, 0.00104666, 0.000531288, 0.00096229, 4.33996, 27.5857, 0, 0.00104677, 0.000240135, 0.000437622, 1.22996, 13.3118, 0, 0.00104701, 0.942178, -23.5174, -60.1819, -0.205001, -14.0563, -25.674, 0.000428817, -3.2774E-05, -0.000843685, 0.000180264, 0.000180264, 0.000180264
1604, 1,0.000434212, -0.00061248, 0.00041104, 1.62921, -38.4404, 0.000852328, 5.57384, 47.8299, 0, 0.00108068, 0.000639653, 0.00123571, 1.99808, 37.8537, 0, 0.00108086, 0.000237221, 0.00043456, 2.32682, 12.9271, 0, 0.00108129, 0.0716636, -28.0034, -85.6294, -0.346387, -15.6301, -22.8047, 0.000588836, 4.69359E-05, -0.00125003, 0.000188542, 0.000188542, 0.000188542
1605, 1,0.000401558, 0.000156311, 0.000137439, 5.17822, 8.62297, 0.000490174, 7.03688, 20.8205, 0, 0.000978829, 0.00046985, 0.000720334, 9.96939, 16.034, 0, 0.000978905, 0.000355181, 0.000652499, 1.44848, 19.0842, 0, 0.000978857, 0.825157, -22.9526, -25.9745, 0.0638903, -19.1598, -38.1567, 0.000249881, -0.000222555, -0.000287514, 0.00028099, 0.00028099, 0.00028099
1606, 1,0.00044685, -0.000302209, 0.000230225, 3.48103, -17.4248, 0.000622655, 3.01848, 35.1201, 0, 0.00101286, 0.000571256, 0.00100517, 6.65794, 27.5974, 0, 0.00101299, 0.00033805, 0.000631591, 0.985801, 19.293, 0, 0.00101312, 1.47801, -24.3203, -59.95, 0.137335, -17.7416, -40.2747, 0.000435528, -5.72452E-05, -0.000826122, 0.000276326, 0.000276326, 0.000276326
1607, 1,0.000503391, -0.00051496, 0.000353056, 1.82359, -31.7902, 0.000824097, 2.65245, 49.3501, 0, 0.00104689, 0.000684069, 0.00129683, 3.2054, 38.9393, 0, 0.00104706, 0.000327975, 0.000621596, 0.896697, 19.3061, 0, 0.0010474, 0.922885, -28.5827, -89.1581, -0.209871, -17.6779, -40.0306, 0.000607361, 4.61984E-05, -0.00128544, 0.000274782, 0.000274782, 0.000274782
1608, 1,0.000572213, -0.000756086, 0.000506356, 1.20973, -47.5249, 0.00108178, 4.48484, 63.7702, 0, 0.00108093, 0.000824518, 0.00161746, 1.59492, 50.1467, 0, 0.00108117, 0.000326105, 0.000623022, 1.66044, 19.1537, 0, 0.00108171, 0.0168859, -33.4824, -116.975, -0.382093, -19.3825, -37.6964, 0.000781652, 0.000131795, -0.00172719, 0.000286347, 0.000286347, 0.000286347
1609, 1,0.000490128, -0.000141064, 0.000127647, 3.83752, -7.01676, 0.000688791, 4.52152, 36.9927, 0, 0.000979032, 0.000555274, 0.000959285, 6.93492, 25.6325, 0, 0.000979213, 0.000434573, 0.000821565, 1.17984, 24.6888, 0, 0.000979228, 0.778176, -27.0754, -50.6002, 0.0347334, -22.4023, -51.699, 0.000400166, -0.00015074, -0.000665369, 0.000368722, 0.000368722, 0.000368722
1610, 1,0.000557877, -0.000388865, 0.00027931, 2.7404, -23.2915, 0.000855688, 2.33459, 50.8556, 0, 0.00101307, 0.000701464, 0.00130259, 5.07527, 38.0362, 0, 0.00101329, 0.000424263, 0.000810713, 0.829008, 25.0647, 0, 0.0010135, 1.47304, -28.8189, -86.7629, 0.154426, -21.0981, -54.2503, 0.000600007, 1.9416E-05, -0.00123665, 0.000367793, 0.000367793, 0.000367793
1611, 1,0.000631853, -0.000635301, 0.000430329, 1.49024, -39.5058, 0.00105394, 1.94308, 64.8164, 0, 0.00104711, 0.000848432, 0.00164306, 2.59075, 50.2734, 0, 0.00104736, 0.000419184, 0.000809283, 0.745112, 25.2907, 0, 0.00104778, 0.93031, -33.4657, -118.285, -0.183994, -21.1765, -54.5117, 0.000786339, 0.000128377, -0.00173051, 0.000369978, 0.000369978, 0.000369978
1612, 1,0.000713611, -0.000900539, 0.00060254, 0.974006, -56.6471, 0.00131288, 3.84625, 79.253, 0, 0.00108116, 0.00101312, 0.00200345, 1.37088, 62.4454, 0, 0.00108145, 0.000419704, 0.00081678, 1.33175, 25.3855, 0, 0.00108211, -0.0182232, -38.8029, -148.515, -0.397335, -23.0437, -52.7155, 0.000975064, 0.000219683, -0.00220806, 0.000384768, 0.000384768, 0.000384768
1613, 1,0.000591737, -0.000193813, 0.000148186, 3.08341, -11.0262, 0.000929434, 3.52884, 53.7281, 0, 0.000979251, 0.000670731, 0.0012279, 5.31115, 35.2003, 0, 0.000979545, 0.00051738, 0.000993821, 1.03949, 30.2708, 0, 0.000979623, 0.738912, -31.0025, -75.3373, 0.0169375, -25.4827, -65.3467, 0.000550212, -7.53463E-05, -0.00104607, 0.00045642, 0.00045642, 0.00045642
1614, 1,0.000675674, -0.000484805, 0.000337773, 2.32153, -29.5931, 0.00110233, 2.24321, 66.6932, 0, 0.00101329, 0.000845801, 0.00161395, 4.15865, 48.4529, 0, 0.00101359, 0.000512453, 0.000991873, 0.753589, 30.8262, 0, 0.00101388, 1.47956, -33.1144, -113.724, 0.188902, -24.3026, -68.3648, 0.000764529, 9.97775E-05, -0.00165057, 0.000459621, 0.000459621, 0.000459621
1615, 1,0.000763203, -0.000758174, 0.000510177, 1.2857, -47.3356, 0.00128379, 1.59083, 79.976, 0, 0.00104733, 0.00101812, 0.00199511, 2.21399, 61.6073, 0, 0.00104764, 0.000511646, 0.000998862, 0.670597, 31.2839, 0, 0.00104816, 0.963507, -38.1543, -147.631, -0.127293, -24.5531, -69.1712, 0.000966043, 0.000214256, -0.00218002, 0.000466151, 0.000466151, 0.000466151
1616, 1,0.000858043, -0.00104555, 0.000699256, 0.891514, -65.7933, 0.00153905, 3.45562, 94.1469, 0, 0.00108139, 0.00120514, 0.00239386, 1.30698, 74.7746, 0, 0.00108173, 0.000516781, 0.00101496, 1.22588, 31.6458, 0, 0.00108249, -0.0436888, -43.8753, -180.405, -0.401821, -26.5464, -67.9893, 0.00116926, 0.000312827, -0.00269547, 0.000483979, 0.000483979, 0.000483979
1617, 1,0.000700006, -0.000267005, 0.000189267, 2.6328, -16, 0.00119413, 3.19031, 71.1333, 0, 0.000979459, 0.000800365, 0.00151006, 4.3594, 44.7379, 0, 0.000979879, 0.000602208, 0.00116766, 0.981996, 35.8322, 0, 0.000980021, 0.687082, -34.6881, -100.213, -0.010049, -28.3644, -79.1222, 0.000699556, 4.59177E-06, -0.00143012, 0.000543643, 0.000543643, 0.000543643
1618, 1,0.000796956, -0.000585805, 0.000401396, 2.076, -36.128, 0.00136244, 2.97167, 82.643, 0, 0.00101351, 0.000997248, 0.00193233, 3.59023, 58.8375, 0, 0.0010139, 0.000601903, 0.00117426, 0.742788, 36.5686, 0, 0.00101427, 1.4999, -37.1475, -140.865, 0.242714, -27.3065, -82.6419, 0.00092894, 0.000184908, -0.00206862, 0.000551666, 0.000551666, 0.000551666
1619, 1,0.000896721, -0.000882482, 0.000591505, 1.1506, -55.2281, 0.00152068, 2.46919, 94.9094, 0, 0.00104757, 0.00119109, 0.00235119, 1.95841, 72.9573, 0, 0.00104794, 0.000605774, 0.00119059, 0.694696, 37.3004, 0, 0.00104855, 0.982105, -42.5771, -177.277, -0.0795385, -27.7506, -84.0711, 0.00114587, 0.000305627, -0.00263539, 0.000562692, 0.000562692, 0.000562692
1620, 1,0.00100456, -0.00119087, 0.000796218, 0.818972, -74.9524, 0.00176468, 3.41287, 108.62, 0, 0.00108164, 0.00139957, 0.00278807, 1.26299, 87.2216, 0, 0.00108202, 0.000615863, 0.0012165, 1.13359, 38.0187, 0, 0.00108288, -0.114608, -48.6958, -212.855, -0.449511, -29.8855, -83.7213, 0.00136447, 0.000412784, -0.00319262, 0.000584175, 0.000584175, 0.000584175
1621, 1,0.000811889, -0.000350056, 0.000240367, 2.36977, -21.4332, 0.00147699, 3.32112, 89.2621, 0, 0.000979663, 0.000937279, 0.00179892, 3.77999, 54.2146, 0, 0.00098022, 0.00068823, 0.00134234, 0.992786, 41.3467, 0, 0.000980425, 0.67666, -38.0552, -125.265, 0.00732752, -30.9784, -93.0688, 0.000848757, 9.01689E-05, -0.00181867, 0.00063101, 0.00063101, 0.00063101
1622, 1,0.000919395, -0.000689533, 0.000467911, 1.83401, -42.7838, 0.00165274, 5.29129, 98.704, 0, 0.00101374, 0.00115161, 0.0022535, 3.11897, 69.2474, 0, 0.00101423, 0.000691573, 0.00135669, 0.701237, 42.3535, 0, 0.00101467, 1.43162, -40.9069, -168.267, 0.210281, -30.1034, -97.1672, 0.00109187, 0.000275962, -0.00249152, 0.000642554, 0.000642554, 0.000642554
1623, 1,0.00103262, -0.00100758, 0.000673742, 1.06594, -63.1536, 0.00181598, 5.27005, 109.868, 0, 0.00104781, 0.00136703, 0.0027104, 1.77951, 84.3497, 0, 0.00104824, 0.000701966, 0.00138431, 0.752552, 43.3649, 0, 0.00104894, 0.925056, -46.6419, -207.332, -0.103053, -30.6782, -99.3133, 0.0013249, 0.00040501, -0.00309866, 0.00065862, 0.00065862, 0.00065862
1624, 1,0.00115493, -0.00133668, 0.000893553, 0.944444, -84.1367, 0.00201009, 4.38901, 123.006, 0, 0.00108186, 0.00159825, 0.00318699, 1.42486, 99.644, 0, 0.00108227, 0.00071868, 0.00142207, 1.23221, 44.3541, 0, 0.00108324, -0.104692, -53.0958, -245.732, -0.416117, -32.9074, -99.7388, 0.00156114, 0.000521183, -0.00369926, 0.00068564, 0.00068564, 0.00068564
1625, 1,0.000926637, -0.000437315, 0.000295942, 2.1384, -27.0509, 0.00179232, 4.61826, 108.07, 0, 0.000979885, 0.00107885, 0.00208982, 3.32771, 63.7412, 0, 0.00098059, 0.000775747, 0.00151651, 0.977496, 46.943, 0, 0.000980857, 0.358806, -41.1123, -150.47, -0.284446, -33.3482, -107.197, 0.000992029, 0.000183123, -0.00220948, 0.000712923, 0.000712923, 0.000712923
1626, 1,0.00104392, -0.000794626, 0.000536078, 1.83049, -49.4913, 0.00200095, 9.8725, 114.966, 0, 0.00101398, 0.00130903, 0.00257614, 2.94865, 79.4198, 0, 0.00101456, 0.00078284, 0.00153916, 0.877502, 47.9301, 0, 0.00101508, 1.55701, -44.1176, -195.699, 0.364781, -32.4336, -111.722, 0.00125494, 0.000374836, -0.00291853, 0.000733927, 0.000733927, 0.000733927
1627, 1,0.00116982, -0.00113321, 0.000756869, 1.04859, -71.1013, 0.0021617, 10.1926, 125.178, 0, 0.00104804, 0.00154464, 0.00307108, 1.68519, 95.7128, 0, 0.00104854, 0.000799105, 0.00157868, 0.846839, 49.4046, 0, 0.00104933, 0.8952, -50.2665, -237.767, -0.110621, -33.2475, -114.855, 0.00150408, 0.000513228, -0.00357046, 0.00075456, 0.00075456, 0.00075456
1628, 1,0.00130581, -0.00148303, 0.000991176, 0.83862, -93.355, 0.00228654, 6.17295, 138.224, 0, 0.00108208, 0.00179781, 0.00358982, 1.36053, 112.405, 0, 0.00108254, 0.000821548, 0.0016303, 1.09569, 51.0009, 0, 0.00108362, -0.310057, -57.3095, -279.594, -0.605832, -35.8241, -116.573, 0.0017587, 0.000638959, -0.00422167, 0.000787436, 0.000787436, 0.000787436
1629, 1,0.00104184, -0.000525239, 0.000352951, 2.37658, -32.6689, 0.00214577, 7.51936, 126.968, 0, 0.000980086, 0.00122077, 0.00238204, 3.39874, 72.4904, 0, 0.000980953, 0.000864902, 0.00169328, 1.43444, 51.8379, 0, 0.000981282, 1.24758, -43.025, -175.694, 0.612018, -34.6748, -121.451, 0.0011482, 0.000288366, -0.00261286, 0.00080855, 0.00080855, 0.00080855
1630, 1,0.00117037, -0.000899837, 0.000605127, 1.74235, -56.1796, 0.00244803, 18.6806, 131.586, 0, 0.00101417, 0.00146885, 0.00289807, 2.71664, 89.7898, 0, 0.00101486, 0.000874705, 0.00172049, 0.855659, 53.7706, 0, 0.00101545, 1.28111, -47.07, -223.581, 0.0641491, -34.5871, -126.789, 0.0014123, 0.000482999, -0.00335233, 0.000819517, 0.000819517, 0.000819517
1631, 1,0.00130385, -0.00125955, 0.000841134, 0.941939, -79.0786, 0.00257644, 17.6961, 141.385, 0, 0.0010482, 0.0017194, 0.00342952, 1.52934, 107.003, 0, 0.00104879, 0.000892905, 0.0017698, 0.883645, 55.3793, 0, 0.00104967, 1.03202, -53.5559, -268.487, -0.00439394, -35.5485, -130.585, 0.00168576, 0.000627625, -0.00404975, 0.000852012, 0.000852012, 0.000852012
1632, 1,0.00146341, -0.00163103, 0.00108988, 1.38314, -102.671, 0.00258505, 8.5935, 153.986, 0, 0.00108223, 0.00200463, 0.00399865, 1.9505, 124.699, 0, 0.00108274, 0.000930285, 0.00184213, 1.58331, 57.1215, 0, 0.00108393, 0.102119, -60.5841, -313.615, -0.197878, -37.8836, -133.283, 0.00196215, 0.000769109, -0.00475477, 0.000893776, 0.000893776, 0.000893776
1633, 1,0.00115319, -0.000609306, 0.000407759, 0.792594, -38.0523, 0.00269643, 17.4659, 139.89, 0.00528415, 0.000980404, 0.0013572, 0.00264037, 1.56742, 83.3852, 0, 0.00098131, 0.000950243, 0.00184087, 0.0973534, 59.0306, 0, 0.000981698, -3.62762, -45.3725, -201.156, -4.30661, -36.3106, -136.475, 0.0012153, 0.000419056, -0.00298744, 0.00081644, 0.00081644, 0.00081644
1634, 1,0.00129504, -0.00100474, 0.000675074, 2.27798, -62.8111, 0.00302825, 30.7592, 152.157, 0, 0.00101431, 0.00162967, 0.00322704, 3.26955, 99.7898, 0, 0.00101517, 0.000962611, 0.00190647, 1.34279, 59.3589, 0, 0.00101584, 2.47224, -49.79, -252.052, 1.08048, -36.6094, -142.548, 0.00159484, 0.000590995, -0.00380513, 0.000928999, 0.000928999, 0.000928999
1635, 1,0.00144769, -0.0013874, 0.000927004, 2.25428, -87.1291, 0.0031264, 30.9078, 158.474, 0, 0.00104836, 0.0019048, 0.00379787, 2.79442, 117.428, 0, 0.00104906, 0.000994031, 0.00196775, 1.79194, 60.4827, 0, 0.00105003, 2.55911, -55.4637, -299.379, 1.36145, -36.5376, -146.272, 0.00188387, 0.000757582, -0.00454697, 0.000963071, 0.000963071, 0.000963071
1636, 1,0.00161278, -0.00178165, 0.00119004, 0.64391, -112.149, 0.00293837, 12.5719, 171.174, 0, 0.00108239, 0.00220418, 0.00440775, 1.25424, 138.245, 0, 0.00108296, 0.00102953, 0.00204988, 0.803395, 64.3773, 0, 0.00108426, -0.601334, -64.5281, -349.604, -0.964595, -40.5725, -151.595, 0.00216218, 0.000904551, -0.00531005, 0.000993634, 0.000993634, 0.000993634
1637, 1,0.00126076, -0.000691429, 0.000463766, 0.702332, -43.2933, 0.00417989, 18.1311, 150.579, 0.055073, 0.000980709, 0.00148952, 0.00293156, 1.43934, 92.1899, 0, 0.000981715, 0.00103289, 0.00202647, 0.0301355, 64.4021, 0, 0.000982158, -1.66607, -48.1016, -226.802, -2.63476, -38.5196, -152.052, 0.00139226, 0.000521544, -0.00340975, 0.000933331, 0.000933331, 0.000933331
1638, 1,0.00142467, -0.00110568, 0.000743604, 2.66146, -69.2154, 0.00390673, 58.1684, 168.427, 0.00138054, 0.0010145, 0.00179809, 0.00353389, 3.83606, 109.959, 0, 0.00101547, 0.00105289, 0.00206647, 1.51502, 65.2485, 0, 0.0010162, 2.20253, -51.371, -280.707, 0.455683, -37.1523, -159.049, 0.00174847, 0.000724526, -0.00425729, 0.00100795, 0.00100795, 0.00100795
1639, 1,0.00162151, -0.00152127, 0.00101844, 3.79786, -95.4792, 0.00394949, 60.0905, 171.42, 0, 0.00104856, 0.00212772, 0.00420728, 4.45807, 130.188, 0, 0.00104926, 0.00112147, 0.0021988, 3.57325, 67.8905, 0, 0.00105032, 4.31871, -61.3278, -333.554, 2.60705, -41.6117, -164.667, 0.00212624, 0.00084029, -0.00507908, 0.00111051, 0.00111051, 0.00111051
1640, 1,0.00176092, -0.00194107, 0.00129699, 1.45805, -122.116, 0.00348514, 28.3663, 184.764, 0, 0.00108251, 0.00239781, 0.00481321, 1.63418, 150.396, 0, 0.00108312, 0.0011246, 0.00224847, 1.34498, 70.037, 0, 0.00108453, 1.20373, -69.3626, -383.028, 0.706414, -44.2908, -166.527, 0.0023948, 0.00100067, -0.00583595, 0.00112143, 0.00112143, 0.00112143
1641, 1,0.00144738, -0.000775911, 0.000520898, 10.1059, -48.6607, 0.00648921, 14.1466, 157.458, 0.1437, 0.000980933, 0.00170995, 0.00326772, 11.0443, 94.9984, 0, 0.000982146, 0.00118581, 0.0022445, 9.24786, 63.8756, 0, 0.000982643, 9.38806, -48.9989, -245.384, 8.08073, -38.8737, -160.834, 0.00166644, 0.000586217, -0.00379415, 0.00114816, 0.00114816, 0.00114816
1642, 1,0.00161701, -0.00121273, 0.000818437, 6.46601, -75.9725, 0.00568316, 36.8004, 195.947, 0.0667508, 0.0010142, 0.00203033, 0.00390527, 7.92069, 119.212, 3.38863E-07, 0.00101559, 0.00120585, 0.00229055, 5.06791, 70.2578, 3.38863E-07, 0.00101639, 5.29821, -51.7545, -311.178, 2.65802, -36.7656, -176.666, 0.00196079, 0.000884067, -0.00477927, 0.00113503, 0.00113503, 0.00113503
1643, 1,0.00178367, -0.0016572, 0.00110977, 6.75139, -104.009, 0.00508539, 52.6568, 196.695, 0.0319873, 0.00104816, 0.00233551, 0.00458415, 7.62579, 138.639, 0, 0.00104921, 0.00123329, 0.00238693, 5.90851, 70.8678, 0, 0.00105036, 6.65564, -58.9004, -363.672, 4.29719, -38.3223, -178.578, 0.0023151, 0.00103785, -0.00560262, 0.00119992, 0.00119992, 0.00119992
1644, 1,0.00206168, -0.00211211, 0.00141231, 9.535, -132.792, 0.0045298, 47.2941, 198.505, 0.0155828, 0.00108236, 0.00275961, 0.0054064, 10.04, 161.525, 0, 0.00108304, 0.0013682, 0.0026151, 9.46574, 74.3396, 0, 0.00108457, 8.79414, -70.0162, -423.354, 7.87341, -44.4137, -186.478, 0.00273857, 0.00117802, -0.00653768, 0.00134916, 0.00134916, 0.00134916
1645, 1,0.00149008, -0.000864358, 0.000582865, 2.2208, -54.2899, 0.00906948, -2.13017, 169.815, 0.259352, 0.000980809, 0.00178503, 0.00348109, 3.7292, 108.593, 0, 0.000982242, 0.0011968, 0.00233423, 0.747329, 74.0422, 0, 0.000982793, -0.650514, -57.0594, -268.07, -2.39992, -46.0094, -173.717, 0.00166764, 0.000685328, -0.00411504, 0.00108649, 0.00108649, 0.00108649
1646, 1,0.00187715, -0.00133338, 0.000903484, 14.0638, -83.467, 0.00809791, 2.64784, 222.086, 0.177615, 0.00101384, 0.0023407, 0.00437651, 16.2493, 127.798, 0, 0.0010158, 0.00141613, 0.00259229, 11.9447, 74.496, 0, 0.00101668, 12.444, -52.1385, -343.698, 8.41821, -37.0525, -194.854, 0.0022497, 0.00105555, -0.00537894, 0.0013268, 0.0013268, 0.0013268
1647, 1,0.00203671, -0.00180416, 0.00121014, 9.10618, -113.224, 0.00698182, 1.76967, 237.619, 0.125271, 0.00104773, 0.00265075, 0.0051377, 10.7233, 154.204, 6.77626E-21, 0.00104945, 0.00142322, 0.00272757, 7.52192, 80.7384, 6.77626E-21, 0.0010507, 10.0504, -63.7637, -408.899, 6.59994, -43.0012, -205.814, 0.00263816, 0.00121054, -0.00635091, 0.00141107, 0.00141107, 0.00141107
1648, 1,0.00214678, -0.00229204, 0.00153229, -2.1469, -144.203, 0.00660101, 22.4229, 228.759, 0.0933635, 0.00108203, 0.0029073, 0.00580736, -1.49262, 185.798, 0, 0.001083, 0.00139103, 0.00277121, -2.23469, 91.1532, 0, 0.00108467, -3.22601, -84.0663, -470.101, -4.55491, -57.028, -211.877, 0.00288066, 0.00129336, -0.00718896, 0.00136625, 0.00136625, 0.00136625
1649, 1,0.00174003, -0.00096984, 0.000656485, 4.70185, -60.9355, 0.0137938, -2.56477, 186.343, 0.421663, 0.000980591, 0.0020823, 0.00402391, 6.79825, 124.447, 0, 0.00098249, 0.00139792, 0.00272557, 2.62654, 85.9689, 0, 0.000983104, 2.0281, -66.9934, -308.376, -0.0874343, -56.1716, -201.648, 0.00197432, 0.00078821, -0.00478183, 0.00132412, 0.00132412, 0.00132412
1650, 1,0.0020546, -0.00146134, 0.000996781, 13.1894, -91.4878, 0.0124633, 4.45655, 248.293, 0.306079, 0.00101343, 0.00258, 0.00483388, 16.4829, 142.626, 0, 0.00101601, 0.0015323, 0.00285479, 9.95947, 84.498, 0, 0.00101697, 12.2624, -54.3956, -385.745, 6.63562, -38.7484, -221.381, 0.00248071, 0.00128688, -0.00608187, 0.00144889, 0.00144889, 0.00144889
1651, 1,0.00227601, -0.0019666, 0.00132547, 13.438, -123.217, 0.0113043, -0.605891, 259.041, 0.265117, 0.00104716, 0.00295867, 0.00564326, 16.1754, 166.235, 0, 0.0010495, 0.00159514, 0.00300417, 10.9038, 87.0516, 0, 0.00105085, 16.0475, -66.6674, -448.084, 10.2812, -46.113, -225.323, 0.00295824, 0.00138042, -0.00703603, 0.0015934, 0.0015934, 0.0015934
1652, 1,0.00254803, -0.00248725, 0.00166443, 14.1766, -156.369, 0.0105866, 10.537, 241.408, 0.243226, 0.00108136, 0.00337673, 0.00654454, 15.3741, 193.308, 0, 0.00108287, 0.0017328, 0.00325687, 14.4771, 91.1958, 0, 0.00108467, 8.04834, -75.4673, -512.505, 5.92485, -49.4164, -230.096, 0.00324932, 0.00162302, -0.00800908, 0.00160257, 0.00160257, 0.00160257
1653, 1,0.00197798, -0.00108936, 0.000741912, 10.2181, -68.1759, 0.0185361, -1.65362, 195.792, 0.581243, 0.000979917, 0.00237028, 0.00457949, 13.3167, 134.382, 4.17605E-07, 0.000982392, 0.00159162, 0.00311528, 7.16352, 92.0361, 4.17605E-07, 0.000983067, 9.4024, -64.745, -347.803, 5.94465, -54.868, -227.185, 0.0022948, 0.00103132, -0.00550658, 0.00155603, 0.00155603, 0.00155603
1654, 1,0.00249789, -0.0016121, 0.00110918, 28.9023, -100.301, 0.016922, 2.24175, 266.762, 0.442818, 0.00101254, 0.00310281, 0.00559853, 34.137, 151.569, 9.76678E-05, 0.00101587, 0.00189382, 0.00338543, 23.7162, 88.9947, 8.39135E-06, 0.0010169, 30.4031, -47.8302, -437.28, 21.8464, -33.6074, -255.223, 0.00301088, 0.00159646, -0.00706681, 0.00184607, 0.00184607, 0.00184607
1655, 1,0.00264409, -0.00214587, 0.00145351, 20.9923, -134.077, 0.01606, -3.50744, 274.273, 0.415937, 0.00104616, 0.00339854, 0.00639636, 24.8486, 182.991, 1.52111E-07, 0.00104912, 0.00189519, 0.00350649, 17.6595, 97.7725, 1.52111E-07, 0.00105057, 24.245, -60.9205, -512.297, 15.6426, -41.9637, -266.996, 0.00339565, 0.00179561, -0.00816045, 0.0018776, 0.0018776, 0.0018776
1656, 1,0.00310735, -0.00267651, 0.00179147, 21.4509, -165.512, 0.0151195, 4.6111, 251.341, 0.404841, 0.00108064, 0.00400653, 0.00754684, 23.6531, 206.606, 0.00914706, 0.00108269, 0.00221351, 0.00398224, 20.0413, 99.2462, 0.00818236, 0.00108459, 11.9549, -56.4257, -575.348, 8.13734, -33.0244, -272.852, 0.00376749, 0.00241065, -0.00954778, 0.00196716, 0.00196716, 0.00196716
1657, 1,0.00238869, -0.00124201, 0.000854021, 18.4818, -75.7726, 0.0227633, -5.0088, 205.853, 0.731681, 0.000979309, 0.00285297, 0.00530137, 22.0433, 148.381, 0.00266666, 0.000982482, 0.00192523, 0.00359989, 14.9227, 100.701, 0.00126378, 0.000983245, 13.0227, -55.553, -402.614, 9.54488, -44.0712, -267.576, 0.00267239, 0.00149966, -0.00658316, 0.00181568, 0.00181568, 0.00181568
1658, 1,0.00312914, -0.00182794, 0.00126259, 33.7766, -109.862, 0.0207531, 1.34085, 263.227, 0.580722, 0.00101218, 0.00382582, 0.00672045, 39.5008, 161.2, 0.0167101, 0.00101591, 0.00243285, 0.00419938, 28.072, 92.1815, 0.0147281, 0.00101706, 34.4008, -41.742, -476.258, 25.6295, -27.4533, -274.721, 0.00369334, 0.0021504, -0.00848391, 0.00236611, 0.00236611, 0.00236611
1659, 1,0.00340588, -0.00237497, 0.00160898, 26.9211, -146.705, 0.019291, -2.02373, 270.097, 0.531633, 0.00104599, 0.00423606, 0.00770111, 31.2101, 198.272, 0.0175734, 0.00104911, 0.00258114, 0.0045034, 23.0159, 104.818, 0.0175734, 0.00105072, 30.1034, -49.9739, -574.944, 20.6104, -32.0644, -303, 0.00422561, 0.00256667, -0.0100412, 0.00254864, 0.00254864, 0.00254864
1660, 1,0.0038675, -0.00298688, 0.00201505, 12.5757, -170.547, 0.0176321, -0.634062, 257.782, 0.495436, 0.00108038, 0.00490486, 0.00898544, 15.2175, 222.345, 0.0413507, 0.00108264, 0.00283425, 0.00497141, 10.484, 111.514, 0.0332533, 0.00108465, 6.01959, -58.8824, -614.171, 2.38335, -38.8687, -298.058, 0.00469623, 0.00318009, -0.0115693, 0.00264238, 0.00264238, 0.00264238
1661, 1,0.00344467, -0.00147059, 0.00101522, 17.0151, -86.4686, 0.0286045, -7.59544, 218.023, 0.929014, 0.000978252, 0.00400216, 0.00713948, 21.0379, 161.361, 0.0397805, 0.00098283, 0.00288845, 0.00511715, 13.0013, 106.571, 0.0373506, 0.000983726, 10.5584, -48.1648, -446.477, 7.82138, -35.816, -291.719, 0.00374576, 0.00247577, -0.00889912, 0.00275379, 0.00275379, 0.00275379
1662, 1,0.00381982, -0.0020965, 0.0014491, 21.6372, -123.719, 0.0240851, -4.6165, 260.947, 0.71503, 0.00101224, 0.00460495, 0.008149, 27.7083, 181.522, 0.0432206, 0.00101633, 0.00304924, 0.00527593, 16.0039, 104.138, 0.0409345, 0.00101764, 25.723, -40.2684, -530.021, 15.768, -27.8353, -300.348, 0.00453574, 0.00299048, -0.0105444, 0.00302517, 0.00302517, 0.00302517
1663, 1,0.00448253, -0.00269942, 0.0018262, 13.6543, -159.478, 0.0213985, 4.84803, 259.608, 0.60692, 0.00104662, 0.00542103, 0.00979197, 18.7904, 212.163, 0.0657451, 0.00104955, 0.00355171, 0.00616376, 8.82689, 111.848, 0.064629, 0.00105133, 17.0579, -37.0322, -616.514, 6.31833, -26.0368, -315.825, 0.00539104, 0.00401422, -0.0129789, 0.00348681, 0.00348681, 0.00348681
1664, 1,0.00537559, -0.00353175, 0.00241718, 7.89186, -172.362, 0.0187447, -7.03227, 257.364, 0.55459, 0.00108091, 0.00665379, 0.011811, 10.058, 223.534, 0.114761, 0.00108326, 0.0041114, 0.00703727, 6.42376, 111.017, 0.0915783, 0.0010854, 3.84138, -49.5147, -624.93, 1.47865, -33.6066, -300.923, 0.00649263, 0.00480653, -0.0151744, 0.00398214, 0.00398214, 0.00398214
1665, 1,0.00482344, -0.0017555, 0.00120786, 12.9191, -101.639, 0.0318526, 0.238034, 238.24, 1, 0.000978325, 0.00546303, 0.00945146, 17.3989, 178.986, 0.0882402, 0.000983911, 0.00419485, 0.00706968, 8.71292, 114.839, 0.0867788, 0.00098499, -1.20384, -37.8392, -497.915, -2.52853, -29.7781, -312.209, 0.00488759, 0.00395721, -0.0118994, 0.00377207, 0.00377207, 0.00377207
1666, 1,0.00559364, -0.00247138, 0.00167321, 9.48293, -143.943, 0.0279019, -2.81225, 251.532, 0.86758, 0.00101298, 0.00639586, 0.0112034, 11.2106, 211.449, 0.109162, 0.0010173, 0.0047976, 0.00793507, 7.94181, 117.431, 0.107926, 0.00101896, -3.6109, -28.6987, -602.038, -5.09224, -17.7217, -329.479, 0.00592715, 0.00524621, -0.0148269, 0.00425142, 0.00425142, 0.00425142
1667, 1,0.00686826, -0.00330811, 0.00224386, 16.8258, -168.286, 0.0245841, 11.3449, 251.462, 0.712844, 0.00104783, 0.00802292, 0.0134378, 20.5732, 225.594, 0.149662, 0.00105075, 0.00572209, 0.00899983, 13.4003, 116.173, 0.135319, 0.00105281, -11.0609, -19.2417, -646.48, -11.6057, -13.3167, -323.597, 0.00686392, 0.00668141, -0.0175394, 0.00453609, 0.00453609, 0.00453609
1668, 1,0.00791421, -0.00435245, 0.00301744, 9.64146, -173.79, 0.0208059, -1.97915, 255.481, 0.617289, 0.00108192, 0.0095512, 0.0160048, 11.993, 230.182, 0.214927, 0.00108417, 0.00629578, 0.0100705, 7.78619, 116.04, 0.16812, 0.00108652, -10.1718, -33.4283, -646.947, -9.57877, -23.0489, -315.493, 0.00859998, 0.00764652, -0.0204904, 0.00538387, 0.00538387, 0.00538387
1669, 1,0.00719495, -0.00206566, 0.0014012, 8.68628, -117.738, 0.0331526, 4.08719, 273.439, 1, 0.000978542, 0.00791226, 0.0130186, 11.1753, 203.9, 0.165087, 0.000984821, 0.00648251, 0.0102512, 6.33376, 125.263, 0.16499, 0.000986206, -20.5898, -23.3893, -567.72, -14.1914, -18.2682, -343.329, 0.00658298, 0.00666636, -0.0168937, 0.00536549, 0.00536549, 0.00536549
1670, 1,0.00819184, -0.00297021, 0.0020025, 9.11204, -168.281, 0.0310977, -11.6788, 267.48, 0.957196, 0.00101412, 0.0092162, 0.0148683, 13.2606, 251.154, 0.174206, 0.001019, 0.00717079, 0.010886, 5.09329, 137.668, 0.17375, 0.00102108, -45.9237, -20.8999, -686.637, -34.1606, -16.5461, -362.298, 0.00685416, 0.00800365, -0.019372, 0.00501302, 0.00501302, 0.00501302
1671, 1,0.00948125, -0.0042106, 0.00292597, 11.409, -177.283, 0.0283044, 1.20962, 262.264, 0.839765, 0.00104916, 0.0110997, 0.0175807, 14.5061, 251.699, 0.238571, 0.00105262, 0.00787392, 0.0117848, 8.60306, 130.878, 0.200175, 0.00105507, -46.033, -16.843, -692.222, -31.589, -12.8888, -348.155, 0.00827144, 0.00975164, -0.0227344, 0.00544276, 0.00544276, 0.00544276
1672, 1,0.0111127, -0.00562568, 0.00394426, 12.6374, -177.433, 0.0248751, 9.7613, 252.379, 0.725352, 0.00108325, 0.0133467, 0.021358, 14.6367, 237.728, 0.338395, 0.00108555, 0.00889478, 0.0135492, 10.9481, 118.821, 0.254334, 0.00108828, -22.2265, -19.3812, -671.575, -15.5201, -12.1323, -328.809, 0.0112171, 0.0114589, -0.0274313, 0.00699846, 0.00699846, 0.00699846
1673, 1,0.0088655, -0.00240601, 0.00165793, -0.27828, -132.723, 0.0353758, -2.09552, 328.799, 1, 0.000936975, 0.00973444, 0.015465, 3.09255, 237.559, 0.207736, 0.00094423, 0.00800787, 0.0122399, -3.39423, 146.838, 0.207736, 0.000945804, -49.7262, -20.8333, -642.119, -36.7669, -22.3486, -381.399, 0.00730806, 0.0087408, -0.0204095, 0.0059756, 0.0059756, 0.0059756
1674, 1,0.0105744, -0.00361194, 0.00246492, -14.0287, -191.452, 0.0363966, -18.9837, 326.33, 1, 0.00097241, 0.0118658, 0.0182241, -16.3889, 319.349, 0.23138, 0.000978293, 0.00929178, 0.0133517, -11.4486, 174.526, 0.222033, 0.000980955, -122.363, -55.054, -780.63, -78.1283, -36.3621, -409.087, 0.00706537, 0.0102261, -0.0232421, 0.00510916, 0.00510916, 0.00510916
1675, 1,0.0127187, -0.00519914, 0.00366062, -10.769, -198.555, 0.0350306, -30.3081, 341.098, 0.934704, 0.00100509, 0.0148375, 0.0222697, -14.349, 320.106, 0.32247, 0.00101037, 0.0106014, 0.0149604, -7.14081, 168.549, 0.262781, 0.00101353, -127.782, -43.3171, -789.217, -77.6656, -24.002, -403.981, 0.00857946, 0.0133377, -0.0282511, 0.00554504, 0.00554504, 0.00554504
1676, 1,0.0141689, -0.00686544, 0.00482153, -4.27946, -191.496, 0.0293299, -25.2945, 304.184, 0.850489, 0.00103676, 0.0169392, 0.0266742, -8.85814, 276.489, 0.449808, 0.0010403, 0.0114006, 0.0170414, 0.325183, 137.11, 0.335825, 0.00104368, -57.497, -35.843, -736.127, -31.784, -14.3084, -365.236, 0.0135106, 0.01511, -0.0346106, 0.00855294, 0.00855294, 0.00855294
1677, 1,0.0152877, 0.00169688, 0.00115719, 407.469, 93.2009, 0.0286017, 468.703, -149.395, 0.411551, 0.00100058, 0.0169029, 0.0122563, 500.277, -219.763, 0.193896, 0.00100143, 0.0136908, 0.0101169, 314.945, -152.037, 0.193896, 0.00100019, 82.1474, 81.482, 495.659, 75.2352, 71.1421, 309.733, -0.00628738, -0.0063953, 0.0166814, -0.0050805, -0.0050805, -0.0050805
1678, 1,0.016806, 0.00195336, 0.00130539, 404.328, 108.453, 0.0312034, 464.427, -140.839, 0.45819, 0.00103441, 0.0187166, 0.0135611, 512.65, -240.354, 0.231372, 0.00103587, 0.0149056, 0.0111065, 296.135, -158.92, 0.231372, 0.0010343, 118.589, 93.9009, 508.57, 100.531, 83.2891, 292.94, -0.00620675, -0.00781501, 0.0185001, -0.00493231, -0.00493231, -0.00493231
1679, 1,0.0154783, 0.00198062, 0.00136927, 377.47, 109.559, 0.0329547, 407.869, -111.305, 0.514025, 0.0010682, 0.0174086, 0.0132085, 486.827, -201.3, 0.205883, 0.00106944, 0.013561, 0.0107204, 268.298, -120.095, 0.205883, 0.00106785, 92.5175, 32.4718, 478.912, 69.6522, 28.2363, 262.396, -0.00493166, -0.0083903, 0.0170123, -0.00362849, -0.00362849, -0.00362849
1680, 1,0.0126606, 0.00173604, 0.00120805, 373.149, 101.963, 0.0324644, 341.383, -100.661, 0.536145, 0.00110257, 0.0143812, 0.0105019, 474.998, -178.201, 0.142166, 0.00110347, 0.0109447, 0.00818779, 271.389, -105.363, 0.142166, 0.00110205, 42.0898, 32.2537, 460.259, 32.4617, 21.9711, 261.656, -0.00506487, -0.00557359, 0.0137791, -0.00390934, -0.00390934, -0.00390934
1681, 1,0.0132194, 0.00163651, 0.00111607, 383.159, 88.4293, 0.0282818, 469.073, -146.66, 0.401993, 0.00098128, 0.0147375, 0.0105903, 470.598, -169.629, 0.147938, 0.000981214, 0.01173, 0.00858478, 296.318, -109.553, 0.147938, 0.000980172, 16.8541, 26.9166, 465.115, 18.0403, 21.5932, 289.025, -0.00597153, -0.00557245, 0.0145442, -0.00479133, -0.00479133, -0.00479133
1682, 1,0.0132575, 0.0018134, 0.00124495, 378.004, 100.831, 0.0304573, 472.047, -149.192, 0.44151, 0.00101448, 0.0149808, 0.0105696, 478.21, -181.981, 0.154079, 0.0010145, 0.0115589, 0.00837583, 278.275, -111.218, 0.154079, 0.00101322, 36.0366, 45.6134, 464.293, 32.7811, 35.4535, 265.419, -0.00578951, -0.0053992, 0.0144193, -0.00447919, -0.00447919, -0.00447919
1683, 1,0.0121917, 0.00182912, 0.00128827, 373.161, 103.559, 0.0313055, 433.578, -135.011, 0.474131, 0.00104791, 0.0139533, 0.010153, 476.189, -180.492, 0.134789, 0.00104811, 0.0104511, 0.00789014, 270.56, -108.264, 0.134789, 0.00104678, 48.9265, 30.4313, 462.12, 42.6787, 23.8996, 258.214, -0.00469957, -0.005556, 0.0134225, -0.00334995, -0.00334995, -0.00334995
1684, 1,0.0111173, 0.00160173, 0.00112278, 363.647, 95.8652, 0.0320687, 343.288, -105.169, 0.527023, 0.00108132, 0.0127045, 0.009166, 459.368, -168.182, 0.112964, 0.00108185, 0.00953468, 0.00699149, 268.032, -100.294, 0.112964, 0.00108058, 20.2667, 28.7927, 455.487, 18.2457, 17.9282, 264.709, -0.00499651, -0.00467663, 0.0125855, -0.00380347, -0.00380347, -0.00380347
1685, 1,0.00735187, 0.00130573, 0.000902624, 368.115, 79.1742, 0.0311956, 474.712, -153.552, 0.456203, 0.000980401, 0.008617, 0.00611382, 445.564, -129.858, 0.0244098, 0.000979219, 0.006103, 0.00435804, 291.522, -79.261, 0.0244098, 0.000978404, -39.0218, -10.2009, 438.795, -31.3879, -12.4573, 281.628, -0.00351472, -0.00285669, 0.00850752, -0.00252813, -0.00252813, -0.00252813
1686, 1,0.00788185, 0.0014254, 0.00101499, 346.595, 84.1353, 0.0324825, 487.496, -173.475, 0.480451, 0.00101417, 0.00926587, 0.00670696, 429.654, -140.814, 0.0491447, 0.00101265, 0.00651486, 0.00473005, 264.225, -87.8505, 0.0491447, 0.00101176, -22.6436, 38.9679, 406.117, -9.89471, 31.5664, 241.88, -0.00404934, -0.00230853, 0.00870706, -0.00288968, -0.00288968, -0.00288968
1687, 1,0.00840669, 0.00147353, 0.0010532, 341.921, 87.1448, 0.0329994, 460.511, -155.136, 0.497857, 0.00104746, 0.00983474, 0.00706256, 428.162, -143.626, 0.0621499, 0.00104634, 0.00699671, 0.00503872, 256.294, -86.5882, 0.0621499, 0.00104534, -13.4635, 37.1156, 407.227, -4.12276, 27.2146, 236.673, -0.00421172, -0.00266593, 0.00929167, -0.00302837, -0.00302837, -0.00302837
1688, 1,0.00781597, 0.00132943, 0.000939198, 334.295, 82.1909, 0.0328128, 383.038, -126.49, 0.526654, 0.00108095, 0.00912705, 0.00653613, 416.148, -149.548, 0.0547321, 0.00108051, 0.00651217, 0.00470411, 252.669, -92.0125, 0.0547321, 0.00107947, -0.347644, 36.5351, 412.457, 3.50555, 24.0314, 248.501, -0.00383817, -0.00270178, 0.00904267, -0.00279232, -0.00279232, -0.00279232
1689, 1,0.00512098, 0.00107741, 0.000740067, 314.412, 67.2853, 0.0329333, 480.598, -162.108, 0.488816, 0.000980169, 0.00619125, 0.00428896, 380.859, -122.163, 0, 0.000978568, 0.00405453, 0.0028192, 248.429, -79.6348, 0, 0.000977893, -17.7472, 7.36038, 376.876, -12.7306, 8.7665, 242.868, -0.00231066, -0.00186483, 0.00615767, -0.00153482, -0.00153482, -0.00153482
1690, 1,0.00513701, 0.001109, 0.000794716, 288.62, 67.5556, 0.0337492, 477.741, -156.676, 0.50277, 0.00101326, 0.00624048, 0.00463447, 355.716, -101.247, 0.00675838, 0.00101136, 0.00403648, 0.00305692, 221.797, -59.9151, 0.00629435, 0.00101068, -53.9019, 21.2854, 336.356, -42.3258, 16.2276, 205.844, -0.00293969, -0.00135533, 0.00594397, -0.00203304, -0.00203304, -0.00203304
1691, 1,0.00508959, 0.00114813, 0.000822087, 286.56, 69.9372, 0.0339668, 464.572, -155.409, 0.513815, 0.00104709, 0.00622201, 0.00462055, 355.462, -99.4603, 0.00641558, 0.00104509, 0.00396625, 0.00301917, 218.294, -55.7129, 0.00566976, 0.00104434, -59.2028, 26.6356, 330.948, -48.0893, 19.6937, 195.534, -0.00301215, -0.00119038, 0.00582202, -0.00206761, -0.00206761, -0.00206761
1692, 1,0.005051, 0.0010874, 0.000762945, 295.273, 68.6357, 0.0346276, 401.381, -135.484, 0.553945, 0.00108107, 0.00613134, 0.00441655, 363.61, -116.597, 0.00622864, 0.00107968, 0.0039743, 0.00291947, 227.11, -69.1987, 0.00555144, 0.00107885, -32.1097, 23.1492, 358.751, -27.8205, 13.0751, 222.341, -0.00268526, -0.00148967, 0.00607313, -0.00182929, -0.00182929, -0.00182929
1693, 1,0.00397715, 0.000922271, 0.000636889, 238.701, 57.1594, 0.0329041, 474.431, -151.991, 0.487607, 0.000979881, 0.0048935, 0.00339799, 295, -90.3111, 0, 0.000977999, 0.00306448, 0.00215302, 182.964, -55.5374, 0, 0.000977447, -18.1446, -2.00374, 291.082, -15.0876, 4.65193, 177.048, -0.00181982, -0.00158582, 0.004871, -0.00120775, -0.00120775, -0.00120775
1694, 1,0.00394504, 0.000874214, 0.00062012, 242.692, 53.9952, 0.0335497, 478.435, -158.29, 0.499738, 0.00101365, 0.00481149, 0.00350105, 296.119, -92.9086, 0, 0.00101157, 0.00308282, 0.00228291, 189.605, -60.6468, 0, 0.00101104, -30.1115, 28.6363, 280.201, -22.6707, 28.4205, 176.191, -0.00211099, -0.000996914, 0.00461538, -0.00144577, -0.00144577, -0.00144577
1695, 1,0.00369129, 0.000880803, 0.000621069, 225.561, 54.5457, 0.0335754, 461.996, -147.453, 0.505251, 0.00104727, 0.00456329, 0.0033121, 279.379, -84.0709, 0, 0.00104521, 0.00282468, 0.00209734, 172.221, -51.0914, 0, 0.00104466, -34.3615, 26.5113, 260.063, -26.4553, 24.458, 155.271, -0.00205479, -0.000882929, 0.00430181, -0.00136844, -0.00136844, -0.00136844
1696, 1,0.00366901, 0.000871466, 0.000600903, 233.536, 55.5165, 0.0343737, 396.903, -124.981, 0.547718, 0.00108099, 0.0045354, 0.00317745, 288.754, -98.1052, 8.67362E-19, 0.00107955, 0.00280564, 0.00199605, 178.512, -61.3063, 8.67362E-19, 0.00107891, -13.1063, 25.1003, 282.322, -9.68325, 20.9363, 172.666, -0.00181305, -0.00106715, 0.00447194, -0.00116159, -0.00116159, -0.00116159
1697, 1,0.00319003, 0.000796437, 0.000559796, 195.28, 49.0692, 0.0311753, 490.24, -179.556, 0.458225, 0.0009804, 0.00397885, 0.00274612, 243.276, -79.004, 0, 0.000977822, 0.00240645, 0.00166367, 148.078, -50.0864, 0, 0.000977363, -3.48446, 1.57331, 238.923, -1.67256, 10.9821, 140.95, -0.00133422, -0.00133891, 0.00395508, -0.000840865, -0.000840865, -0.000840865
1698, 1,0.00299669, 0.000715291, 0.000505058, 176.774, 44.1123, 0.031592, 487.478, -175.292, 0.465906, 0.00101431, 0.00370159, 0.00265545, 220.043, -63.3259, 0, 0.00101146, 0.00229801, 0.00167831, 134.058, -37.5137, 0, 0.00101104, -23.6426, 7.34223, 206.278, -19.2363, 10.8836, 120.894, -0.00151131, -0.00100894, 0.00354771, -0.00101191, -0.00101191, -0.00101191
1699, 1,0.00298191, 0.000699464, 0.000484812, 179.112, 43.1973, 0.0320338, 482.512, -168.864, 0.474396, 0.00104817, 0.00367226, 0.00259785, 221.417, -64.5939, 0, 0.00104537, 0.00229705, 0.00165399, 137.375, -39.2015, 0, 0.00104494, -23.1723, 12.0975, 204.856, -18.341, 14.4359, 121.51, -0.0015111, -0.000910076, 0.00346922, -0.00100931, -0.00100931, -0.00100931
1700, 1,0.00294019, 0.000686028, 0.000464679, 187.798, 43.3713, 0.0324612, 409.123, -142.767, 0.512685, 0.00108172, 0.00362184, 0.00243893, 230.91, -79.2347, 0, 0.0010796, 0.00226119, 0.0015218, 144.852, -51.6172, 0, 0.00107912, -0.936725, 13.079, 225.562, 1.24869, 13.6061, 139.997, -0.00125554, -0.00103897, 0.00358014, -0.000774858, -0.000774858, -0.000774858
1701, 1,0.00274905, 0.00071212, 0.000501214, 158.301, 43.966, 0.0237696, 477.262, -162.687, 0.318137, 0.000979605, 0.00345766, 0.00243898, 201.687, -56.7544, 0, 0.000977366, 0.00204288, 0.00144597, 115.346, -30.6013, 0, 0.000976951, -10.0963, -19.222, 199.582, -9.43012, -10.5213, 111.755, -0.00112891, -0.00140074, 0.0034506, -0.000703347, -0.000703347, -0.000703347
1702, 1,0.00246337, 0.000630488, 0.000442191, 144.316, 39.1098, 0.024553, 498.567, -198.167, 0.335679, 0.00101432, 0.00308269, 0.00213625, 182.603, -54.8473, 0, 0.00101122, 0.00185165, 0.00128466, 106.63, -31.3063, 0, 0.00101083, -10.4667, 1.77663, 173.232, -8.59628, 5.64689, 96.8684, -0.00110328, -0.000982346, 0.00297558, -0.000693221, -0.000693221, -0.000693221
1703, 1,0.00240774, 0.000600409, 0.000414018, 145.896, 37.2681, 0.0250067, 508.336, -213.584, 0.344948, 0.00104871, 0.00299586, 0.00202845, 182.112, -57.602, 0, 0.0010452, 0.00182786, 0.0012448, 110.42, -35.1704, 0, 0.00104482, -6.87494, 10.1149, 169.566, -4.84597, 13.1949, 97.1623, -0.00105449, -0.000848179, 0.00283728, -0.000658546, -0.000658546, -0.000658546
1704, 1,0.00231946, 0.000557079, 0.00037438, 135.609, 35.2031, 0.025879, 420.283, -153.217, 0.383976, 0.0010816, 0.00287474, 0.00200245, 170.61, -46.6357, 0, 0.001079, 0.00176525, 0.00125924, 100.737, -24.3541, 0, 0.00107861, -18.656, -7.67865, 166.242, -17.6881, -5.99022, 96.7406, -0.00111345, -0.000971982, 0.00284207, -0.000742517, -0.000742517, -0.000742517
1705, 1,0.00228635, 0.000666121, 0.000468488, 133.191, 41.0947, 0.0139596, 464.995, -149.721, 0.128579, 0.000978984, 0.00294946, 0.00209445, 173.902, -49.9576, 0, 0.000977217, 0.00162573, 0.00117237, 92.8086, -25.2895, 0, 0.000976826, -4.76754, -18.0395, 172.68, -4.58434, -10.1268, 90.5798, -0.000903651, -0.00123043, 0.00294473, -0.000511624, -0.000511624, -0.000511624
1706, 1,0.00197538, 0.000582992, 0.000404801, 111.963, 36.2646, 0.0132845, 453.294, -131.561, 0.114292, 0.00101257, 0.00255138, 0.00177328, 147.755, -40.3866, 0, 0.00101093, 0.00140513, 0.000993761, 76.5812, -17.8347, 0, 0.00101056, -11.8389, -9.20127, 142.2, -11.4263, -6.14034, 71.0709, -0.000901756, -0.000920458, 0.00247754, -0.00053801, -0.00053801, -0.00053801
1707, 1,0.00172995, 0.00054002, 0.000371129, 100.12, 33.6067, 0.0125772, 448.251, -123.628, 0.099781, 0.00104638, 0.00226092, 0.00158565, 133.035, -37.898, 0, 0.0010448, 0.00120729, 0.000888925, 67.8588, -16.8807, 0, 0.00104445, -7.99383, -3.52684, 125.215, -7.61785, -1.32494, 59.5849, -0.000769187, -0.000756651, 0.00214077, -0.00043034, -0.00043034, -0.00043034
1708, 1,0.00204636, 0.00047474, 0.000319288, 126.039, 29.9958, 0.014464, 390.498, -122.609, 0.163049, 0.00108054, 0.00252072, 0.00170905, 155.927, -50.0135, 0, 0.00107905, 0.00157224, 0.00108143, 96.2218, -30.5345, 0, 0.00107871, -4.75144, 1.39041, 153.402, -4.64253, 2.37086, 93.8752, -0.000878925, -0.000801286, 0.00249169, -0.000570059, -0.000570059, -0.000570059
1709, 1,0.00192773, 0.000636439, 0.000446513, 113.418, 39.307, 0.00732399, 429.844, -111.91, 0, 0.000978266, 0.00256118, 0.00182543, 152.561, -44.8017, 0, 0.000977202, 0.00129728, 0.000945383, 74.4487, -20.8799, 0, 0.000976822, -1.64414, -16.188, 152.237, -1.80205, -9.27824, 73.7201, -0.000748928, -0.00108406, 0.00255995, -0.000375868, -0.000375868, -0.000375868
1710, 1,0.00166131, 0.000546649, 0.000378617, 99.0459, 33.9516, 0.00668382, 376.104, -80.9131, 0, 0.00101169, 0.0022053, 0.00152261, 132.792, -40.5939, 0, 0.00101103, 0.00111996, 0.000780854, 65.5111, -19.3414, 0, 0.00101068, -2.16296, -5.00235, 128.947, -2.2798, -1.99504, 62.299, -0.000695459, -0.000794317, 0.00214846, -0.000363341, -0.000363341, -0.000363341
1711, 1,0.00158131, 0.00048475, 0.000335575, 93.768, 30.024, 0.00624538, 349.104, -72.8955, 0, 0.00104552, 0.00205841, 0.00141616, 123.346, -36.7493, 0, 0.00104491, 0.00111118, 0.000794765, 64.6122, -17.9785, 0, 0.00104459, -6.44429, -2.97534, 119.668, -6.39796, -0.472954, 60.8065, -0.000720088, -0.000678763, 0.00199515, -0.000423501, -0.000423501, -0.000423501
1712, 1,0.00155389, 0.000412047, 0.000279579, 98.9387, 25.6797, 0.00612492, 343.509, -81.4925, 0.00285486, 0.00107971, 0.00196398, 0.0013436, 124.475, -42.632, 0, 0.00107903, 0.00114517, 0.000791167, 73.5039, -26.2305, 0, 0.00107874, 6.28334, -0.567009, 122.18, 6.3874, 1.15962, 71.1445, -0.000537199, -0.000691851, 0.00192081, -0.000276613, -0.000276613, -0.000276613
1713, 1,0.00178007, 0.000619932, 0.000436524, 109.393, 38.1804, 0.00559289, 349.867, -114.615, 0, 0.00097841, 0.00239747, 0.00168492, 147.41, -47.6243, 0, 0.000977347, 0.00116547, 0.000819645, 71.5607, -24.5456, 0, 0.000976982, 4.87559, -8.95368, 146.951, 4.67722, -1.74985, 70.7095, -0.000652832, -0.000970189, 0.00239582, -0.000293948, -0.000293948, -0.000293948
1714, 1,0.00153791, 0.000515474, 0.00035888, 93.1505, 31.9985, 0.00486005, 294.073, -86.6012, 0, 0.0010119, 0.00204907, 0.00141923, 124.938, -39.6024, 0, 0.00101113, 0.0010311, 0.000713096, 61.5852, -19.5571, 0, 0.0010108, 0.222777, -4.187, 122.771, -0.1829, -1.08604, 59.9402, -0.00062767, -0.000748203, 0.00201848, -0.000320686, -0.000320686, -0.000320686
1715, 1,0.00144829, 0.000438055, 0.000304746, 89.4612, 27.0993, 0.00449417, 269.769, -77.4569, 0, 0.00104573, 0.00188275, 0.00129294, 116.343, -38.1001, 0, 0.00104506, 0.00101708, 0.000700381, 62.7807, -21.1859, 0, 0.00104478, 2.58043, -2.43075, 114.151, 2.31253, 0.281499, 60.9636, -0.00055142, -0.000674272, 0.00184393, -0.000290674, -0.000290674, -0.000290674
1716, 1,0.00143807, 0.000349911, 0.00023995, 87.7615, 21.7223, 0.00468773, 285.665, -86.0858, 0, 0.0010799, 0.00178683, 0.00122623, 109.393, -33.5149, 0, 0.00107898, 0.00109004, 0.000749843, 66.1883, -19.7497, 0, 0.00107874, -2.0441, -5.96127, 108.55, -2.13641, -3.92369, 65.3092, -0.000571381, -0.000654014, 0.00176922, -0.000356359, -0.000356359, -0.000356359
1717, 1,0.001604, 0.000602006, 0.00042524, 96.4616, 36.9907, 0.00435642, 267.958, -83.0682, 0, 0.000978041, 0.00220418, 0.00155871, 133.343, -40.8555, 0, 0.000977372, 0.00100605, 0.000714261, 59.7184, -18.646, 0, 0.000977019, 0.975166, -11.3559, 132.947, 0.789488, -3.95574, 59.1041, -0.000628406, -0.000911796, 0.00220317, -0.000282971, -0.000282971, -0.000282971
1718, 1,0.00144523, 0.000489034, 0.000342499, 87.6177, 30.2536, 0.00366647, 222.315, -66.0143, 0, 0.00101173, 0.00192966, 0.00134334, 117.638, -36.9542, 0, 0.00101125, 0.000965565, 0.000672394, 57.847, -18.1967, 0, 0.00101095, 0.629978, -5.46302, 115.696, 0.157238, -1.84616, 56.2789, -0.00057651, -0.000725437, 0.00190159, -0.000291235, -0.000291235, -0.000291235
1719, 1,0.00137807, 0.000399722, 0.000281513, 84.6321, 24.6038, 0.00340205, 205.187, -60.0065, 0, 0.00104562, 0.00177344, 0.00123041, 108.976, -34.8159, 0, 0.0010452, 0.000986405, 0.000686005, 60.5124, -19.6944, 0, 0.00104494, 2.06855, -4.81701, 107.196, 1.64845, -1.42882, 58.8634, -0.000510531, -0.000665126, 0.00174061, -0.000281211, -0.000281211, -0.000281211
1720, 1,0.00135973, 0.000298358, 0.000208607, 83.6346, 18.3478, 0.00372074, 224.548, -65.3878, 0, 0.00107972, 0.00165549, 0.00115073, 101.824, -31.7076, 0, 0.00107913, 0.00106542, 0.000740936, 65.5354, -20.3943, 0, 0.00107893, 0.519551, -6.78295, 101.386, 0.338365, -4.0513, 64.8958, -0.000488913, -0.000640641, 0.00164406, -0.000314315, -0.000314315, -0.000314315
1721, 1,0.00148491, 0.000585208, 0.000414937, 88.3904, 35.8723, 0.00344759, 209.082, -61.7867, 0, 0.000977809, 0.00206886, 0.00147748, 124.196, -36.9009, 0, 0.000977414, 0.000902615, 0.000652938, 52.6751, -15.5281, 0, 0.000977075, 0.0830486, -13.2493, 123.869, -0.0862118, -5.59867, 52.2692, -0.000584709, -0.000884784, 0.00206827, -0.000252142, -0.000252142, -0.000252142
1722, 1,0.0013265, 0.000460687, 0.000324931, 80.1853, 28.3799, 0.00285818, 171.762, -49.4711, 0, 0.0010116, 0.00178306, 0.00124435, 108.354, -33.3803, 0, 0.00101134, 0.000874392, 0.00060911, 52.2531, -16.0363, 0, 0.00101105, -0.0234711, -6.49004, 106.654, -0.476767, -2.36464, 50.9503, -0.000534013, -0.000682923, 0.00175859, -0.000270608, -0.000270608, -0.000270608
1723, 1,0.00125417, 0.00036119, 0.000258691, 76.5774, 22.0383, 0.00261999, 155.995, -43.5023, 0, 0.00104552, 0.00160928, 0.00112683, 98.2656, -30.4948, 0, 0.0010453, 0.000904167, 0.000631729, 55.1875, -17.3423, 0, 0.00104507, 1.10787, -6.58688, 96.9633, 0.698188, -2.41994, 53.7486, -0.000462569, -0.000627314, 0.00158472, -0.000264027, -0.000264027, -0.000264027
1724, 1,0.00122756, 0.000250943, 0.000181214, 74.5334, 15.1504, 0.00283604, 166.982, -44.1587, 0, 0.00107956, 0.00147307, 0.00104324, 89.3899, -26.4488, 0, 0.00107925, 0.000984852, 0.000695723, 59.8291, -17.6464, 0, 0.0010791, -0.356927, -9.50646, 89.2098, -0.523321, -5.8952, 59.3578, -0.000424666, -0.000612146, 0.00146599, -0.000289237, -0.000289237, -0.000289237
1725, 1,0.00139605, 0.000568222, 0.000404483, 82.4263, 34.7605, 0.00303265, 185.456, -56.5557, 0, 0.000977836, 0.0019628, 0.00141786, 117.149, -34.0441, 0, 0.000977479, 0.000831331, 0.000614248, 47.7577, -13.4895, 0, 0.000977153, 0.160408, -14.9795, 116.951, -0.00836155, -7.10133, 47.5783, -0.000538034, -0.000872182, 0.00196263, -0.0002184, -0.0002184, -0.0002184
1726, 1,0.00121797, 0.000431119, 0.000306467, 73.61, 26.4573, 0.00250546, 152.694, -46.3368, 0, 0.00101169, 0.00164561, 0.00115886, 99.8979, -30.5165, 0, 0.00101143, 0.000794283, 0.00056177, 47.5204, -14.5767, 0, 0.00101117, 0.793459, -7.80463, 98.5608, 0.337372, -3.27703, 46.6697, -0.000471687, -0.000660085, 0.00162695, -0.000230482, -0.000230482, -0.000230482
1727, 1,0.00113752, 0.000322346, 0.000235456, 69.0931, 19.4663, 0.00218357, 130.785, -37.2609, 0, 0.00104558, 0.00145327, 0.00102777, 88.1805, -26.6105, 0, 0.0010454, 0.000827235, 0.000580219, 50.3227, -15.4179, 0, 0.00104521, 0.603918, -8.08513, 87.3126, 0.188169, -3.26938, 49.3349, -0.000411887, -0.000592262, 0.00143595, -0.000244329, -0.000244329, -0.000244329
1728, 1,0.0011136, 0.000208257, 0.000158236, 67.7156, 12.1972, 0.00222669, 129.448, -32.2486, 0, 0.00107953, 0.00131178, 0.000948098, 79.4018, -23.0848, 0, 0.00107937, 0.000920139, 0.000657879, 56.2681, -16.7646, 0, 0.00107926, 0.850898, -10.8539, 79.2572, 0.695327, -6.37426, 55.9727, -0.000345948, -0.000583928, 0.00130446, -0.000249325, -0.000249325, -0.000249325
1729, 1,0.00130804, 0.000551252, 0.000393981, 76.5246, 33.6582, 0.00282526, 173.687, -53.9955, 0, 0.000977918, 0.00185748, 0.00135703, 110.166, -31.3092, 0, 0.000977558, 0.00076117, 0.000575763, 42.9082, -11.5624, 0, 0.000977245, 0.232107, -16.3392, 110.035, 0.0610914, -8.2423, 42.8684, -0.000493669, -0.000854831, 0.00185654, -0.000186866, -0.000186866, -0.000186866
1730, 1,0.00110698, 0.00040202, 0.000288622, 66.1964, 24.5559, 0.00230807, 141.123, -43.3877, 0, 0.00101177, 0.0015055, 0.00107516, 90.5973, -26.8347, 0, 0.0010115, 0.000712558, 0.000513298, 41.9855, -12.3017, 0, 0.00101126, 0.534766, -9.61444, 89.5837, 0.060814, -4.65275, 41.497, -0.000419199, -0.000637122, 0.00149175, -0.000200552, -0.000200552, -0.000200552
1731, 1,0.00101275, 0.000285198, 0.000213972, 60.9475, 16.973, 0.00191674, 114.634, -32.4424, 0, 0.00104566, 0.00129041, 0.000931923, 77.4896, -22.4672, 0, 0.00104549, 0.000741368, 0.000530339, 44.7661, -13.2408, 0, 0.00104534, 0.709755, -10.2103, 76.902, 0.280305, -4.71271, 44.1549, -0.000344272, -0.000568367, 0.00127721, -0.000207957, -0.000207957, -0.000207957
1732, 1,0.000988268, 0.000172186, 0.000141995, 59.1605, 9.56568, 0.00183394, 103.547, -22.1153, 0, 0.00107954, 0.00114262, 0.000854438, 67.8418, -18.064, 0, 0.00107947, 0.0008417, 0.000615242, 50.8612, -14.2314, 0, 0.0010794, 0.376704, -13.6465, 67.462, 0.225211, -8.25806, 50.7271, -0.000276678, -0.000560546, 0.00113034, -0.000219091, -0.000219091, -0.000219091
1733, 1,0.00122476, 0.000534215, 0.000383415, 70.7536, 32.5523, 0.00264498, 162.165, -49.9937, 0, 0.000977976, 0.00175641, 0.00129952, 103.296, -28.5417, 0, 0.000977636, 0.000696872, 0.000542082, 38.2293, -9.60172, 0, 0.000977335, 0.16737, -17.7141, 103.172, -0.00657176, -9.40981, 38.2215, -0.000451643, -0.000838396, 0.00175318, -0.00015767, -0.00015767, -0.00015767
1734, 1,0.00100385, 0.000373096, 0.000270939, 59.3621, 22.6635, 0.0021079, 128.092, -38.6246, 0, 0.00101182, 0.00137346, 0.000996798, 81.8907, -23.533, 0, 0.00101157, 0.000638455, 0.000470497, 37.0072, -10.3995, 0, 0.00101136, 0.63641, -11.1339, 81.0965, 0.140293, -5.77125, 36.8293, -0.000365166, -0.000615021, 0.00136205, -0.000169048, -0.000169048, -0.000169048
1735, 1,0.000895863, 0.000250112, 0.000194547, 53.2512, 14.5779, 0.00168503, 99.1983, -26.3713, 0, 0.00104571, 0.00113749, 0.000843153, 67.3477, -18.5074, 0, 0.00104557, 0.000661306, 0.000482938, 39.5586, -11.2431, 0, 0.00104545, 0.795909, -12.0702, 66.7964, 0.348052, -5.91651, 39.2977, -0.000280058, -0.00054274, 0.00112311, -0.000175018, -0.000175018, -0.000175018
1736, 1,0.00086911, 0.000145451, 0.000135143, 51.4767, 7.38212, 0.00157894, 85.8498, -14.3271, 0, 0.00107959, 0.000984543, 0.0007656, 57.3855, -13.8452, 0, 0.00107958, 0.000766531, 0.00056951, 46.1866, -12.5059, 0, 0.00107956, 0.530357, -15.3677, 56.373, 0.382268, -9.00942, 46.1449, -0.000206796, -0.000527795, 0.000959247, -0.00018835, -0.00018835, -0.00018835
1737, 1,0.00114485, 0.000517118, 0.000372782, 65.1578, 31.4434, 0.00246685, 150.613, -45.8222, 0, 0.00097803, 0.00165813, 0.00124489, 96.5762, -25.8115, 0, 0.000977713, 0.000637312, 0.000513233, 33.7809, -7.67589, 0, 0.000977425, 0.164095, -19.1064, 96.3768, -0.0138969, -10.6108, 33.6524, -0.000408867, -0.000822879, 0.00165059, -0.000127712, -0.000127712, -0.000127712
1738, 1,0.000905252, 0.000344857, 0.00025388, 52.67, 20.8033, 0.00189922, 114.428, -33.5504, 0, 0.0010119, 0.00124654, 0.000923862, 73.3543, -20.1481, 0, 0.00101168, 0.000568398, 0.000432247, 32.1467, -8.41053, 0, 0.00101149, 0.654465, -12.7975, 72.5873, 0.139091, -7.03248, 32.125, -0.000311645, -0.0005947, 0.00123328, -0.00013794, -0.00013794, -0.00013794
1739, 1,0.000789106, 0.000218122, 0.000178217, 46.0389, 12.3296, 0.00148287, 85.6553, -20.9791, 0, 0.00104579, 0.000997681, 0.000765144, 57.8302, -14.575, 0, 0.00104568, 0.000588542, 0.000440534, 34.7019, -9.27223, 0, 0.00104559, 0.704586, -13.8906, 56.9111, 0.241256, -7.08855, 34.664, -0.000220148, -0.000516874, 0.000973525, -0.000146311, -0.000146311, -0.000146311
1740, 1,0.000740979, -0.000147739, 0.000138035, 42.7842, -7.46958, 0.00143194, 74.9486, -8.86324, 0, 0.00107968, 0.000825636, 0.000683798, 46.295, -8.78317, 0, 0.00107968, 0.000676454, 0.000516283, 40.232, -9.94548, 0, 0.0010797, 0.0996191, -17.6115, 43.8613, -0.0499443, -10.34, 40.2264, -0.00013603, -0.000492989, 0.00077153, -0.000156957, -0.000156957, -0.000156957
1741, 1,0.00106914, 0.000499961, 0.000362066, 59.7768, 30.3313, 0.00228607, 138.755, -41.4245, 0, 0.000978085, 0.00156335, 0.00119336, 90.0413, -23.1074, 0, 0.000977795, 0.000583626, 0.000489914, 29.6242, -5.77377, 0, 0.00097752, 0.160618, -20.4907, 89.6522, -0.0204105, -11.8243, 29.166, -0.000366495, -0.000807405, 0.00154887, -9.81006E-05, -9.81006E-05, -9.81006E-05
1742, 1,0.000812606, 0.00031735, 0.000237519, 46.2728, 18.9784, 0.00169587, 101.044, -28.5167, 0, 0.00101196, 0.00112604, 0.000856827, 65.1377, -16.787, 0, 0.00101176, 0.000504097, 0.000399174, 27.5676, -6.44162, 0, 0.00101159, 0.647578, -14.4386, 64.1521, 0.116001, -8.28169, 27.4906, -0.000259035, -0.000574157, 0.00110559, -0.000107617, -0.000107617, -0.000107617
1743, 1,0.000690173, 0.000190358, 0.000166114, 39.1544, 10.2818, 0.00130409, 73.2503, -15.63, 0, 0.00104587, 0.00086968, 0.000699657, 48.8275, -10.5851, 0, 0.00104579, 0.000519977, 0.000403028, 30.0067, -7.24376, 0, 0.00104573, 0.584822, -15.8131, 46.9836, 0.109067, -8.3605, 29.9827, -0.000159927, -0.000492292, 0.000823976, -0.000117225, -0.000117225, -0.000117225
1744, 1,0.000638828, -0.000181479, 0.000151727, 35.6727, -10.0167, 0.00132006, 65.6509, -3.36769, 0, 0.0010798, 0.000704483, 0.000635905, 37.3284, -4.22264, 0, 0.00107982, 0.000603476, 0.000476349, 35.4496, -7.89519, 0, 0.00107988, 0.102721, -19.7066, 32.2718, -0.0428453, -11.553, 35.2814, -6.40186E-05, -0.000463084, 0.000595606, -0.000124335, -0.000124335, -0.000124335
1745, 1,0.000997796, 0.000482763, 0.000351287, 54.6081, 29.2171, 0.00210469, 126.767, -36.9099, 0, 0.000978144, 0.0014721, 0.00114508, 83.681, -20.4121, 0, 0.000977882, 0.000536281, 0.000472696, 25.7798, -3.87787, 0, 0.00097762, 0.142054, -21.8631, 82.9573, -0.0410958, -13.0471, 24.7218, -0.00032457, -0.00079161, 0.00144741, -6.88788E-05, -6.88788E-05, -6.88788E-05
1746, 1,0.000726974, 0.000290779, 0.000222066, 40.2038, 17.1983, 0.00150401, 88.224, -23.5173, 0, 0.00101202, 0.00101312, 0.000797304, 57.2769, -13.4215, 0, 0.00101186, 0.000446652, 0.00037291, 23.3098, -4.4652, 0, 0.00101171, 0.618573, -16.0949, 55.741, 0.0746471, -9.55626, 22.8772, -0.000206795, -0.000553761, 0.00097834, -7.7535E-05, -7.7535E-05, -7.7535E-05
1747, 1,0.000600882, 0.000167817, 0.000159218, 32.7218, 8.48189, 0.001146, 61.7736, -10.2028, 0, 0.00104594, 0.000756641, 0.00065004, 40.5272, -6.58775, 0, 0.00104588, 0.000455988, 0.000371087, 25.5288, -5.20853, 0, 0.00104586, 0.54182, -17.7679, 36.9894, 0.0581028, -9.66792, 25.2354, -9.79278E-05, -0.000468272, 0.000673091, -8.62757E-05, -8.62757E-05, -8.62757E-05
1748, 1,0.000556091, -0.00022383, 0.00017397, 29.4321, -12.9739, 0.00122086, 56.7172, 2.42646, 0, 0.00107989, 0.000616001, 0.000620246, 29.8362, 0.364618, 0, 0.00107993, 0.000539405, 0.000444862, 31.0671, -5.82758, 0, 0.00108004, 0.0431166, -21.9407, 20.8037, -0.0953174, -12.899, 30.4771, 7.07989E-06, -0.000435754, 0.000422736, -9.27029E-05, -9.27029E-05, -9.27029E-05
1749, 1,0.000931199, 0.000465527, 0.000340443, 49.6728, 28.1015, 0.00192463, 114.718, -32.2477, 0, 0.000978208, 0.00138462, 0.00110039, 77.5079, -17.7285, 0, 0.000977977, 0.000495877, 0.000462309, 22.29, -1.99014, 0, 0.000977728, 0.12329, -23.2055, 76.2677, -0.0614581, -14.2647, 20.2966, -0.000282821, -0.000775202, 0.00134571, -3.97666E-05, -3.97666E-05, -3.97666E-05
1750, 1,0.000649837, 0.000265365, 0.000207735, 34.5487, 15.474, 0.00132457, 75.9517, -18.4683, 0, 0.00101211, 0.000909418, 0.000747024, 49.8642, -10.0667, 0, 0.00101197, 0.000397346, 0.000354871, 19.4558, -2.49621, 0, 0.00101184, 0.602093, -17.7353, 47.3334, 0.0498206, -10.8283, 18.2671, -0.000154428, -0.00053311, 0.000850884, -4.7189E-05, -4.7189E-05, -4.7189E-05
1751, 1,0.000526004, -0.000165286, 0.000158245, 26.9738, -8.08395, 0.00101408, 51.5597, -4.80147, 0, 0.00104605, 0.000664453, 0.000621388, 33.217, -2.59584, 0, 0.00104601, 0.000399943, 0.000347252, 21.4331, -3.17998, 0, 0.00104602, 0.517701, -19.7125, 26.9823, 0.0306483, -10.9781, 20.4874, -3.55838E-05, -0.000444085, 0.000521782, -5.49012E-05, -5.49012E-05, -5.49012E-05
1752, 1,0.00049235, -0.000272026, 0.000201979, 24.0449, -16.2104, 0.00114628, 48.9933, 8.14465, 0, 0.00108001, 0.000559389, 0.000636907, 23.7842, 4.96076, 0, 0.00108006, 0.000481711, 0.000420043, 26.9844, -3.76117, 0, 0.00108021, 0.0145441, -24.1732, 9.27636, -0.115446, -14.2463, 25.6453, 7.89886E-05, -0.000408214, 0.000248703, -6.03879E-05, -6.03879E-05, -6.03879E-05
1753, 1,0.000869856, 0.000448257, 0.00032954, 44.9942, 26.9843, 0.0017471, 102.65, -27.4229, 0, 0.000978249, 0.00130128, 0.00105979, 71.5363, -15.0507, 0, 0.000978052, 0.00046289, 0.000459338, 19.1896, -0.105356, 0, 0.000977815, 0.106792, -24.5113, 69.5566, -0.0785891, -15.4717, 15.8663, -0.000241099, -0.000757975, 0.00124331, -1.06197E-05, -1.06197E-05, -1.06197E-05
1754, 1,0.000583468, 0.000241377, 0.00019479, 29.4219, 13.8182, 0.00116082, 64.3755, -13.3605, 0, 0.00101216, 0.000817502, 0.000708404, 43.0249, -6.72418, 0, 0.00101205, 0.000357997, 0.000346754, 16.1052, -0.536462, 0, 0.00101195, 0.589049, -19.3444, 38.9279, 0.0330799, -12.0861, 13.6624, -0.000102153, -0.000511917, 0.000723177, -1.67901E-05, -1.67901E-05, -1.67901E-05
1755, 1,0.000468664, -0.000186075, 0.000163396, 22.0533, -9.80159, 0.000911966, 42.7788, 0.570163, 0, 0.00104611, 0.00059672, 0.000617217, 27.0646, 1.39125, 0, 0.0010461, 0.000354106, 0.000333662, 17.8196, -1.15782, 0, 0.00104614, 0.501113, -21.6316, 16.9568, 0.0153294, -12.2795, 15.7376, 2.68701E-05, -0.000419414, 0.000369958, -2.33417E-05, -2.33417E-05, -2.33417E-05
1756, 1,0.00045023, -0.000324172, 0.000233858, 19.6126, -19.6365, 0.00109603, 42.477, 13.7647, 0, 0.00108007, 0.000533952, 0.000684971, 19.1359, 9.57068, 0, 0.00108015, 0.0004326, 0.000403871, 23.2872, -1.69103, 0, 0.00108034, -0.0140828, -26.3832, -2.31473, -0.134635, -15.5839, 20.7917, 0.000151126, -0.000379975, 7.35187E-05, -2.79765E-05, -2.79765E-05, -2.79765E-05
1757, 1,0.000814425, 0.000430964, 0.000318586, 40.6068, 25.8664, 0.00157431, 90.648, -22.411, 0, 0.000978303, 0.00122266, 0.00102387, 65.7944, -12.3766, 0, 0.000978144, 0.000437639, 0.000464121, 16.5053, 1.77895, 0, 0.000977919, 0.0899353, -25.7671, 62.807, -0.0948911, -16.6571, 11.4151, -0.000199428, -0.000739636, 0.00113991, 1.85506E-05, 1.85506E-05, 1.85506E-05
1758, 1,0.000529707, 0.000219141, 0.000183557, 24.9159, 12.2467, 0.00101794, 53.7377, -8.18507, 0, 0.00101221, 0.000739699, 0.000683724, 36.8728, -3.39394, 0, 0.00101213, 0.000329598, 0.000349488, 13.3134, 1.41407, 0, 0.00101205, 0.574679, -20.9083, 30.5155, 0.0194595, -13.3185, 9.05685, -5.00745E-05, -0.000489904, 0.000595045, 1.35556E-05, 1.35556E-05, 1.35556E-05
1759, 1,0.000430453, -0.000212521, 0.000174206, 18.0327, -11.7893, 0.000841318, 35.5131, 5.89903, 0, 0.00104618, 0.000554533, 0.000638511, 22.1208, 5.37189, 0, 0.00104619, 0.000320229, 0.000331937, 14.7638, 0.856493, 0, 0.00104626, 0.48249, -23.5031, 6.9049, 0.00222063, -13.5549, 10.9832, 8.92017E-05, -0.000393829, 0.000217446, 8.16579E-06, 8.16579E-06, 8.16579E-06
1760, 1,0.000429023, -0.000379033, 0.000268367, 16.0991, -23.1938, 0.00106784, 37.1096, 19.2213, 0, 0.00108016, 0.000534567, 0.000759378, 15.6661, 14.1964, 0, 0.00108024, 0.000393426, 0.000397751, 20.019, 0.384741, 0, 0.00108049, -0.0412592, -28.5505, -13.9975, -0.151887, -16.8968, 15.8945, 0.000223554, -0.000350604, -0.000103344, 4.58037E-06, 4.58037E-06, 4.58037E-06
1761, 1,0.000765551, 0.000413666, 0.000307597, 36.5462, 24.7488, 0.00141008, 78.8756, -17.191, 0, 0.000978359, 0.00114944, 0.000993299, 60.3162, -9.70606, 0, 0.000978241, 0.000420105, 0.000476641, 14.2412, 3.66322, 0, 0.000978028, 0.0730655, -26.9607, 56.0058, -0.110405, -17.8102, 6.93096, -0.000157795, -0.000719943, 0.00103525, 4.77528E-05, 4.77528E-05, 4.77528E-05
1762, 1,0.000489627, 0.000199021, 0.0001744, 21.0839, 10.7772, 0.000901987, 44.3178, -2.92556, 0, 0.00101228, 0.000677788, 0.000674752, 31.4942, -0.0754954, 0, 0.00101224, 0.000312114, 0.000363022, 11.0775, 3.35594, 0, 0.00101218, 0.556502, -22.4123, 22.0822, 0.00651752, -14.5134, 4.43904, 1.76992E-06, -0.000466772, 0.00046622, 4.38113E-05, 4.38113E-05, 4.38113E-05
1763, 1,0.000410578, -0.00024373, 0.00018978, 14.8722, -14.0046, 0.000800637, 29.6959, 11.1745, 0, 0.00104626, 0.000535867, 0.000683276, 18.2876, 9.34828, 0, 0.00104629, 0.000298716, 0.000342501, 12.2778, 2.86482, 0, 0.0010464, 0.460292, -25.3115, -3.19366, -0.0100072, -14.7929, 6.20843, 0.000151411, -0.000366994, 6.38755E-05, 3.96209E-05, 3.96209E-05, 3.96209E-05
1764, 1,0.000426049, -0.000435838, 0.000304738, 13.3934, -26.8462, 0.00105796, 32.7299, 24.4954, 0, 0.00108025, 0.000555269, 0.000854164, 13.1147, 18.8388, 0, 0.00108035, 0.000365133, 0.000402625, 17.2088, 2.46663, 0, 0.00108064, -0.0690635, -30.6541, -25.7933, -0.169023, -18.1691, 10.9382, 0.000296247, -0.000319693, -0.000282283, 3.72578E-05, 3.72578E-05, 3.72578E-05
1765, 1,0.000723758, 0.00039639, 0.000296598, 32.8434, 23.6333, 0.00126016, 67.586, -11.7331, 0, 0.00097839, 0.0010823, 0.00096876, 55.1382, -7.04022, 0, 0.000978316, 0.000409892, 0.000496508, 12.3764, 5.54679, 0, 0.000978116, 0.0574172, -28.0797, 49.143, -0.12401, -18.92, 2.40365, -0.000116189, -0.000698667, 0.00092911, 7.70036E-05, 7.70036E-05, 7.70036E-05
1766, 1,0.000463209, 0.000181386, 0.000167685, 17.9235, 9.42732, 0.000817857, 36.3525, 2.41837, 0, 0.00101234, 0.000632533, 0.000682304, 26.9253, 3.23138, 0, 0.00101233, 0.000304529, 0.000386381, 9.34007, 5.28916, 0, 0.0010123, 0.53873, -23.8421, 13.6092, -0.00155749, -15.6589, -0.207047, 5.3485E-05, -0.000442244, 0.000336316, 7.4078E-05, 7.4078E-05, 7.4078E-05
1767, 1,0.000406558, -0.000278698, 0.000209114, 12.4567, -16.3993, 0.000785307, 25.0837, 16.4305, 0, 0.00104633, 0.000536869, 0.000747714, 15.3837, 13.3204, 0, 0.00104638, 0.00028873, 0.00036457, 10.3223, 4.86716, 0, 0.00104653, 0.43827, -27.0392, -13.3604, -0.0176666, -15.9801, 1.39626, 0.0002136, -0.000338575, -9.11897E-05, 7.11236E-05, 7.11236E-05, 7.11236E-05
1768, 1,0.000437734, -0.000494111, 0.000342489, 11.3477, -30.5711, 0.00106301, 29.236, 29.5119, 0, 0.00108034, 0.000590837, 0.000964163, 11.2502, 23.4987, 0, 0.00108045, 0.00034781, 0.000418625, 14.8555, 4.55525, 0, 0.00108078, -0.0952163, -32.6768, -37.7241, -0.183954, -19.3888, 5.90698, 0.00036927, -0.000286905, -0.000463712, 7.01138E-05, 7.01138E-05, 7.01138E-05
1769, 1,0.000689377, 0.000379159, 0.00028561, 29.5213, 22.521, 0.00113237, 57.1276, -5.99462, 0, 0.000978436, 0.00102189, 0.000950879, 50.2975, -4.38263, 0, 0.00097841, 0.000406316, 0.000523015, 10.8725, 7.42586, 0, 0.000978223, 0.0457311, -29.11, 42.2121, -0.13244, -19.9733, -2.1719, -7.46035E-05, -0.000675567, 0.000821299, 0.000106317, 0.000106317, 0.000106317
1770, 1,0.000449435, 0.000166558, 0.000163734, 15.3824, 8.21259, 0.000767293, 29.9191, 7.85745, 0, 0.00101242, 0.00060354, 0.000706072, 23.1458, 6.52588, 0, 0.00101244, 0.000305281, 0.000418095, 8.01673, 7.21277, 0, 0.00101243, 0.531088, -25.1831, 5.07439, 0.00548326, -16.7433, -4.90049, 0.000105276, -0.000416047, 0.000204869, 0.000104569, 0.000104569, 0.000104569
1771, 1,0.000415117, -0.000316535, 0.000231317, 10.6346, -18.931, 0.000788845, 21.3827, 21.6519, 0, 0.00104641, 0.00055315, 0.000827585, 13.2029, 17.2903, 0, 0.00104648, 0.000288458, 0.000396471, 8.81622, 6.8652, 0, 0.00104666, 0.425394, -28.6749, -23.6214, -0.011415, -17.1093, -3.47486, 0.000276015, -0.000308353, -0.000248246, 0.000102924, 0.000102924, 0.000102924
1772, 1,0.000460527, -0.000553543, 0.000381314, 9.80835, -34.3538, 0.00107971, 26.4886, 34.2495, 0, 0.00108043, 0.000637166, 0.0010854, 9.88374, 28.1814, 0, 0.00108054, 0.000340571, 0.000444997, 12.9217, 6.6558, 0, 0.00108092, -0.117582, -34.6151, -49.8116, -0.194657, -20.5567, 0.783908, 0.000442778, -0.000252109, -0.000648004, 0.000103297, 0.000103297, 0.000103297
1773, 1,0.000662557, 0.000361996, 0.000274655, 26.5947, 21.4132, 0.00103588, 47.9077, 0.0866466, 0, 0.000978487, 0.000968842, 0.000940188, 45.8325, -1.73999, 0, 0.000978516, 0.000408576, 0.000555277, 9.68547, 9.294, 0, 0.000978341, 0.0400209, -30.0357, 35.2156, -0.133987, -20.9555, -6.79248, -3.3096E-05, -0.000650403, 0.000711746, 0.000135634, 0.000135634, 0.000135634
1774, 1,0.000446525, -0.000170777, 0.000162767, 13.366, -8.36978, 0.000748519, 24.9223, 13.4039, 0, 0.00101247, 0.000589314, 0.000744681, 20.0762, 9.81507, 0, 0.00101253, 0.000312557, 0.000456497, 7.00816, 9.13337, 0, 0.00101254, 0.536379, -26.4317, -3.54989, 0.0313107, -17.765, -9.66644, 0.000157319, -0.000388014, 7.14179E-05, 0.000135474, 0.000135474, 0.000135474
1775, 1,0.000433052, -0.000356553, 0.000255695, 9.25818, -21.5666, 0.000805062, 18.3295, 26.7949, 0, 0.00104647, 0.000580719, 0.000919213, 11.5578, 21.2595, 0, 0.00104657, 0.000295754, 0.000436345, 7.66602, 8.86036, 0, 0.00104678, 0.445117, -30.223, -34.0006, 0.0322398, -18.1889, -8.42444, 0.00033919, -0.000276443, -0.000407739, 0.000135555, 0.000135555, 0.000135555
1776, 1,0.000490941, -0.000613971, 0.000421043, 8.62771, -38.1867, 0.00110183, 24.1339, 38.7916, 0, 0.00108051, 0.000690662, 0.00121437, 8.8541, 32.887, 0, 0.00108061, 0.00034164, 0.000480048, 11.3472, 8.76801, 0, 0.00108104, -0.131942, -36.4989, -62.0303, -0.197331, -21.7033, -4.40344, 0.000516853, -0.000215987, -0.00083456, 0.000136877, 0.000136877, 0.000136877
1777, 1,0.000643168, 0.000344908, 0.000263744, 24.0599, 20.3105, 0.000978655, 40.2543, 6.60916, 0, 0.000978572, 0.000923584, 0.000936985, 41.7692, 0.883813, 0, 0.000978663, 0.000415816, 0.000592315, 8.76749, 11.1471, 0, 0.0009785, 0.0334012, -30.8406, 28.1557, -0.135366, -21.8532, -11.4526, 8.12801E-06, -0.000622866, 0.000600408, 0.000164747, 0.000164747, 0.000164747
1778, 1,0.000452768, -0.000183661, 0.000164854, 11.7902, -9.49007, 0.000757401, 21.1585, 19.0617, 0, 0.00101254, 0.000588016, 0.000796216, 17.6274, 13.0955, 0, 0.00101264, 0.000325052, 0.000500175, 6.24961, 11.0474, 0, 0.00101268, 0.551278, -27.578, -12.2599, 0.0732455, -18.7169, -14.4984, 0.000209492, -0.000358003, -6.39972E-05, 0.000166679, 0.000166679, 0.000166679
1779, 1,0.000457404, -0.000398234, 0.000281729, 8.17172, -24.2814, 0.000827931, 15.6673, 31.8252, 0, 0.00104654, 0.000616124, 0.00101957, 10.268, 25.2495, 0, 0.00104666, 0.000308246, 0.000482251, 6.74786, 10.8736, 0, 0.0010469, 0.507421, -31.714, -44.5419, 0.124016, -19.251, -13.4939, 0.000403676, -0.000243204, -0.00057021, 0.000169575, 0.000169575, 0.000169575
1780, 1,0.000528724, -0.000675501, 0.000461764, 7.91053, -42.074, 0.00111746, 21.6019, 43.1647, 0, 0.00108058, 0.000751055, 0.0013505, 8.25349, 37.5187, 0, 0.00108068, 0.000351997, 0.000524373, 10.3085, 10.7946, 0, 0.00108115, -0.0517745, -38.3141, -74.1901, -0.108366, -22.8318, -9.44364, 0.000591828, -0.000179902, -0.00102078, 0.000171117, 0.000171117, 0.000171117
1781, 1,0.000630932, 0.000327863, 0.000252862, 21.8928, 19.2109, 0.000965295, 34.3389, 13.6581, 0, 0.00097866, 0.000886345, 0.000941351, 38.1118, 3.49325, 0, 0.000978822, 0.00042744, 0.000633318, 8.07193, 12.9875, 0, 0.000978671, 0.00841408, -31.518, 21.0298, -0.153275, -22.662, -16.1472, 4.87683E-05, -0.000592718, 0.000487277, 0.000193343, 0.000193343, 0.000193343
1782, 1,0.000466372, -0.000199462, 0.000169878, 10.5549, -10.7487, 0.000787459, 18.2981, 24.853, 0, 0.00101262, 0.000597435, 0.000858339, 15.679, 16.3841, 0, 0.00101276, 0.000341555, 0.000547822, 5.67027, 12.9721, 0, 0.00101282, 0.539261, -28.6237, -21.0679, 0.0947836, -19.605, -19.406, 0.000261276, -0.0003258, -0.000201348, 0.000197676, 0.000197676, 0.000197676
1783, 1,0.000487194, -0.000441288, 0.000309108, 7.34294, -27.0612, 0.000853732, 13.3082, 36.6684, 0, 0.00104661, 0.000657975, 0.00112692, 9.28042, 29.2443, 0, 0.00104674, 0.000325506, 0.000533291, 6.05842, 12.8892, 0, 0.00104701, 0.594386, -33.1463, -55.1811, 0.244919, -20.3005, -18.6119, 0.000468864, -0.000208901, -0.000734524, 0.000204355, 0.000204355, 0.000204355
1784, 1,0.000577853, -0.000737922, 0.000503268, 7.76048, -46.0059, 0.00113615, 19.9629, 46.6242, 0, 0.00108066, 0.000822817, 0.00149903, 8.2134, 42.1486, 0, 0.00108074, 0.000374155, 0.000581233, 9.83021, 12.8062, 0, 0.00108125, 0.103743, -39.8626, -86.6868, 0.0544021, -23.7744, -14.6985, 0.000668453, -0.000138442, -0.00121399, 0.00020677, 0.00020677, 0.00020677
1785, 1,0.000625973, 0.000310766, 0.0002419, 20.1241, 18.1114, 0.000991746, 29.8669, 21.3863, 0, 0.000978746, 0.00085754, 0.000953365, 34.9068, 6.04419, 0, 0.000978989, 0.000443543, 0.000678192, 7.63315, 14.7742, 0, 0.000978851, -0.000692154, -31.9737, 13.8419, -0.154263, -23.3034, -20.8649, 8.88193E-05, -0.000558667, 0.000371782, 0.000221447, 0.000221447, 0.000221447
1786, 1,0.000487244, -0.000217868, 0.00017746, 9.67569, -12.13, 0.000821474, 15.3682, 30.9794, 0, 0.0010127, 0.000616592, 0.00092967, 14.2038, 19.6404, 0, 0.00101288, 0.000363037, 0.000599789, 5.34134, 14.8675, 0, 0.00101296, 0.505327, -29.4511, -29.9753, 0.0984118, -20.3233, -24.3776, 0.000312159, -0.000289707, -0.000341163, 0.000227911, 0.000227911, 0.000227911
1787, 1,0.000525863, -0.000485429, 0.000337489, 7.01575, -29.8922, 0.000889264, 11.7596, 41.1765, 0, 0.00104667, 0.000709218, 0.00124275, 8.81557, 33.1371, 0, 0.00104681, 0.000351422, 0.000591556, 5.85614, 14.7998, 0, 0.00104712, 0.704702, -34.2431, -65.8729, 0.38984, -21.0771, -23.7121, 0.000533101, -0.000169386, -0.000901446, 0.000238158, 0.000238158, 0.000238158
1788, 1,0.000628707, -0.000800485, 0.00054484, 7.16441, -49.947, 0.0011865, 20.9683, 48.7198, 0, 0.00108073, 0.000896803, 0.00165268, 7.76757, 47.2994, 0, 0.00108075, 0.000396569, 0.000641179, 8.80195, 15.3249, 0, 0.00108131, -0.190661, -41.3994, -100.308, -0.227174, -24.7182, -21.0293, 0.000743798, -8.85185E-05, -0.00142285, 0.000241045, 0.000241045, 0.000241045
1789, 1,0.000624244, 0.000293484, 0.000230709, 18.4896, 17.0072, 0.0010375, 25.7816, 29.8911, 0, 0.000978844, 0.00083281, 0.000969114, 31.8743, 8.59163, 0, 0.000979183, 0.000461095, 0.000724511, 7.24763, 16.5633, 0, 0.000979056, -0.0369375, -32.0858, 6.34783, -0.178631, -23.6597, -25.8517, 0.000128196, -0.000517631, 0.000250033, 0.000249048, 0.000249048, 0.000249048
1790, 1,0.000508794, -0.000238329, 0.000187015, 8.72308, -13.6047, 0.00083973, 11.4344, 37.4284, 0, 0.00101278, 0.000637934, 0.00100415, 12.7298, 22.9974, 0, 0.00101302, 0.000384081, 0.000651943, 4.88507, 16.8722, 0, 0.00101312, 0.379025, -30.0743, -39.2967, 0.00562695, -20.873, -29.7492, 0.000362759, -0.000248189, -0.000487752, 0.000257915, 0.000257915, 0.000257915
1791, 1,0.00057067, -0.000530202, 0.000366364, 6.83846, -32.7526, 0.000954716, 12.1641, 45.0197, 0, 0.00104678, 0.000767167, 0.00136541, 8.53208, 37.191, 0, 0.00104691, 0.00038238, 0.000654873, 5.73245, 16.868, 0, 0.00104725, 0.584632, -35.0187, -77.1389, 0.298295, -21.575, -29.3272, 0.000595122, -0.000120838, -0.0010778, 0.000269565, 0.000269565, 0.000269565
1792, 1,0.000689802, -0.000864393, 0.00058754, 7.50896, -53.9574, 0.00130783, 27.2198, 48.28, 0, 0.00108088, 0.000980912, 0.00181174, 8.24273, 51.805, 0, 0.00108082, 0.00043111, 0.00070816, 8.82175, 17.177, 0, 0.00108143, 0.0339257, -42.3043, -113.145, 0.000555549, -25.0597, -26.472, 0.00082002, -3.50875E-05, -0.00162562, 0.000275655, 0.000275655, 0.000275655
1793, 1,0.000634004, 0.00027558, 0.000218875, 17.5333, 15.888, 0.00113794, 25.7853, 36.347, 0, 0.00097895, 0.00081974, 0.00099344, 29.5634, 10.762, 0, 0.000979356, 0.000489559, 0.000777882, 7.45696, 18.0031, 0, 0.000979241, 0.27719, -31.5539, -1.00936, 0.123446, -23.4904, -30.6425, 0.000169124, -0.000468975, 0.00012523, 0.000278107, 0.000278107, 0.000278107
1794, 1,0.00054251, -0.000260767, 0.000198303, 8.69194, -15.168, 0.000877181, 9.55576, 42.3283, 0, 0.00101287, 0.000673931, 0.00108958, 12.2874, 25.8701, 0, 0.00101314, 0.00041383, 0.000710211, 5.19168, 18.4013, 0, 0.00101326, 0.698014, -30.1997, -48.1087, 0.355768, -21.0196, -34.54, 0.00041504, -0.000204107, -0.000630732, 0.000289677, 0.000289677, 0.000289677
1795, 1,0.000613338, -0.000575592, 0.000395565, 6.49178, -35.6425, 0.00102517, 13.3037, 48.0341, 0, 0.00104684, 0.000823353, 0.00148826, 8.09633, 41.3063, 0, 0.00104695, 0.000410539, 0.000717033, 5.41032, 18.9897, 0, 0.00104733, 0.56898, -35.5837, -88.9043, 0.28748, -21.8486, -35.408, 0.000660246, -6.72331E-05, -0.00126331, 0.000303451, 0.000303451, 0.000303451
1796, 1,0.000747908, -0.000928834, 0.000630454, 6.78752, -58.0018, 0.00143762, 33.7839, 47.7881, 0, 0.00108095, 0.00106302, 0.00198081, 7.68996, 57.5718, 0, 0.00108078, 0.000460108, 0.000780995, 7.64728, 20.2615, 0, 0.00108143, -0.525785, -43.798, -128.392, -0.580599, -25.9716, -34.2321, 0.000899603, 2.57314E-05, -0.0018596, 0.000312651, 0.000312651, 0.000312651
1797, 1,0.000662751, 0.000255686, 0.000205527, 17.4386, 14.6564, 0.00142052, 35.9355, 41.1493, 0, 0.000979107, 0.000825664, 0.00103086, 28.1063, 13.0381, 0, 0.000979554, 0.000535262, 0.000842442, 8.46749, 19.4897, 0, 0.000979451, -0.0755839, -30.77, -8.26863, -0.213736, -23.1271, -35.1282, 0.000197237, -0.000410317, 1.52653E-06, 0.00029395, 0.00029395, 0.00029395
1798, 1,0.00056822, -0.000284197, 0.000210191, 7.41661, -16.7766, 0.000957645, 11.8768, 44.4572, 0, 0.00101301, 0.000702371, 0.0011808, 10.6151, 29.9659, 0, 0.00101325, 0.000435084, 0.000773256, 4.24114, 21.155, 0, 0.0010134, 0.498561, -31.5992, -58.797, 0.16956, -22.4738, -41.1607, 0.000475316, -0.000167748, -0.000793828, 0.000329071, 0.000329071, 0.000329071
1799, 1,0.000649156, -0.000622559, 0.000426014, 5.8081, -38.6105, 0.00105909, 14.3744, 48.7309, 0, 0.00104697, 0.000873693, 0.00160914, 7.36348, 45.4435, 0, 0.00104702, 0.000430774, 0.000775684, 4.71735, 21.1154, 0, 0.00104744, 0.94562, -36.7462, -100.53, 0.629712, -22.6886, -41.2874, 0.000733935, -2.66962E-05, -0.00144467, 0.000344797, 0.000344797, 0.000344797
1800, 1,0.000815713, -0.000996647, 0.000676172, 8.05794, -62.2251, 0.00150577, 36.8024, 48.1026, 0, 0.00108105, 0.0011549, 0.00214807, 9.08159, 61.453, 0, 0.00108081, 0.00050278, 0.000854964, 8.72157, 21.3919, 0, 0.00108152, 0.709475, -44.4105, -140.658, 0.608942, -25.9333, -38.8515, 0.000987605, 7.41597E-05, -0.00205902, 0.000356492, 0.000356492, 0.000356492
1801, 1,0.000676864, 0.000239878, 0.000195854, 17.0107, 13.6041, 0.00196132, 50.0154, 57.4919, 0, 0.00097907, 0.000826395, 0.00107068, 26.7419, 15.5157, 0, 0.000979737, 0.000557395, 0.000893414, 8.73236, 21.1431, 0, 0.000979647, -0.143776, -32.4386, -13.9647, -0.165644, -24.7239, -38.5397, 0.00023291, -0.000395252, -8.93993E-05, 0.000318934, 0.000318934, 0.000318934
1802, 1,0.000609888, -0.000307151, 0.000221244, 8.6751, -18.3638, 0.00128348, 26.1989, 46.3114, 0, 0.00101311, 0.000744157, 0.00126782, 11.3648, 31.798, 0, 0.00101335, 0.000476011, 0.000837051, 5.9991, 21.6563, 0, 0.00101352, 2.03401, -30.0072, -67.421, 1.6428, -20.7606, -45.8509, 0.000536626, -0.000103316, -0.000949295, 0.000368115, 0.000368115, 0.000368115
1803, 1,0.000686864, -0.000668873, 0.00045559, 5.56635, -41.5499, 0.00105621, 14.7693, 48.055, 0, 0.00104704, 0.000925381, 0.00173508, 7.04833, 49.2687, 0, 0.00104702, 0.000452619, 0.000838235, 4.45074, 22.916, 0, 0.00104747, 2.08171, -36.2179, -113.67, 1.64181, -21.6901, -48.6996, 0.000819919, 4.20945E-05, -0.00166151, 0.000396375, 0.000396375, 0.000396375
1804, 1,0.000819111, -0.00106503, 0.000721798, 3.42275, -66.4875, 0.00160294, 45.9515, 42.1205, 0, 0.00108119, 0.00118467, 0.00229773, 4.61683, 69.2798, 0, 0.00108072, 0.000474657, 0.000901543, 3.60891, 26.4018, 0, 0.00108147, 0.228771, -49.049, -159.019, 0.0286476, -29.5829, -49.6513, 0.00110178, 9.66233E-05, -0.00232267, 0.00042436, 0.00042436, 0.00042436
1805, 1,0.000672936, 0.000244364, 0.000201366, 15.4861, 13.7767, 0.0024779, 54.4971, 84.8492, 0, 0.000978844, 0.000822766, 0.00110416, 25.2318, 18.3534, 0, 0.000979901, 0.000554836, 0.000924692, 7.3023, 23.8958, 0, 0.000979813, -0.74281, -36.1067, -18.2108, -0.933575, -27.8517, -42.9021, 0.00026282, -0.000416562, -0.000144024, 0.000343879, 0.000343879, 0.000343879
1806, 1,0.000613739, -0.000329892, 0.000233667, 6.03962, -19.8828, 0.00159176, 21.83, 71.9009, 0, 0.0010128, 0.000749383, 0.00134872, 8.35972, 36.6205, 0, 0.00101338, 0.000479943, 0.000894742, 3.82826, 25.329, 0, 0.00101356, 2.18303, -32.7971, -79.2473, 1.55371, -23.2364, -54.3044, 0.000617442, -8.36213E-05, -0.00112804, 0.00042588, 0.00042588, 0.00042588
1807, 1,0.000730203, -0.000719208, 0.000488919, 2.90476, -44.6681, 0.00105166, 4.76265, 61.2022, 0, 0.00104687, 0.000980577, 0.00188494, 4.18021, 57.0616, 0, 0.00104694, 0.000488, 0.00092779, 2.15889, 28.7077, 0, 0.00104742, 0.163981, -41.2288, -130.12, -0.581298, -26.3157, -59.2262, 0.000905136, 5.42797E-05, -0.00188537, 0.000443753, 0.000443753, 0.000443753
1808, 1,0.000918781, -0.00114539, 0.000778501, 7.93314, -71.3389, 0.00209341, 86.0003, 18.9704, 0, 0.00108177, 0.00131211, 0.00247883, 9.30348, 70.8702, 0, 0.00108086, 0.000553426, 0.000987721, 8.27013, 25.0897, 0, 0.00108167, 3.28821, -50.2729, -165.626, 2.8939, -30.0954, -48.0677, 0.00119224, 9.39609E-05, -0.00243628, 0.000465203, 0.000465203, 0.000465203
1809, 1,0.000782395, 0.00026167, 0.000213609, 21.5191, 14.7845, 0.00316334, 35.0655, 109.878, 0.0261121, 0.00097881, 0.000948897, 0.00121263, 32.3711, 18.1844, 0, 0.000980294, 0.000648124, 0.00100827, 12.133, 24.2595, 0, 0.000980197, -1.80829, -36.3754, -16.3696, -2.04439, -28.2968, -42.4372, 0.000237978, -0.000408325, -0.000124658, 0.000326421, 0.000326421, 0.000326421
1810, 1,0.000616051, -0.000352089, 0.000249252, 5.20005, -21.2717, 0.00186184, 9.89901, 104.925, 0, 0.00101265, 0.000752398, 0.00138565, 7.30444, 38.5209, 0, 0.00101374, 0.00049427, 0.00092016, 3.74823, 26.3732, 0, 0.00101394, 3.65035, -33.7629, -85.45, 2.57311, -23.9008, -57.792, 0.000683276, -6.95686E-05, -0.00123875, 0.00046877, 0.00046877, 0.00046877
1811, 1,0.000767693, -0.000775561, 0.000528065, 3.67463, -48.0484, 0.00107825, 0.772894, 68.0146, 0, 0.00104726, 0.0010398, 0.00197053, 5.2616, 59.1772, 0, 0.00104741, 0.000503993, 0.000940297, 2.63199, 28.8845, 0, 0.00104792, -1.67931, -42.4707, -133.382, -2.82115, -27.5345, -56.2978, 0.000901933, 6.008E-05, -0.00192231, 0.00040174, 0.00040174, 0.00040174
1812, 1,0.00107735, -0.00123093, 0.000839266, 9.61306, -76.5147, 0.00277038, 125.818, 7.44977, 0, 0.00108253, 0.00150375, 0.0027878, 11.4993, 79.2242, 0, 0.00108127, 0.000681801, 0.00118283, 9.51363, 30.371, 0, 0.00108213, 1.55999, -53.7661, -185.466, 0.985623, -33.4873, -58.6114, 0.00128823, 0.000154029, -0.00272792, 0.000509326, 0.000509326, 0.000509326
1813, 1,0.000841831, 0.000294805, 0.000233736, 30.9673, 16.9647, 0.00439206, 3.70252, 121.343, 0.0942478, 0.000979342, 0.00103594, 0.00121702, 44.0989, 9.94799, 0, 0.000981224, 0.000685806, 0.000988989, 19.402, 17.6569, 0, 0.000981102, 2.70815, -28.8103, -3.7418, 2.2735, -21.5835, -33.6608, 0.00020917, -0.00034845, -2.20367E-05, 0.000318755, 0.000318755, 0.000318755
1814, 1,0.000644277, -0.000367464, 0.000265233, 6.35666, -22.195, 0.0024284, 18.5711, 129.123, 0, 0.00101299, 0.000800576, 0.00141272, 9.25594, 39.1098, 0, 0.00101447, 0.000494581, 0.000908515, 3.68398, 26.4842, 0, 0.00101468, 2.04292, -31.7596, -87.6128, 0.688468, -22.3054, -57.8357, 0.000662129, -1.00692E-05, -0.00128665, 0.000434072, 0.000434072, 0.000434072
1815, 1,0.000847959, -0.000823157, 0.000557768, 5.90768, -51.0026, 0.00128692, 10.1448, 68.3347, 0, 0.0010479, 0.0011363, 0.0021198, 7.58258, 62.0858, 0, 0.001048, 0.000563268, 0.0010203, 4.51473, 29.8979, 0, 0.00104855, -1.25939, -35.2391, -149.759, -2.91129, -20.79, -65.9924, 0.000957537, 0.000257549, -0.00222257, 0.000416904, 0.000416904, 0.000416904
1816, 1,0.00130807, -0.00130022, 0.000884281, 14.4538, -80.8211, 0.00226977, 96.8174, 13.4905, 0, 0.00108306, 0.00177477, 0.00314008, 17.3707, 88.5834, 0, 0.00108174, 0.000843362, 0.0013805, 11.7218, 36.9348, 0, 0.00108264, -3.65878, -37.6542, -224.437, -4.57132, -17.7029, -88.5301, 0.00132682, 0.000631714, -0.00339608, 0.00049737, 0.00049737, 0.00049737
1817, 1,0.000931519, 0.000332052, 0.000257282, 34.9403, 19.3241, 0.00571768, 15.7722, 109.755, 0.138173, 0.000980493, 0.00115131, 0.0013102, 50.0741, 10.9336, 0, 0.000982228, 0.000755192, 0.0010639, 21.5006, 20.306, 0, 0.000982079, -1.35654, -28.0668, -3.37761, -1.71582, -21.7941, -37.4081, 0.000146388, -0.000309999, -1.36915E-05, 0.000283194, 0.000283194, 0.000283194
1818, 1,0.000698157, -0.000371133, 0.000275547, 9.57736, -22.5708, 0.00262621, 12.7995, 149.502, 0, 0.00101333, 0.000870414, 0.00143433, 13.0543, 38.4703, 0, 0.00101515, 0.000530356, 0.000904663, 6.22765, 25.306, 0, 0.00101537, 0.0946319, -23.3244, -92.1811, -0.577354, -14.207, -61.1338, 0.000613955, 0.000158976, -0.00139715, 0.000391723, 0.000391723, 0.000391723
1819, 1,0.000974577, -0.000873051, 0.000593, 12.8754, -54.1338, 0.00131578, 4.91051, 76.994, 0, 0.00104831, 0.00127491, 0.00232941, 14.3166, 62.2071, 0, 0.00104856, 0.000680879, 0.00116509, 11.8575, 27.9455, 0, 0.00104914, 6.24613, -27.7318, -165.136, 4.95284, -14.7582, -74.0312, 0.00111936, 0.000415571, -0.00254437, 0.000554024, 0.000554024, 0.000554024
1820, 1,0.00156658, -0.0014324, 0.000988417, 27.1019, -88.2117, 0.00150305, 60.9751, 11.7445, 0, 0.00108382, 0.00209084, 0.00353514, 31.4293, 90.5354, 0, 0.00108243, 0.00106687, 0.00163001, 24.1287, 35.7653, 0, 0.0010834, 1.34979, -42.5624, -230.393, -0.31696, -26.4014, -80.5776, 0.00146577, 0.000546255, -0.0034812, 0.000572042, 0.000572042, 0.000572042
1821, 1,0.00121456, 0.000360405, 0.00027341, 51.5234, 20.9851, 0.00730558, 12.3751, 108.817, 0.209813, 0.000981001, 0.00144051, 0.00162247, 67.343, 8.04821, 0, 0.000982858, 0.00102915, 0.00138547, 37.3153, 18.4124, 0, 0.000982693, 5.29135, -21.976, -7.45994, 5.848, -16.8467, -44.2386, 0.000243128, -0.000211258, -0.000162347, 0.000414857, 0.000414857, 0.000414857
1822, 1,0.00069784, -0.000380528, 0.000287823, 6.87059, -23.2922, 0.00310462, 11.0062, 162.717, 0.0118301, 0.00101341, 0.000874464, 0.00152804, 10.3016, 42.4824, 0, 0.0010154, 0.000541738, 0.000997176, 4.3679, 28.6091, 0, 0.00101563, -1.60457, -19.2006, -106.642, -0.728876, -11.1677, -73.9306, 0.000645933, 0.000310074, -0.00164534, 0.000445469, 0.000445469, 0.000445469
1823, 1,0.0011335, -0.000940519, 0.000647239, 12.3461, -58.3981, 0.00179913, 2.64811, 110.649, 0, 0.00104794, 0.00145249, 0.002637, 13.6917, 74.3513, 0, 0.00104855, 0.000823603, 0.00138386, 11.4896, 37.236, 0, 0.00104919, 2.63644, -27.4149, -198.275, 3.00629, -16.946, -97.7682, 0.00123532, 0.000615304, -0.00305714, 0.000660634, 0.000660634, 0.000660634
1824, 1,0.00180086, -0.00163805, 0.00114324, 37.2902, -100.185, 0.00122093, 34.4604, 28.855, 0, 0.00108384, 0.00239298, 0.00404454, 42.442, 95.2164, 0, 0.00108267, 0.00127531, 0.00193902, 35.5668, 34.3961, 0, 0.00108374, 13.2717, -50.0495, -248.871, 10.6821, -37.0466, -76.8237, 0.00179033, 0.000460184, -0.00379561, 0.000782489, 0.000782489, 0.000782489
1825, 1,0.00121522, 0.000420157, 0.000301704, 48.9471, 24.7899, 0.0104938, -2.06747, 126.263, 0.340452, 0.000981088, 0.00146587, 0.00170574, 67.2884, 13.0033, 0, 0.000983375, 0.00102561, 0.0014843, 33.0131, 26.1908, 0, 0.000983165, 3.04412, -30.2833, -11.7707, 5.46408, -27.6351, -56.4015, 0.000279198, -0.000279587, -0.000210552, 0.000535267, 0.000535267, 0.000535267
1826, 1,0.000982133, -0.000389248, 0.000293101, 8.56716, -24.2308, 0.00618759, 21.8903, 188.116, 0.0972955, 0.00101306, 0.00114633, 0.00194618, 11.132, 58.076, 0, 0.00101538, 0.000829085, 0.00143123, 6.45573, 42.9478, 0, 0.00101563, -12.9897, -10.8851, -150.353, -9.4343, -4.92883, -114.48, 0.00066206, 0.000747129, -0.00235157, 0.000499195, 0.000499195, 0.000499195
1827, 1,0.00145587, -0.00106658, 0.000744312, 21.9707, -66.1435, 0.00279288, 16.6579, 154.456, 0, 0.00104744, 0.00185419, 0.00319296, 25.3261, 84.0309, 0, 0.00104864, 0.00106838, 0.00173526, 19.1344, 42.1691, 0, 0.00104935, 1.86562, -17.2223, -236.736, 4.11637, -10.5156, -120.108, 0.00137715, 0.000989194, -0.00372997, 0.000767789, 0.000767789, 0.000767789
1828, 1,0.00224134, -0.00192361, 0.00133191, 30.2875, -118.26, 0.00128382, 13.0253, 61.5362, 0, 0.00108389, 0.00295996, 0.0052377, 36.9391, 138.413, 0, 0.00108254, 0.00154431, 0.00263808, 24.9151, 65.3291, 0, 0.00108382, 7.84941, -46.3228, -376.767, 5.26873, -33.1446, -168.112, 0.00235369, 0.00121949, -0.00581926, 0.00115321, 0.00115321, 0.00115321
1829, 1,0.00123205, 0.000521572, 0.000373164, 47.7884, 32.3741, 0.0140532, -5.53476, 149.624, 0.468418, 0.000981598, 0.00148724, 0.00158906, 70.0228, 12.0956, 0, 0.000984637, 0.00105055, 0.00153013, 28.4644, 33.17, 0, 0.0009843, -9.17273, -17.5098, -9.60431, -4.31002, -23.4419, -71.758, 1.20815E-05, -1.29701E-05, -0.000195371, 0.00044491, 0.00044491, 0.00044491
1830, 1,0.00120047, -0.000404444, 0.000310196, 19.9096, -25.3296, 0.0098278, 32.7515, 189.665, 0.219902, 0.00101501, 0.00139676, 0.00221524, 23.7136, 57.1886, 0, 0.00101763, 0.00101034, 0.00165033, 16.3008, 41.1241, 0, 0.00101789, -10.4946, 1.55165, -162.623, -3.53641, 3.97673, -123.813, 0.000711384, 0.00100909, -0.00264846, 0.000606573, 0.000606573, 0.000606573
1831, 1,0.00184998, -0.00128276, 0.000896101, 17.1767, -79.1966, 0.004511, 47.1516, 205.288, 0.00958321, 0.00104895, 0.00235928, 0.00414328, 22.9563, 119.08, 0, 0.00105044, 0.00134077, 0.00235208, 11.4096, 69.6695, 0, 0.00105128, -12.4201, -12.9625, -331.858, -10.9411, -9.84439, -188.223, 0.00163563, 0.00163377, -0.00520177, 0.000891721, 0.000891721, 0.000891721
1832, 1,0.00277058, -0.00235334, 0.00161977, 38.1305, -144.501, 0.00184294, 18.9703, 91.6645, 0, 0.00108441, 0.00364761, 0.0065268, 46.492, 168.826, 0, 0.00108306, 0.00190202, 0.00331412, 30.2255, 79.8542, 0, 0.00108462, 16.0032, -26.2811, -496.199, 11.3237, -15.9574, -234.929, 0.00301063, 0.00211574, -0.00786595, 0.00151602, 0.00151602, 0.00151602
1833, 1,0.00121799, 0.000655668, 0.000497301, 58.3615, 42.1362, 0.0161682, 0.818293, 156.993, 0.525714, 0.000983067, 0.00139434, 0.0011891, 81.1604, -9.62198, 3.38813E-21, 0.000986772, 0.00113509, 0.00141567, 40.1362, 20.8823, 3.38813E-21, 0.000986284, -5.28095, 10.7456, 23.4012, 0.491235, -2.53966, -60.5985, -0.000238745, 0.000218615, 0.000176223, 0.000362244, 0.000362244, 0.000362244
1834, 1,0.00106245, -0.000394204, 0.000317986, 10.6953, -24.128, 0.0117177, 4.69136, 229.617, 0.292203, 0.00101629, 0.00127608, 0.00208283, 16.0874, 60.5115, 0, 0.00101983, 0.000865709, 0.00151326, 5.93805, 46.2776, 0, 0.00102006, -15.8787, -9.1019, -156.554, -7.32578, -9.63324, -121.874, 0.000651726, 0.00083217, -0.00246575, 0.000610346, 0.000610346, 0.000610346
1835, 1,0.00226174, -0.00156443, 0.00108689, 29.2325, -97.2317, 0.00707522, 15.3604, 248.94, 0.0999456, 0.00104997, 0.00286986, 0.00489382, 34.9385, 135.05, 0, 0.00105216, 0.00165417, 0.00272173, 23.5507, 73.0073, 0, 0.00105322, -12.1941, -5.92114, -387.035, -9.18609, -0.927638, -208.908, 0.00190686, 0.00203231, -0.00613057, 0.000998096, 0.000998096, 0.000998096
1836, 1,0.00360625, -0.00292572, 0.0019979, 27.0934, -169.681, 0.0025375, 27.3471, 125.147, 0, 0.00108547, 0.0046763, 0.00832293, 32.5372, 213.367, 0.0226525, 0.00108387, 0.00253621, 0.00432925, 21.6508, 104.07, 0.0159466, 0.00108583, -3.06571, -23.0817, -613.955, -4.28739, -7.94876, -299.975, 0.00384852, 0.00335103, -0.0107062, 0.00192328, 0.00192328, 0.00192328
1837, 1,0.000904888, 0.000707508, 0.000534923, 21.0347, 45.6558, 0.0171513, -28.5741, 199.609, 0.539727, 0.000972636, 0.00088427, 0.000740002, 31.3459, 9.27661, 0, 0.000977008, 0.000958535, 0.0013913, 11.6583, 42.4733, 0, 0.000976482, -15.0696, 11.136, -23.8963, -11.9018, -6.19208, -109.326, -0.000136251, 0.000464563, -0.000479081, 0.000452088, 0.000452088, 0.000452088
1838, 1,0.00127995, -0.000475378, 0.000364398, 16.1445, -29.2912, 0.0125823, -17.2614, 274.951, 0.302434, 0.00100646, 0.00151325, 0.00246468, 20.8252, 68.2932, 4.33681E-19, 0.00101075, 0.00106338, 0.00177764, 12.1355, 50.3014, 4.33681E-19, 0.00101105, -5.1332, -29.6085, -170.138, 0.991955, -27.0855, -124.811, 0.00101085, 0.000514366, -0.00263345, 0.000858878, 0.000858878, 0.000858878
1839, 1,0.00256349, -0.00180288, 0.00121981, 32.8795, -114.016, 0.00735477, -5.47761, 285.411, 0.102357, 0.00104004, 0.00319619, 0.00551358, 34.1206, 156.529, 0, 0.00104251, 0.0019341, 0.00309189, 31.8152, 79.5797, 0, 0.00104381, -14.5158, -28.142, -426.929, -9.71327, -11.196, -217.83, 0.00220339, 0.00189497, -0.00663829, 0.00109836, 0.00109836, 0.00109836
1840, 1,0.00376315, -0.00327742, 0.00222761, -9.83664, -188.225, 0.0026543, 26.5601, 133.53, 0, 0.00107466, 0.00493307, 0.00908819, -12.0706, 275.188, 0.03028, 0.00107211, 0.00259888, 0.00466463, -7.40166, 141.972, 0.0183687, 0.00107449, -40.7518, -93.4557, -691.356, -30.4992, -56.7851, -338.631, 0.00424152, 0.00291787, -0.0117016, 0.0020394, 0.0020394, 0.0020394
1841, 1,0.00203437, -0.00127632, 0.000892133, 32.6633, -80.1946, 0.00817456, -27.7301, 197.26, 0.194834, 0.000972269, 0.00254177, 0.00406018, 36.8761, 111.656, 5.59589E-07, 0.000974001, 0.0015274, 0.00227969, 28.4595, 58.4004, 5.59589E-07, 0.000974843, -14.3432, -3.64258, -316.982, -9.12662, 5.63609, -171.711, 0.00145566, 0.00171087, -0.00497823, 0.000727286, 0.000727286, 0.000727286
1842, 1,0.0018691, -0.00115149, 0.000798471, 28.9087, -73.6193, 0.00624389, -50.0197, 324.459, 0.0793852, 0.001006, 0.00231416, 0.00381815, 30.8516, 105.184, 0, 0.00100983, 0.00142423, 0.00222492, 26.9775, 53.7558, 0, 0.00101067, -15.9865, -8.73844, -290.826, -5.85378, 2.74688, -158.161, 0.0013219, 0.00150912, -0.00453778, 0.000726276, 0.000726276, 0.000726276
1843, 1,0.00247542, -0.0011886, 0.000828223, 44.0187, -76.2753, 0.00649401, -31.1024, 302.403, 0.0862765, 0.00104006, 0.00293949, 0.00469242, 45.9154, 124.832, 0, 0.00104332, 0.0020131, 0.00304621, 42.2414, 71.0053, 0, 0.00104423, -0.172094, -26.6589, -347.666, 8.35068, -13.2557, -208.111, 0.00196729, 0.00144204, -0.005435, 0.00129976, 0.00129976, 0.00129976
1844, 1,0.00257638, -0.00133901, 0.000930095, 26.1957, -85.6223, 0.00652894, -1.42417, 278.156, 0.0755482, 0.00107321, 0.00309559, 0.0053003, 28.451, 157.917, 0, 0.00107552, 0.00205824, 0.003456, 24.0269, 98.0846, 0, 0.00107656, 7.80518, -40.5816, -440.975, 9.5172, -28.4955, -275.275, 0.00265738, 0.0016657, -0.00688567, 0.00175114, 0.00175114, 0.00175114
1845, 1,0.00196148, -0.00117018, 0.000860349, 35.3927, -70.3313, 0.00695656, -11.7658, 154.75, 0.186446, 0.000982844, 0.00251023, 0.00393494, 46.4798, 97.6176, 0, 0.000984043, 0.0014139, 0.00221883, 24.401, 57.5624, 0, 0.000984682, -16.5646, -18.38, -257.908, -13.7648, -15.6288, -143.294, 0.00119722, 0.00119964, -0.00398072, 0.000625663, 0.000625663, 0.000625663
1846, 1,0.00165583, -0.000984693, 0.000705402, 31.3677, -61.1942, 0.00531244, -11.5519, 248.663, 0.0643616, 0.00101627, 0.00208017, 0.00330836, 37.009, 82.8058, 0, 0.00101916, 0.00123277, 0.00190252, 25.7576, 43.7034, 0, 0.00101981, -9.1967, 4.12362, -243.344, -2.73872, 7.15669, -135.528, 0.00111588, 0.00142706, -0.00388655, 0.000636652, 0.000636652, 0.000636652
1847, 1,0.00210676, -0.00102941, 0.00073355, 34.7252, -64.1576, 0.00559461, -19.8315, 263.342, 0.0728563, 0.00105035, 0.00254296, 0.00410651, 40.043, 108.294, 0, 0.00105319, 0.0016713, 0.00264422, 29.4667, 66.9494, 0, 0.0010539, -8.65329, -1.93421, -314.295, -3.55186, 0.480272, -197.777, 0.00152527, 0.00170455, -0.00498711, 0.000982031, 0.000982031, 0.000982031
1848, 1,0.00244599, -0.00125914, 0.000885474, 22.8962, -77.4333, 0.00645595, -14.1734, 261.804, 0.101004, 0.00108389, 0.00294996, 0.00528036, 28.9468, 149.419, 0, 0.00108615, 0.0019459, 0.00352749, 17.098, 101.646, 0, 0.00108699, -0.263682, -30.1815, -417.812, 0.0255624, -30.2232, -274.74, 0.00234833, 0.0017675, -0.00654053, 0.00160202, 0.00160202, 0.00160202
1849, 1,0.00177677, -0.00098861, 0.000744232, 36.3372, -58.3299, 0.00451798, 7.78015, 123.261, 0.0952, 0.000981969, 0.00227556, 0.00356493, 48.5133, 79.7159, 0, 0.000982774, 0.00127882, 0.00208096, 24.2328, 48.8863, 0, 0.000983265, -0.583076, -30.3983, -208.166, -0.365189, -24.8901, -121.404, 0.00125143, 0.000663702, -0.0032085, 0.000770513, 0.000770513, 0.000770513
1850, 1,0.00124931, -0.000818884, 0.00058674, -1.20664, -50.1791, 0.00361372, 33.8483, 183.596, 0, 0.00101534, 0.00159814, 0.00288623, 4.05398, 96.4751, 0, 0.00101678, 0.000904584, 0.00172344, -6.28198, 65.9417, 0, 0.00101728, -24.4383, -23.8937, -241.093, -22.16, -21.7586, -153.906, 0.00100892, 0.00104577, -0.00362008, 0.000576218, 0.000576218, 0.000576218
1851, 1,0.00159433, -0.000860061, 0.000622373, 27.2542, -52.198, 0.00401545, 57.2096, 177.944, 0, 0.00104979, 0.00197878, 0.00321337, 34.1133, 80.5637, 0, 0.00105145, 0.00121001, 0.00196994, 20.4264, 49.8964, 0, 0.00105197, -5.05829, -0.428653, -236.204, -3.72844, -2.55502, -143.406, 0.00116422, 0.00129885, -0.00377037, 0.000709386, 0.000709386, 0.000709386
1852, 1,0.00228945, -0.00107012, 0.000787048, 33.507, -63.7272, 0.00472208, 12.5216, 222.368, 0.0372215, 0.00108337, 0.00278351, 0.00465489, 43.8973, 119.253, 0, 0.00108527, 0.00180045, 0.00310568, 23.4478, 84.411, 0, 0.00108588, -3.45608, -27.6573, -326.646, -4.32252, -34.024, -214.886, 0.00180736, 0.00135209, -0.00509466, 0.00124031, 0.00124031, 0.00124031
1853, 1,0.00155162, -0.000841569, 0.000634347, 37.5437, -49.3705, 0.00230565, 19.7426, 102.168, 0.0099725, 0.000981311, 0.00197791, 0.00290118, 48.2939, 59.4377, 0, 0.000982, 0.00112585, 0.00163785, 26.8081, 33.9163, 0, 0.000982407, -0.797065, -27.553, -149.963, -2.25264, -14.6478, -84.8484, 0.000924933, 0.000395622, -0.00228492, 0.00049214, 0.00049214, 0.00049214
1854, 1,0.0010831, -0.000715686, 0.000503687, 15.9779, -43.9065, 0.00240543, 17.902, 128.444, 0, 0.00101406, 0.00136913, 0.00231896, 19.6742, 60.4342, 0, 0.00101518, 0.000801479, 0.00132658, 12.4403, 33.615, 0, 0.00101562, -1.71436, -6.8495, -172.739, -1.68491, 0.58943, -99.7496, 0.000921801, 0.000836329, -0.0027387, 0.000500002, 0.000500002, 0.000500002
1855, 1,0.00124595, -0.000750847, 0.00053155, 13.7722, -45.9319, 0.00283839, 16.4042, 157.97, 0, 0.00104766, 0.00155807, 0.0027155, 18.3488, 74.8102, 0, 0.00104907, 0.00093391, 0.00165274, 9.2002, 47.1125, 0, 0.00104954, -3.77017, -15.5314, -205.129, -3.3485, -11.8475, -126.142, 0.00110177, 0.000887557, -0.00320326, 0.000674505, 0.000674505, 0.000674505
1856, 1,0.00198305, -0.000905218, 0.000668034, 41.348, -53.7382, 0.00319399, 7.04853, 193.151, 0, 0.0010823, 0.00240141, 0.00373373, 50.3778, 85.8997, 0, 0.00108418, 0.00157148, 0.00242744, 32.7208, 56.9776, 0, 0.00108469, -3.26072, -28.0865, -226.352, -4.34534, -28.9205, -137.667, 0.00128818, 0.000823006, -0.00350517, 0.000809753, 0.000809753, 0.000809753
1857, 1,0.00142202, -0.000747939, 0.000557353, 41.1381, -44.2928, 0.00132799, 2.5657, 79.1832, 0, 0.000981161, 0.00178317, 0.00244745, 49.388, 44.5136, 0, 0.000981713, 0.00106451, 0.00134862, 33.078, 20.6907, 0, 0.000982093, 1.47401, -36.309, -98.7058, 0.421067, -17.6398, -44.8533, 0.000737843, -3.11745E-05, -0.0014289, 0.000340243, 0.000340243, 0.000340243
1858, 1,0.000917749, -0.000664362, 0.000459528, 12.1883, -41.0457, 0.00159699, 0.49187, 100.925, 0, 0.0010143, 0.00117079, 0.00203049, 14.6515, 54.6364, 0, 0.00101506, 0.000665565, 0.00111394, 9.7615, 28.9424, 0, 0.00101549, -0.516669, -20.7495, -142.643, -1.19797, -9.03499, -76.5941, 0.000855686, 0.000444882, -0.00218709, 0.000436549, 0.000436549, 0.000436549
1859, 1,0.0010161, -0.000705142, 0.000485759, 17.6053, -43.6362, 0.00203506, 4.79834, 122.558, 0, 0.00104804, 0.00128164, 0.00225052, 20.0758, 55.0994, 0, 0.00104919, 0.000751128, 0.00128022, 15.17, 27.7487, 0, 0.00104966, 8.89326, -17.4158, -156.776, 8.65453, -7.91045, -83.9903, 0.0010608, 0.000532152, -0.00248704, 0.00062502, 0.00062502, 0.00062502
1860, 1,0.00159363, -0.000826185, 0.000593022, 39.1328, -50.0488, 0.00262003, 4.36273, 160.449, 0, 0.00108231, 0.00193774, 0.00294772, 44.556, 64.3645, 0, 0.001084, 0.00125972, 0.00180301, 34.3189, 35.3309, 0, 0.00108451, -0.539716, -33.9734, -158.58, -0.85438, -26.2291, -78.9094, 0.00100743, 0.000359183, -0.00241112, 0.00054356, 0.00054356, 0.00054356
1861, 1,0.00128495, -0.000673124, 0.000496507, 32.5098, -40.1164, 0.00159897, 34.1288, 54.5408, 0, 0.000981077, 0.00159384, 0.00227609, 38.8969, 45.812, 0, 0.000981216, 0.000983986, 0.00131138, 26.5389, 23.7069, 0, 0.000981568, -0.804953, -52.4416, -84.1894, -1.6105, -33.6579, -35.8523, 0.000709941, -0.000349699, -0.00110356, 0.000344552, 0.000344552, 0.000344552
1862, 1,0.000799942, -0.000624976, 0.000428284, 11.0258, -38.7303, 0.00135664, 11.9887, 70.318, 0, 0.0010145, 0.00102938, 0.00184146, 12.7333, 48.1371, 0, 0.00101487, 0.000572322, 0.000990175, 9.45943, 23.6273, 0, 0.00101527, 4.65539, -28.3539, -120.713, 3.80211, -15.3153, -59.3687, 0.000862288, 0.00017735, -0.00182074, 0.000458133, 0.000458133, 0.000458133
1863, 1,0.000865771, -0.000675464, 0.000459667, 14.2545, -42.111, 0.00165676, 8.15794, 94.1901, 0, 0.00104827, 0.001109, 0.00198193, 15.7415, 49.9159, 0, 0.00104902, 0.000623016, 0.00106592, 12.8236, 22.8917, 0, 0.00104948, 8.11106, -24.6101, -133.249, 7.72135, -12.4299, -63.9666, 0.000963665, 0.000296788, -0.00207045, 0.000529823, 0.000529823, 0.000529823
1864, 1,0.00125547, -0.000784573, 0.000549239, 24.6472, -48.3183, 0.00263364, 26.9197, 131.365, 0, 0.00108237, 0.00154829, 0.00249287, 27.3454, 62.6382, 0, 0.00108357, 0.000978184, 0.00145149, 22.8913, 33.0092, 0, 0.00108409, -4.80843, -45.7804, -137.326, -4.86952, -33.8504, -60.3076, 0.000891046, 8.69385E-05, -0.00199444, 0.000423182, 0.000423182, 0.000423182
1865, 1,0.00110503, -0.000605127, 0.000442781, 23.5853, -36.2798, 0.00229559, 80.1489, 37.0482, 0, 0.000980448, 0.00137341, 0.00205315, 28.6826, 44.6581, 0, 0.000980327, 0.000844814, 0.00119567, 18.9199, 24.2304, 0, 0.000980652, 0.103284, -53.4825, -80.595, -0.245827, -35.5408, -36.9045, 0.000710139, -0.0003859, -0.00104885, 0.000380752, 0.000380752, 0.000380752
1866, 1,0.000714698, -0.000591471, 0.000404432, 4.37211, -36.652, 0.00141025, 24.3279, 57.0838, 0, 0.0010141, 0.000929593, 0.00176091, 5.82004, 50.7839, 0, 0.0010142, 0.000504174, 0.000961827, 3.34838, 27.6011, 0, 0.00101459, 1.82174, -36.6437, -117.53, 1.30754, -24.0519, -60.0589, 0.000843473, 4.66788E-05, -0.00171422, 0.000467358, 0.000467358, 0.000467358
1867, 1,0.00077182, -0.000653752, 0.000443972, 3.78891, -40.7892, 0.00166155, 15.8612, 84.178, 0, 0.00104785, 0.00100405, 0.00190888, 5.04612, 57.4635, 0, 0.0010483, 0.000541312, 0.00102883, 2.67861, 31.257, 0, 0.00104875, -1.26612, -36.4509, -134.673, -1.51994, -24.4864, -67.7645, 0.000884928, 0.000170769, -0.00198817, 0.00046682, 0.00046682, 0.00046682
1868, 1,0.0011194, -0.000760586, 0.000526568, 19.147, -47.1287, 0.00312746, 62.7034, 114.884, 0, 0.00108184, 0.00138449, 0.00231442, 20.5576, 60.6217, 0, 0.00108279, 0.000875662, 0.00133781, 19.0244, 31.1955, 0, 0.00108331, -3.2441, -48.603, -130.018, -3.2018, -37.0732, -53.3116, 0.000893897, 7.79792E-06, -0.00188544, 0.000431398, 0.000431398, 0.000431398
1869, 1,0.000932531, -0.000543124, 0.000397992, 17.0916, -32.5014, 0.00224957, 71.6402, 45.1321, 0, 0.000979578, 0.00117938, 0.00182695, 22.0537, 41.0892, 0, 0.000979642, 0.000690257, 0.00104532, 12.3721, 22.9401, 0, 0.00097993, -0.166787, -48.2672, -74.8337, -0.324417, -31.628, -36.8678, 0.000647688, -0.000332493, -0.00098192, 0.000358192, 0.000358192, 0.000358192
1870, 1,0.000690275, -0.000554885, 0.000382274, 5.40927, -34.2253, 0.0010702, 3.00483, 64.0596, 0, 0.00101327, 0.000895764, 0.00167018, 7.26362, 46.4572, 0, 0.00101356, 0.00048789, 0.000918423, 3.68543, 25.154, 0, 0.00101391, 3.34382, -37.321, -105.394, 3.0266, -25.4056, -53.0831, 0.000808189, -3.48848E-05, -0.00152715, 0.00046584, 0.00046584, 0.00046584
1871, 1,0.000732068, -0.000629562, 0.000430273, 3.40495, -39.1112, 0.00131533, -1.12743, 85.3239, 0, 0.00104715, 0.00095748, 0.00181587, 4.85213, 54.8268, 0, 0.00104767, 0.000511647, 0.000972334, 2.30649, 30.064, 0, 0.00104809, -2.40034, -39.1891, -122.891, -2.56563, -27.8317, -59.7947, 0.000819477, 7.19764E-05, -0.00178113, 0.000425998, 0.000425998, 0.000425998
1872, 1,0.000954403, -0.000732297, 0.000504786, 7.07697, -45.4514, 0.00294264, 56.1999, 111.98, 0, 0.00108117, 0.00121155, 0.00219282, 8.5114, 65.1698, 0, 0.00108199, 0.000713383, 0.0012396, 6.6522, 36.6533, 0, 0.00108249, -5.62663, -50.9113, -138.971, -5.53954, -40.1584, -64.2618, 0.000914038, 3.01257E-05, -0.00200171, 0.00046685, 0.00046685, 0.00046685
1873, 1,0.000869913, -0.000483772, 0.000357653, 15.3016, -28.8001, 0.00197063, 55.3889, 48.5294, 0, 0.000979187, 0.00110077, 0.0017186, 20.4131, 38.8015, 0, 0.000979341, 0.000639567, 0.00100543, 10.2192, 23.0619, 0, 0.000979592, -0.949689, -43.2597, -72.195, -0.96112, -27.7434, -40.481, 0.000595653, -0.000267379, -0.000957898, 0.000347172, 0.000347172, 0.000347172
1874, 1,0.000685425, -0.000506891, 0.000351441, 5.42069, -31.1965, 0.00105596, 1.31674, 64.6534, 0, 0.00101289, 0.000873561, 0.00159636, 7.22801, 45.0122, 0, 0.00101322, 0.000501767, 0.00090586, 3.85215, 25.7634, 0, 0.00101353, 1.62761, -36.4191, -100.245, 1.41081, -24.8027, -53.8982, 0.000750616, -3.96164E-05, -0.00144142, 0.000442754, 0.000442754, 0.000442754
1875, 1,0.000697588, -0.000591029, 0.000404825, 5.47207, -36.6759, 0.00125328, 4.34579, 73.7827, 0, 0.00104686, 0.0009115, 0.00170364, 7.0269, 49.0678, 0, 0.00104728, 0.000487344, 0.000906591, 4.1685, 25.958, 0, 0.00104768, 0.117197, -35.1768, -112.144, -0.0182761, -23.7959, -54.06, 0.000781715, 6.3338E-05, -0.00164128, 0.000414933, 0.000414933, 0.000414933
1876, 1,0.000813682, -0.000696817, 0.000478445, 9.09211, -43.2955, 0.00231231, 42.8613, 89.4974, 0, 0.00108095, 0.00106053, 0.00192512, 10.5472, 53.2624, 0, 0.00108158, 0.000579342, 0.00100723, 8.48208, 26.0093, 0, 0.00108206, 0.99722, -39.7713, -121.013, 0.994947, -28.5213, -50.5017, 0.000864486, 6.54274E-05, -0.00179423, 0.000435405, 0.000435405, 0.000435405
1877, 1,0.000832663, -0.000428061, 0.000321286, 15.2214, -25.2644, 0.00178187, 61.9197, 27.7365, 0, 0.000979361, 0.0010466, 0.0016117, 20.4558, 35.4817, 0, 0.000979238, 0.000619147, 0.000970395, 9.99384, 22.1565, 0, 0.00097945, -0.574309, -39.5217, -66.349, -0.518007, -24.478, -41.4736, 0.000550799, -0.000247549, -0.000879014, 0.000341752, 0.000341752, 0.000341752
1878, 1,0.000664675, -0.000460897, 0.000321643, 7.59152, -28.3179, 0.00112377, 19.1404, 44.9098, 0, 0.00101312, 0.000844654, 0.00149463, 9.71045, 39.7979, 0, 0.0010132, 0.000486522, 0.000856037, 5.56439, 22.4445, 0, 0.00101349, 1.25788, -32.3804, -88.2711, 1.22833, -20.9033, -47.6585, 0.00066145, -3.51538E-05, -0.00127211, 0.000387384, 0.000387384, 0.000387384
1879, 1,0.000654068, -0.000552747, 0.000378975, 6.19202, -34.3252, 0.00125673, 18.575, 54.9472, 0, 0.00104707, 0.000855891, 0.00158528, 7.72328, 44.3727, 0, 0.00104725, 0.000455358, 0.000836637, 4.88649, 22.7263, 0, 0.00104762, 1.3227, -32.8294, -101.611, 1.33269, -21.2563, -48.2553, 0.000734029, 4.14661E-05, -0.00149554, 0.000393369, 0.000393369, 0.000393369
1880, 1,0.000714673, -0.000663502, 0.000453954, 6.99449, -41.3199, 0.00213496, 54.5006, 62.9115, 0, 0.00108116, 0.000948946, 0.00175086, 8.30258, 49.4213, 0, 0.0010814, 0.000490838, 0.000873218, 6.41872, 23.2541, 0, 0.00108186, 0.862788, -37.2394, -111.887, 0.913986, -25.5295, -45.1468, 0.000801784, 5.29053E-05, -0.00165666, 0.000390986, 0.000390986, 0.000390986
1881, 1,0.000751563, -0.000381059, 0.000293408, 14.4624, -22.1631, 0.00138206, 41.9435, 29.2939, 0, 0.000979158, 0.000955568, 0.00143987, 20.1297, 30.2801, 0, 0.000979143, 0.000548924, 0.000856856, 8.83713, 19.3253, 0, 0.000979317, -0.188554, -38.1824, -52.4693, -0.0601122, -23.1328, -34.783, 0.000476357, -0.000306327, -0.000661389, 0.000306125, 0.000306125, 0.000306125
1882, 1,0.000623807, -0.000418748, 0.000295294, 8.26988, -25.6141, 0.000974806, 14.6123, 41.4581, 0, 0.00101306, 0.000793698, 0.00136852, 10.6159, 35.2195, 0, 0.00101316, 0.000455433, 0.000782249, 6.00288, 19.7757, 0, 0.00101341, 0.753895, -32.0425, -74.37, 0.84695, -20.6673, -39.5067, 0.000578984, -9.98465E-05, -0.00105065, 0.000337557, 0.000337557, 0.000337557
1883, 1,0.000616557, -0.000519184, 0.000357784, 6.05175, -32.187, 0.00118729, 16.8442, 52.8686, 0, 0.00104702, 0.000808759, 0.00147892, 7.66181, 41.3348, 0, 0.00104721, 0.00042818, 0.0007756, 4.72992, 21.1695, 0, 0.00104755, 0.237854, -34.1468, -90.0955, 0.337165, -22.5821, -41.2635, 0.000664425, -3.34195E-05, -0.00130175, 0.000348978, 0.000348978, 0.000348978
1884, 1,0.000690548, -0.000637121, 0.000436313, 7.6744, -39.6736, 0.00187698, 42.8691, 62.3227, 0, 0.00108104, 0.000914329, 0.00166787, 8.86237, 46.7956, 0, 0.00108132, 0.000478985, 0.000830687, 7.32987, 21.6993, 0, 0.00108176, 0.0875679, -37.2201, -103.254, 0.182075, -25.547, -39.7329, 0.000744859, 7.75886E-06, -0.00151199, 0.000351888, 0.000351888, 0.000351888
1885, 1,0.00068538, -0.000338548, 0.000270141, 13.2143, -19.27, 0.00104035, 25.1019, 30.2867, 0, 0.000978954, 0.000884757, 0.00131445, 19.5581, 26.8134, 0, 0.000979009, 0.000487864, 0.000780159, 6.92898, 18.2494, 0, 0.000979146, -0.419791, -38.9699, -41.0504, -0.252125, -24.1698, -30.3263, 0.000416372, -0.000381883, -0.000469597, 0.000284577, 0.000284577, 0.000284577
1886, 1,0.00057032, -0.000376217, 0.000268369, 7.60109, -22.8907, 0.000806974, 6.53122, 41.726, 0, 0.00101289, 0.000729604, 0.00124423, 10.1584, 31.8199, 0, 0.00101305, 0.000412057, 0.000710451, 5.09783, 18.2947, 0, 0.00101328, -0.0398424, -32.1861, -63.2339, 0.119479, -20.9318, -34.0717, 0.000508726, -0.000157265, -0.000867813, 0.000298896, 0.000298896, 0.000298896
1887, 1,0.000578587, -0.00048421, 0.00033506, 6.77084, -29.9776, 0.00110513, 12.9086, 52.9237, 0, 0.00104687, 0.000760094, 0.00136461, 8.42594, 37.2586, 0, 0.00104713, 0.000401249, 0.000707501, 5.4269, 18.5873, 0, 0.00104745, 0.141388, -33.1833, -78.7338, 0.289782, -21.5741, -34.4777, 0.000598856, -7.81837E-05, -0.00112527, 0.000307985, 0.000307985, 0.000307985
1888, 1,0.000648235, -0.000610928, 0.000419002, 8.31318, -38.0241, 0.00161657, 30.3616, 62.5843, 0, 0.00108089, 0.000861674, 0.00155741, 9.3978, 43.0926, 0, 0.00108123, 0.000449743, 0.000761501, 8.22858, 19.099, 0, 0.00108165, 0.178227, -36.8445, -92.6116, 0.284, -25.0594, -32.5217, 0.000688792, -4.67216E-05, -0.00134135, 0.000313481, 0.000313481, 0.000313481
1889, 1,0.000658085, -0.000299485, 0.000250404, 14.1958, -16.5367, 0.000884281, 20.7045, 26.47, 0, 0.000978838, 0.000855233, 0.0012206, 21.3487, 22.7201, 0, 0.000978898, 0.000464033, 0.000730726, 7.1593, 16.5676, 0, 0.000978995, -0.349961, -38.1671, -29.6433, -0.169498, -23.7991, -25.734, 0.000353023, -0.000432405, -0.000289309, 0.000259427, 0.000259427, 0.000259427
1890, 1,0.000533324, -0.000334777, 0.00024237, 7.90646, -20.2199, 0.000786385, 8.70801, 37.8828, 0, 0.00101279, 0.000682573, 0.0011366, 10.7028, 28.1719, 0, 0.00101295, 0.000384657, 0.000653632, 5.14517, 16.565, 0, 0.00101314, -0.356829, -31.5616, -52.5973, -0.170078, -20.5605, -28.9645, 0.000444561, -0.000202363, -0.000699355, 0.000265503, 0.000265503, 0.000265503
1891, 1,0.000537146, -0.000450022, 0.000312819, 6.91165, -27.8123, 0.00102735, 11.7666, 49.6172, 0, 0.00104677, 0.000708007, 0.00125567, 8.60619, 33.8081, 0, 0.00104704, 0.000370909, 0.000644185, 5.55837, 16.6139, 0, 0.00104733, -0.0415805, -32.8233, -68.5596, 0.128342, -21.2382, -28.7319, 0.000541056, -0.000125887, -0.000963781, 0.000273912, 0.000273912, 0.000273912
1892, 1,0.000602115, -0.000584917, 0.000401723, 8.1955, -36.392, 0.0014489, 23.4788, 61.2589, 0, 0.00108075, 0.000805072, 0.00144837, 9.16931, 40.0939, 0, 0.00108112, 0.000417059, 0.000693732, 8.38513, 17.1831, 0, 0.00108153, -0.252376, -36.8949, -83.1344, -0.13347, -24.978, -26.4378, 0.00063269, -9.81456E-05, -0.00118517, 0.000274765, 0.000274765, 0.000274765
1893, 1,0.000639836, -0.000265736, 0.000236014, 15.587, -14.0574, 0.000859219, 24.5042, 19.9489, 0, 0.000978764, 0.000839147, 0.0011363, 23.7768, 18.4778, 0, 0.000978787, 0.000445598, 0.000682731, 7.6022, 14.7461, 0, 0.000978846, -0.370082, -37.067, -17.9963, -0.188576, -23.1767, -20.8731, 0.000285579, -0.000477819, -0.000107609, 0.00023007, 0.00023007, 0.00023007
1894, 1,0.000500266, -0.000295044, 0.000218056, 8.51427, -17.6237, 0.000794135, 13.4879, 31.954, 0, 0.00101272, 0.000640929, 0.00103349, 11.6284, 24.2684, 0, 0.00101285, 0.000359953, 0.00059834, 5.42077, 14.5936, 0, 0.00101301, -0.298267, -30.6185, -41.8885, -0.113239, -19.9252, -23.7423, 0.000384437, -0.000245063, -0.00053319, 0.000235743, 0.000235743, 0.000235743
1895, 1,0.000500053, -0.000416602, 0.000291242, 7.30063, -25.6777, 0.000975634, 13.0058, 44.7781, 0, 0.00104668, 0.000660716, 0.0011515, 9.05625, 30.255, 0, 0.00104692, 0.000344598, 0.000584674, 5.92191, 14.5446, 0, 0.00104719, -0.0617164, -32.1619, -58.5414, 0.103701, -20.6631, -23.0744, 0.000485104, -0.000169187, -0.000806874, 0.000241241, 0.000241241, 0.000241241
1896, 1,0.000559927, -0.000559481, 0.000384892, 8.52635, -34.7877, 0.00134798, 21.2005, 58.0782, 0, 0.00108064, 0.000752422, 0.00134198, 9.38381, 36.6406, 0, 0.00108101, 0.000389006, 0.000629058, 9.03014, 14.8037, 0, 0.0010814, -0.113347, -36.3565, -73.4519, 0.00820743, -24.317, -20.1024, 0.000581517, -0.000143608, -0.0010325, 0.000240614, 0.000240614, 0.000240614
1897, 1,0.000628893, -0.000238226, 0.000227881, 17.2791, -11.8745, 0.000860151, 29.4773, 13.4387, 0, 0.000978704, 0.000835879, 0.00106501, 26.7787, 14.225, 0, 0.000978692, 0.000429647, 0.000637497, 8.1063, 12.9191, 0, 0.000978712, -0.375189, -35.8523, -6.44758, -0.197034, -22.4941, -16.0662, 0.000218395, -0.000521203, 7.19704E-05, 0.000200948, 0.000200948, 0.000200948
1898, 1,0.000473132, -0.00025741, 0.00019584, 9.30869, -15.1238, 0.000769086, 16.4331, 26.3944, 0, 0.00101265, 0.00060719, 0.000938326, 12.8395, 20.4552, 0, 0.00101275, 0.000339294, 0.000547065, 5.78593, 12.7184, 0, 0.00101288, -0.34161, -29.535, -31.489, -0.168439, -19.207, -18.7798, 0.000323673, -0.000284068, -0.000371543, 0.00020522, 0.00020522, 0.00020522
1899, 1,0.000464867, -0.000383665, 0.000270092, 7.68886, -23.5633, 0.00092674, 14.4096, 39.8228, 0, 0.0010466, 0.000615791, 0.00105091, 9.52709, 26.8027, 0, 0.00104682, 0.000319675, 0.000527682, 6.25848, 12.5754, 0, 0.00104706, -0.108456, -31.2923, -49.0074, 0.0433796, -19.9159, -17.8538, 0.000430159, -0.000207136, -0.00065796, 0.000209372, 0.000209372, 0.000209372
1900, 1,0.000520559, -0.000534386, 0.000368268, 8.671, -33.2017, 0.00127322, 20.6988, 54.1193, 0, 0.00108054, 0.000702703, 0.00124209, 9.41298, 33.5503, 0, 0.0010809, 0.000363987, 0.000570783, 9.49552, 12.7729, 0, 0.00108127, -0.182617, -35.7656, -64.7027, -0.0616046, -23.635, -14.6222, 0.000531646, -0.000182296, -0.000893793, 0.000207467, 0.000207467, 0.000207467
1901, 1,0.000627643, 0.000235569, 0.000226515, 19.4532, 11.6958, 0.000884502, 35.1296, 7.50601, 0, 0.000978641, 0.000848596, 0.00100933, 30.5756, 9.94758, 0, 0.000978602, 0.000417905, 0.000596113, 8.81153, 11.0708, 0, 0.000978584, -0.371132, -34.4684, 4.99679, -0.198253, -21.7, -11.314, 0.000151073, -0.000561644, 0.000249146, 0.000171695, 0.000171695, 0.000171695
1902, 1,0.000452799, -0.000222753, 0.000176627, 10.4821, -12.7643, 0.000739746, 18.9478, 21.1586, 0, 0.00101258, 0.000583135, 0.000852416, 14.5687, 16.5782, 0, 0.00101266, 0.000322653, 0.000499456, 6.39635, 10.7839, 0, 0.00101275, -0.340966, -28.2604, -21.1333, -0.180857, -18.35, -13.8207, 0.000262868, -0.000320392, -0.000211502, 0.000174697, 0.000174697, 0.000174697
1903, 1,0.000436544, -0.000351536, 0.000249727, 8.42338, -21.4865, 0.000881635, 15.8624, 35.0193, 0, 0.00104653, 0.000578327, 0.000957338, 10.3701, 23.3245, 0, 0.00104673, 0.000301186, 0.000476651, 6.92272, 10.5785, 0, 0.00104694, -0.152611, -30.1821, -39.6387, -0.0161114, -18.9836, -12.7359, 0.000374815, -0.000240686, -0.000512626, 0.000177038, 0.000177038, 0.000177038
1904, 1,0.000487395, -0.00050994, 0.000352176, 9.20679, -31.6495, 0.00122465, 21.7832, 49.6114, 0, 0.00108046, 0.000659004, 0.00114721, 9.8151, 30.3175, 0, 0.0010808, 0.000346554, 0.000518914, 10.42, 10.5857, 0, 0.00108114, -0.133476, -34.8349, -55.9841, -0.0144286, -22.6489, -9.09362, 0.00048201, -0.000216026, -0.000757972, 0.000174305, 0.000174305, 0.000174305
1905, 1,0.000637116, 0.000260445, 0.000231959, 22.181, 13.799, 0.000944601, 42.3613, 1.76244, 0, 0.000978575, 0.000879095, 0.000971174, 35.2753, 5.65426, 0, 0.000978514, 0.000410449, 0.000558832, 9.74016, 9.21067, 0, 0.000978457, -0.369206, -32.9331, 16.3395, -0.202068, -20.8089, -6.62105, 8.347E-05, -0.000599151, 0.000423926, 0.00014221, 0.00014221, 0.00014221
1906, 1,0.000439695, -0.000192044, 0.000161393, 11.9922, -10.5925, 0.000725786, 22.1974, 15.9219, 0, 0.00101249, 0.000570049, 0.000777539, 16.8171, 12.7184, 0, 0.00101255, 0.000309701, 0.000455647, 7.16885, 8.86949, 0, 0.00101261, -0.357392, -26.8743, -10.9235, -0.209145, -17.4215, -8.97785, 0.000201991, -0.000354231, -5.41508E-05, 0.000144173, 0.000144173, 0.000144173
1907, 1,0.000413836, -0.000320407, 0.000230346, 9.43351, -19.4572, 0.000845361, 17.8682, 30.0291, 0, 0.00104645, 0.000547163, 0.000870146, 11.5182, 19.8379, 0, 0.00104662, 0.000287929, 0.000430877, 7.84718, 8.57009, 0, 0.00104681, -0.182483, -28.9491, -30.3821, -0.0590313, -17.9702, -7.681, 0.000319623, -0.000271923, -0.000369619, 0.000144853, 0.000144853, 0.000144853
1908, 1,0.000459075, -0.000486051, 0.000336525, 9.82354, -30.1271, 0.00118807, 23.7443, 44.6551, 0, 0.00108039, 0.000619936, 0.00105862, 10.2821, 27.2654, 0, 0.00108069, 0.000335225, 0.000474599, 11.4793, 8.56465, 0, 0.00108102, -0.205887, -33.8289, -47.7615, -0.0894802, -21.6268, -3.97765, 0.000432625, -0.00024539, -0.000629699, 0.000141151, 0.000141151, 0.000141151
1909, 1,0.000658838, 0.000291649, 0.000243695, 25.5449, 16.2015, 0.00103904, 51.0894, -3.77519, 0, 0.000978497, 0.000929192, 0.000952382, 40.9683, 1.34575, 0, 0.000978416, 0.000408102, 0.000526494, 10.938, 7.34006, 0, 0.000978321, -0.363604, -31.2619, 27.5882, -0.203169, -19.8315, -1.9855, 1.57043E-05, -0.000634018, 0.000596475, 0.000112611, 0.000112611, 0.000112611
1910, 1,0.000436594, -0.000166463, 0.000151324, 13.9987, -8.66485, 0.000734579, 26.5258, 10.69, 0, 0.00101243, 0.00057183, 0.000717472, 19.7984, 8.84547, 0, 0.00101246, 0.000302138, 0.000417238, 8.21187, 6.94478, 0, 0.00101249, -0.361368, -25.3604, -0.814648, -0.22289, -16.4033, -4.20817, 0.000141178, -0.000385662, 0.000100941, 0.000113796, 0.000113796, 0.000113796
1911, 1,0.000397438, -0.00029046, 0.000212133, 10.7384, -17.4846, 0.000816564, 20.2917, 24.9555, 0, 0.00104638, 0.000523126, 0.000790477, 12.9969, 16.3624, 0, 0.00104652, 0.000280513, 0.000391306, 9.04557, 6.56926, 0, 0.00104669, -0.1947, -27.6276, -21.2649, -0.0816914, -16.9039, -2.72218, 0.000264981, -0.000301276, -0.000229228, 0.000113218, 0.000113218, 0.000113218
1912, 1,0.000438815, -0.000463002, 0.000321607, 10.8565, -28.6481, 0.00115073, 25.6943, 39.6585, 0, 0.00108032, 0.000588152, 0.000976966, 11.1254, 24.1443, 0, 0.00108059, 0.00033465, 0.000440419, 13.065, 6.46044, 0, 0.0010809, -0.202055, -32.6742, -39.5567, -0.0868707, -20.5001, 1.20568, 0.000383772, -0.000272891, -0.000502702, 0.000108338, 0.000108338, 0.000108338
1913, 1,0.000693866, 0.000328276, 0.000260815, 29.5971, 18.8596, 0.00116323, 61.0924, -9.12437, 0, 0.000978447, 0.000999596, 0.000953773, 47.6801, -2.97191, 0, 0.000978349, 0.0004116, 0.000499957, 12.4478, 5.46481, 0, 0.000978216, -0.354348, -29.474, 38.7441, -0.200594, -18.7821, 2.58823, -5.21349E-05, -0.000666527, 0.000766888, 8.3004E-05, 8.3004E-05, 8.3004E-05
1914, 1,0.000445966, 0.000147865, 0.000147456, 16.6234, 7.10299, 0.000771803, 32.188, 5.48471, 0, 0.00101238, 0.000592067, 0.000675814, 23.6868, 4.96396, 0, 0.00101239, 0.00030131, 0.000385585, 9.59268, 5.01427, 0, 0.00101239, -0.356489, -23.743, 9.2076, -0.225628, -15.3147, 0.49754, 8.04109E-05, -0.000415088, 0.00025412, 8.35528E-05, 8.35528E-05, 8.35528E-05
1915, 1,0.000389503, -0.000261948, 0.000195339, 12.4445, -15.581, 0.000799583, 23.3132, 19.8341, 0, 0.00104633, 0.000508543, 0.000720518, 14.922, 12.8896, 0, 0.00104644, 0.000280911, 0.000359772, 10.613, 4.56754, 0, 0.00104659, -0.188102, -26.2096, -12.2712, -0.0828409, -15.7738, 2.15401, 0.000210779, -0.000328661, -9.1288E-05, 8.20214E-05, 8.20214E-05, 8.20214E-05
1916, 1,0.000424647, -0.00044069, 0.000307316, 12.147, -27.208, 0.00111775, 27.8939, 34.602, 0, 0.00108026, 0.000561425, 0.000900751, 12.1762, 21.0507, 0, 0.0010805, 0.000343101, 0.000415414, 15.0226, 4.36963, 0, 0.00108079, -0.199946, -31.4618, -31.4904, -0.0852851, -19.3419, 6.31828, 0.000335313, -0.00029888, -0.000378056, 7.57128E-05, 7.57128E-05, 7.57128E-05
1917, 1,0.00074272, 0.000369288, 0.00028228, 34.3596, 21.7245, 0.00130967, 71.9975, -14.2846, 0, 0.000978365, 0.00108986, 0.000974931, 55.3747, -7.29721, 0, 0.000978254, 0.000421723, 0.000480041, 14.3186, 3.58695, 0, 0.000978082, -0.340451, -27.5866, 49.8187, -0.193895, -17.674, 7.10707, -0.000120007, -0.000696997, 0.00093542, 5.34278E-05, 5.34278E-05, 5.34278E-05
1918, 1,0.000470366, 0.000166224, 0.000150228, 19.9973, 8.70781, 0.000840745, 39.3216, 0.333132, 0, 0.00101229, 0.000634053, 0.000655784, 28.6457, 1.07167, 0, 0.00101228, 0.000308878, 0.000362286, 11.4022, 3.07601, 0, 0.00101224, -0.345602, -22.0335, 19.1641, -0.220096, -14.1637, 5.15576, 1.95832E-05, -0.000442748, 0.000405769, 5.33414E-05, 5.33414E-05, 5.33414E-05
1919, 1,0.000392641, -0.000235217, 0.000180312, 14.6761, -13.7633, 0.000799915, 27.2023, 14.6517, 0, 0.00104624, 0.000506316, 0.000662943, 17.433, 9.41457, 0, 0.00104633, 0.000291327, 0.00033825, 12.6507, 2.5599, 0, 0.00104645, -0.174253, -24.7003, -3.36915, -0.07446, -14.5825, 6.97725, 0.000156678, -0.000354225, 4.47663E-05, 5.09171E-05, 5.09171E-05, 5.09171E-05
1920, 1,0.000418134, -0.000419113, 0.000293649, 13.77, -25.807, 0.00109392, 30.6352, 29.3973, 0, 0.00108018, 0.000541076, 0.000831316, 13.5011, 17.9792, 0, 0.00108038, 0.000361792, 0.000400837, 17.4058, 2.28689, 0, 0.00108065, -0.192064, -30.1631, -23.5826, -0.0776108, -18.1232, 11.3401, 0.000287321, -0.000322797, -0.000256308, 4.33409E-05, 4.33409E-05, 4.33409E-05
1921, 1,0.000805124, 0.000413725, 0.000307127, 39.8069, 24.751, 0.00147066, 83.4268, -19.2528, 0, 0.000978288, 0.00119836, 0.00101425, 63.9559, -11.6279, 0, 0.000978167, 0.000439079, 0.000467369, 16.5879, 1.70872, 0, 0.000977955, -0.324356, -25.6187, 60.8268, -0.184972, -16.5212, 11.58, -0.000187931, -0.000725771, 0.00110239, 2.3874E-05, 2.3874E-05, 2.3874E-05
1922, 1,0.000511588, 0.000190879, 0.000159258, 24.208, 10.6114, 0.000941692, 47.9315, -4.75696, 0, 0.0010122, 0.000699545, 0.000659074, 34.7554, -2.83173, 0, 0.00101217, 0.000326389, 0.000348822, 13.7239, 1.12965, 0, 0.0010121, -0.333518, -20.2495, 29.0782, -0.211155, -12.9633, 9.78549, -4.14222E-05, -0.000468985, 0.000556353, 2.30435E-05, 2.30435E-05, 2.30435E-05
1923, 1,0.000409358, -0.000210669, 0.000167453, 17.5459, -12.0508, 0.000823054, 32.2154, 9.41152, 0, 0.00104615, 0.000519444, 0.000620675, 20.668, 5.93823, 0, 0.00104621, 0.000313432, 0.000328344, 15.2288, 0.547439, 0, 0.0010463, -0.160225, -23.1139, 5.45945, -0.0636064, -13.3407, 11.7619, 0.000102531, -0.000378214, 0.000179314, 1.97587E-05, 1.97587E-05, 1.97587E-05
1924, 1,0.000420903, -0.000398314, 0.000280649, 15.7953, -24.4474, 0.00108207, 34.0625, 24.0276, 0, 0.00108011, 0.000528449, 0.000769939, 15.161, 14.9285, 0, 0.00108027, 0.00039149, 0.000397384, 20.2483, 0.210738, 0, 0.00108052, -0.18292, -28.7885, -15.8142, -0.0684427, -16.8524, 16.2886, 0.000239672, -0.00034486, -0.000137094, 1.10953E-05, 1.10953E-05, 1.10953E-05
1925, 1,0.00088012, 0.000460788, 0.000334556, 45.8773, 27.9018, 0.00163967, 95.0607, -24.0178, 0, 0.000978219, 0.0013228, 0.00106942, 73.2965, -15.9645, 0, 0.000978092, 0.000464049, 0.000462321, 19.2772, -0.16996, 0, 0.000977841, -0.30611, -23.5876, 71.7871, -0.173999, -15.3361, 16.02, -0.000255915, -0.000753196, 0.00126817, -5.6624E-06, -5.6624E-06, -5.6624E-06
1926, 1,0.000569937, 0.000220819, 0.000173534, 29.2631, 12.7655, 0.00107127, 57.847, -9.7798, 0, 0.00101213, 0.000787952, 0.000685072, 41.9761, -6.74651, 0, 0.00101208, 0.000354818, 0.000346148, 16.6067, -0.824821, 0, 0.00101198, -0.321341, -18.4086, 38.9695, -0.200124, -11.7266, 14.4012, -0.000102636, -0.000494146, 0.000706255, -7.37282E-06, -7.37282E-06, -7.37282E-06
1927, 1,0.000441729, -0.000188766, 0.000157227, 21.1478, -10.4658, 0.00087449, 38.6075, 4.11725, 0, 0.00104608, 0.000550783, 0.000596534, 24.7597, 2.45896, 0, 0.0010461, 0.000348037, 0.000330831, 18.3811, -1.47125, 0, 0.00104617, -0.146726, -21.4657, 14.2355, -0.0511506, -12.0607, 16.5256, 4.82907E-05, -0.000400948, 0.000312746, -1.15011E-05, -1.15011E-05, -1.15011E-05
1928, 1,0.000434419, -0.000378335, 0.00026836, 18.2856, -23.1315, 0.00108628, 38.3849, 18.4663, 0, 0.00108004, 0.000524934, 0.000717984, 17.2181, 11.8969, 0, 0.00108016, 0.000431977, 0.000404814, 23.5488, -1.86042, 0, 0.0010804, -0.171248, -27.3515, -8.16786, -0.0564305, -15.5408, 21.1785, 0.000192336, -0.000365332, -2.00922E-05, -2.10503E-05, -2.10503E-05, -2.10503E-05
1929, 1,0.000966238, 0.000509858, 0.000363946, 52.4856, 31.1481, 0.0018119, 106.665, -28.5699, 0, 0.000978119, 0.00146058, 0.00113783, 83.2631, -20.3087, 0, 0.000977988, 0.00049664, 0.000464907, 22.3819, -2.05012, 0, 0.000977698, -0.283292, -21.5108, 82.7201, -0.159061, -14.1308, 20.4402, -0.000323935, -0.000779642, 0.00143314, -3.51563E-05, -3.51563E-05, -3.51563E-05
1930, 1,0.000644069, 0.000254835, 0.000191846, 35.0858, 15.1129, 0.0012239, 68.7844, -14.7168, 0, 0.00101204, 0.00089656, 0.00073109, 50.1652, -10.6743, 0, 0.00101197, 0.000394192, 0.000354316, 20.0452, -2.78908, 0, 0.00101184, -0.303478, -16.5274, 48.854, -0.181544, -10.4659, 19.0147, -0.000163964, -0.000518585, 0.000855759, -3.78146E-05, -3.78146E-05, -3.78146E-05
1931, 1,0.000490541, -0.000169968, 0.000150095, 25.5164, -9.03026, 0.000958164, 46.5722, -1.24442, 0, 0.001046, 0.000602093, 0.000592305, 29.7893, -1.02437, 0, 0.001046, 0.000394591, 0.000345186, 22.0829, -3.49724, 0, 0.00104604, -0.130092, -19.7724, 22.9756, -0.0334059, -10.7564, 21.2816, -5.97914E-06, -0.000422775, 0.000445368, -4.27963E-05, -4.27963E-05, -4.27963E-05
1932, 1,0.000459822, -0.000359231, 0.000256837, 21.2901, -21.8619, 0.00111167, 43.8435, 12.7092, 0, 0.00107996, 0.000531996, 0.000676934, 19.7366, 8.88478, 0, 0.00108002, 0.000482225, 0.00042212, 27.2753, -3.92594, 0, 0.00108025, -0.156099, -25.8724, -0.625871, -0.0406195, -14.2059, 26.0243, 0.000145336, -0.00038459, 9.50434E-05, -5.30723E-05, -5.30723E-05, -5.30723E-05
1933, 1,0.00106187, 0.000560468, 0.000394829, 59.5462, 34.468, 0.00198436, 118.093, -32.898, 0, 0.000978022, 0.0016093, 0.00121707, 93.7386, -24.664, 0, 0.000977891, 0.000536549, 0.000474797, 25.8783, -3.93547, 0, 0.000977563, -0.25349, -19.4057, 93.6512, -0.137232, -12.9163, 24.86, -0.000391995, -0.000805501, 0.00159773, -6.46041E-05, -6.46041E-05, -6.46041E-05
1934, 1,0.000731349, 0.000291854, 0.00021312, 41.5371, 17.603, 0.00139381, 80.4619, -19.5598, 0, 0.00101195, 0.00102142, 0.000793302, 59.1237, -14.6145, 0, 0.00101186, 0.00044338, 0.00037232, 23.9703, -4.7622, 0, 0.0010117, -0.269483, -14.6242, 58.7371, -0.144833, -9.19522, 23.6267, -0.000225165, -0.000542655, 0.00100497, -6.80379E-05, -6.80379E-05, -6.80379E-05
1935, 1,0.000554753, -0.000154637, 0.000146423, 30.6044, -7.76161, 0.00107484, 56.1322, -6.65835, 0, 0.00104592, 0.000673175, 0.000607915, 35.748, -4.51323, 0, 0.00104588, 0.000451263, 0.000369714, 26.2547, -5.53179, 0, 0.0010459, -0.0967146, -18.0517, 31.6881, 0.00332707, -9.44219, 26.0343, -6.00015E-05, -0.00044407, 0.000577299, -7.3845E-05, -7.3845E-05, -7.3845E-05
1936, 1,0.000497648, -0.000341061, 0.000246142, 24.8408, -20.6417, 0.00116301, 50.6488, 6.77291, 0, 0.00107988, 0.000551024, 0.000648169, 22.7842, 5.88903, 0, 0.0010799, 0.000540774, 0.000447838, 31.3827, -5.98864, 0, 0.00108011, -0.13677, -24.3687, 6.8384, -0.0204377, -12.8624, 30.8487, 9.86795E-05, -0.000403061, 0.000208783, -8.49574E-05, -8.49574E-05, -8.49574E-05
1937, 1,0.00116561, 0.000612242, 0.000426831, 66.9929, 37.8437, 0.00215555, 129.263, -36.9869, 0, 0.000977927, 0.00176702, 0.00130507, 104.637, -29.0392, 0, 0.000977801, 0.000583372, 0.00049148, 29.7399, -5.83493, 0, 0.000977433, -0.215557, -17.2831, 104.616, -0.10742, -11.6988, 29.311, -0.000460209, -0.000831093, 0.00176253, -9.41235E-05, -9.41235E-05, -9.41235E-05
1938, 1,0.000828654, 0.000331049, 0.000236528, 48.4583, 20.1966, 0.00157725, 92.6959, -24.301, 0, 0.00101187, 0.00115844, 0.000867755, 68.6497, -18.5626, 0, 0.00101177, 0.000500424, 0.000398364, 28.2734, -6.74025, 0, 0.00101158, -0.212158, -12.7154, 68.6155, -0.0818341, -7.92623, 28.2288, -0.00028602, -0.00056662, 0.00115385, -9.78059E-05, -9.78059E-05, -9.78059E-05
1939, 1,0.000631583, 0.000149833, 0.000146393, 36.2759, 7.31576, 0.00122183, 67.1381, -12.0984, 0, 0.00104583, 0.000761546, 0.000641226, 42.5119, -7.99667, 0, 0.00104577, 0.000515355, 0.000402068, 30.7677, -7.56376, 0, 0.00104576, -0.031691, -16.3334, 40.3552, 0.0742012, -8.14304, 30.7601, -0.00011328, -0.000465292, 0.000708327, -0.000104142, -0.000104142, -0.000104142
1940, 1,0.000546783, -0.000323863, 0.00023632, 28.8971, -19.4726, 0.00124215, 58.8422, 0.712515, 0, 0.0010798, 0.000582125, 0.000631995, 26.3691, 2.90753, 0, 0.00107976, 0.000605479, 0.000480034, 35.7872, -8.04994, 0, 0.00107995, -0.0941157, -22.8606, 14.2322, 0.0232451, -11.5218, 35.6484, 5.2763E-05, -0.000421218, 0.000321238, -0.0001163, -0.0001163, -0.0001163
1941, 1,0.00127651, 0.000664864, 0.000459645, 74.7736, 41.2597, 0.00232429, 140.108, -40.8203, 0, 0.000977855, 0.00193241, 0.00140019, 115.891, -33.428, 0, 0.000977738, 0.000636909, 0.000514426, 33.938, -7.74408, 0, 0.000977331, -0.206532, -15.1587, 115.649, -0.106038, -10.489, 33.8273, -0.00052925, -0.000856602, 0.0019283, -0.000124405, -0.000124405, -0.000124405
1942, 1,0.000933762, 0.000371842, 0.000261484, 55.725, 22.8664, 0.00177447, 105.532, -28.9858, 0, 0.00101179, 0.00130477, 0.000951619, 78.591, -22.4938, 0, 0.00101169, 0.000563803, 0.000430974, 32.8594, -8.69832, 0, 0.00101146, -0.174752, -10.8429, 78.4991, -0.0344986, -6.69559, 32.825, -0.000347052, -0.000590962, 0.00130302, -0.000127618, -0.000127618, -0.000127618
1943, 1,0.000717175, 0.000165069, 0.000149968, 42.3495, 8.57565, 0.00139423, 79.2602, -17.4349, 0, 0.00104574, 0.000863029, 0.00068877, 49.883, -11.4739, 0, 0.00104564, 0.000583769, 0.000439869, 35.4774, -9.59164, 0, 0.00104561, 0.129316, -14.6444, 48.9369, 0.243971, -6.87822, 35.4092, -0.000164434, -0.000487051, 0.000837666, -0.000132286, -0.000132286, -0.000132286
1944, 1,0.000608516, -0.0003079, 0.000227636, 33.546, -18.3661, 0.00133826, 67.7009, -5.19709, 0, 0.00107969, 0.00062707, 0.000629859, 30.596, -0.0622492, 0, 0.0010796, 0.000678248, 0.000520332, 40.5966, -10.1111, 0, 0.00107978, -0.0658273, -21.4945, 21.7471, 0.0501218, -10.3125, 40.5957, 6.74859E-06, -0.000442342, 0.000436568, -0.000147976, -0.000147976, -0.000147976
1945, 1,0.00139334, 0.000718033, 0.00049299, 82.8334, 44.7011, 0.0024874, 150.43, -44.3316, 0, 0.000977812, 0.0021039, 0.00150085, 127.434, -37.8378, 0, 0.000977709, 0.000696544, 0.00054293, 38.4309, -9.67204, 0, 0.000977263, -0.212028, -13.0396, 126.765, -0.119964, -9.29209, 38.4282, -0.000598904, -0.000882243, 0.00209515, -0.000155288, -0.000155288, -0.000155288
1946, 1,0.00104697, 0.000413718, 0.000287471, 63.3542, 25.5875, 0.00198539, 119.026, -33.6975, 0, 0.00101172, 0.00146016, 0.00104323, 88.9407, -26.4158, 0, 0.0010116, 0.000634432, 0.000469667, 37.769, -10.6457, 0, 0.00101134, -0.278965, -8.98132, 88.5078, -0.123486, -5.47873, 37.5395, -0.000410929, -0.000615266, 0.00145485, -0.000160144, -0.000160144, -0.000160144
1947, 1,0.000808593, 0.000183833, 0.00015705, 48.6144, 10.0026, 0.00159563, 92.7453, -22.7696, 0, 0.00104565, 0.000973972, 0.000748195, 57.6153, -14.8525, 0, 0.00104551, 0.000654662, 0.000482563, 40.225, -11.5229, 0, 0.00104546, 0.364783, -13.1566, 57.3494, 0.495177, -5.80164, 39.8752, -0.000212485, -0.000511665, 0.000965158, -0.000157212, -0.000157212, -0.000157212
1948, 1,0.000700637, -0.000294173, 0.00022107, 40.1057, -17.3677, 0.00147046, 78.1056, -10.9256, 0, 0.00107958, 0.000705665, 0.000657487, 36.8747, -3.59354, 0, 0.00107945, 0.000774767, 0.000580597, 47.0217, -12.7427, 0, 0.00107961, 0.402566, -20.2199, 30.598, 0.500985, -9.22018, 46.9473, -3.86598E-05, -0.00047482, 0.000571759, -0.000179529, -0.000179529, -0.000179529
1949, 1,0.00151393, 0.000771445, 0.000526601, 91.0901, 48.1513, 0.00264672, 160.328, -47.5247, 0, 0.000977792, 0.0022791, 0.00160533, 139.171, -42.2888, 0, 0.000977709, 0.000760436, 0.000575721, 43.1468, -11.6458, 0, 0.000977223, -0.128664, -10.9367, 137.932, -0.0431463, -8.1173, 43.098, -0.000667294, -0.000908622, 0.00226215, -0.000184943, -0.000184943, -0.000184943
1950, 1,0.00116713, 0.000456256, 0.000314062, 71.321, 28.3393, 0.00219467, 132.399, -38.3568, 0, 0.00101166, 0.00162302, 0.00114112, 99.6555, -30.3843, 0, 0.00101152, 0.000711726, 0.000513892, 42.9925, -12.6382, 0, 0.00101123, -0.41092, -7.1374, 98.7011, -0.240694, -4.28437, 42.4396, -0.000475986, -0.000640694, 0.00160973, -0.000193838, -0.000193838, -0.000193838
1951, 1,0.000913928, 0.000205485, 0.000166977, 55.4243, 11.5665, 0.00184578, 108.901, -28.594, 0, 0.00104557, 0.00110206, 0.000821959, 66.0456, -18.1236, 0, 0.0010454, 0.000736205, 0.000533188, 45.364, -13.3472, 0, 0.00104531, 0.180665, -11.8331, 66.0231, 0.332186, -4.9109, 44.6204, -0.000267616, -0.000538609, 0.00110031, -0.000189111, -0.000189111, -0.000189111
1952, 1,0.000800317, -0.000281392, 0.00021539, 47.1095, -16.417, 0.00176882, 99.0403, -20.2512, 0, 0.00107951, 0.00080449, 0.000707973, 44.1664, -7.29565, 0, 0.00107928, 0.000865133, 0.000637479, 53.2794, -15.5542, 0, 0.00107943, 1.40603, -18.6088, 39.0897, 1.48336, -7.94477, 53.124, -7.52461E-05, -0.000503449, 0.000697047, -0.000202481, -0.000202481, -0.000202481
1953, 1,0.00163534, 0.00082453, 0.00055988, 99.4991, 51.5839, 0.0027928, 169.201, -50.1673, 0, 0.000977787, 0.00245448, 0.00170971, 151.028, -46.9248, 0, 0.000977736, 0.000826159, 0.000610609, 48.076, -13.8069, 0, 0.000977211, 0.142512, -8.53985, 149.172, 0.228242, -6.70564, 47.8982, -0.000734689, -0.000931836, 0.00242798, -0.000213498, -0.000213498, -0.000213498
1954, 1,0.00128594, 0.000498909, 0.000340753, 79.3156, 31.0935, 0.00239303, 144.32, -41.7391, 0, 0.0010116, 0.00178442, 0.00123766, 110.401, -34.5594, 0, 0.00101149, 0.000787986, 0.000557065, 48.2408, -14.8413, 0, 0.00101116, -0.172219, -5.00121, 108.852, 0.00649775, -2.82197, 47.3394, -0.000536093, -0.000663943, 0.00176083, -0.00022277, -0.00022277, -0.00022277
1955, 1,0.00103458, 0.000229039, 0.000178765, 63.2329, 13.2204, 0.002205, 131.027, -35.5109, 0, 0.00104552, 0.00124811, 0.00090296, 75.5995, -21.8289, 0, 0.00104529, 0.000830177, 0.000585659, 51.367, -15.6075, 0, 0.00104519, -0.358239, -9.72041, 75.5654, -0.188417, -3.26361, 50.2745, -0.000336782, -0.000556785, 0.00124778, -0.000235132, -0.000235132, -0.000235132
1956, 1,0.00084346, -0.000267018, 0.000208287, 49.2025, -15.3879, 0.00231295, 134.343, -33.391, 0, 0.00107952, 0.000851688, 0.000724613, 46.7623, -8.35885, 0, 0.00107908, 0.000897849, 0.000653611, 54.6018, -15.7254, 0, 0.00107921, 0.14346, -17.8534, 42.7865, 0.247122, -7.44846, 54.3777, -0.000118575, -0.000509467, 0.00076364, -0.000231158, -0.000231158, -0.000231158
1957, 1,0.00174712, 0.000876949, 0.000592883, 106.884, 54.9664, 0.00294387, 177.358, -51.5595, 0, 0.000977729, 0.0026191, 0.00180307, 161.807, -50.8872, 0, 0.000977719, 0.000884453, 0.00063665, 52.0458, -15.3437, 0, 0.000977155, -0.497899, -6.11248, 159.272, -0.411835, -5.2528, 51.6957, -0.000810426, -0.000944725, 0.0025809, -0.000251179, -0.000251179, -0.000251179
1958, 1,0.00139784, 0.000542545, 0.000368438, 86.0267, 33.8874, 0.00272292, 162.48, -45.1151, 0, 0.00101153, 0.00193999, 0.00133596, 119.893, -37.5158, 0, 0.0010114, 0.000856196, 0.000600231, 52.1867, -15.8472, 0, 0.00101105, -1.15865, -3.79925, 117.505, -0.938107, -2.21741, 50.6972, -0.000602695, -0.000689956, 0.00190142, -0.000257838, -0.000257838, -0.000257838
1959, 1,0.0011493, 0.000254763, 0.000192661, 70.7371, 14.9783, 0.00280969, 166.429, -44.7311, 0, 0.00104547, 0.00139007, 0.000988578, 84.9314, -25.6002, 0, 0.00104514, 0.000916698, 0.000639459, 57.0031, -17.9372, 0, 0.00104501, 0.00540968, -7.94294, 84.7382, 0.197387, -1.89951, 55.5137, -0.000387948, -0.000584894, 0.00138825, -0.00026314, -0.00026314, -0.00026314
1960, 1,0.000957939, -0.000256638, 0.000205225, 57.5866, -14.545, 0.00316053, 190.054, -54.6607, 0, 0.00107961, 0.00096754, 0.000773876, 55.5001, -13.2079, 0, 0.00107889, 0.00100484, 0.000708532, 62.3631, -19.676, 0, 0.001079, 1.17819, -14.4638, 52.9095, 1.29066, -4.08916, 61.8264, -0.000173137, -0.000520054, 0.000907465, -0.000271372, -0.000271372, -0.000271372
1961, 1,0.00188561, 0.000927873, 0.000625057, 116.474, 58.2701, 0.00338516, 203.345, -58.5149, 0, 0.000977762, 0.00280871, 0.00191108, 174.716, -56.0312, 0, 0.000977723, 0.000971341, 0.00067862, 58.2859, -18.1112, 0, 0.000977122, -0.260149, -3.02584, 171.38, -0.196644, -3.10641, 57.6366, -0.000885333, -0.000961502, 0.00275606, -0.000289403, -0.000289403, -0.000289403
1962, 1,0.00156931, 0.000584968, 0.000395037, 97.3847, 36.6161, 0.00347655, 209.374, -60.2241, 0, 0.00101164, 0.00215412, 0.00147011, 133.978, -43.0836, 0, 0.00101136, 0.000984709, 0.000683279, 60.8179, -19.5128, 0, 0.00101098, -0.58921, -1.09566, 130.936, -0.233314, -0.168662, 58.9404, -0.00067784, -0.000727652, 0.00210461, -0.000300321, -0.000300321, -0.000300321
1963, 1,0.00123195, 0.000282145, 0.000207924, 75.4103, 16.8127, 0.00378707, 224.935, -61.3631, 0, 0.00104556, 0.0015021, 0.00106305, 91.5243, -27.7519, 0, 0.00104499, 0.000968971, 0.000678201, 59.7209, -18.673, 0, 0.00104483, -0.264693, -7.56125, 91.0817, 0.0515062, -1.90883, 57.8763, -0.000427386, -0.000619284, 0.00149698, -0.000277697, -0.000277697, -0.000277697
1964, 1,0.00100511, -0.000246648, 0.000202983, 59.826, -13.707, 0.00415131, 244.996, -65.8601, 0, 0.00107954, 0.00102404, 0.000807344, 58.4644, -14.0926, 0, 0.00107864, 0.00103882, 0.000734537, 63.7165, -19.6173, 0, 0.00107873, 0.317452, -14.777, 56.7373, 0.438738, -4.39338, 62.8066, -0.000205148, -0.000547116, 0.000980885, -0.000288354, -0.000288354, -0.000288354
1965, 1,0.00205483, 0.00097504, 0.000656767, 127.596, 61.2384, 0.00441509, 265.747, -76.9362, 0, 0.00097798, 0.0030255, 0.00206084, 188.822, -60.9024, 0, 0.000977726, 0.00109168, 0.000765782, 66.3943, -21.0777, 0, 0.000977094, 0.636772, -2.17219, 184.243, 0.842366, -2.76426, 65.1551, -0.000942012, -0.00102108, 0.00295139, -0.000313548, -0.000313548, -0.000313548
1966, 1,0.00167297, 0.000627638, 0.000423355, 102.221, 39.3056, 0.00457276, 275.278, -79.1368, 0, 0.0010118, 0.00230052, 0.00157252, 141.505, -44.1338, 0, 0.00101123, 0.0010455, 0.000734147, 62.9633, -18.8312, 0, 0.00101081, -3.11486, -2.33285, 137.849, -2.37763, -1.99759, 60.8687, -0.000747109, -0.000778808, 0.00224207, -0.000334484, -0.000334484, -0.000334484
1967, 1,0.00131512, 0.000312743, 0.000225887, 81.0863, 18.8014, 0.00520439, 312.741, -89.3534, 0, 0.00104581, 0.00161773, 0.00112505, 99.2486, -31.184, 0, 0.00104482, 0.00101893, 0.000699507, 63.3389, -20.7194, 0, 0.00104465, -0.231183, -4.64594, 98.4291, 0.385215, 0.758049, 61.015, -0.000479551, -0.000622458, 0.001608, -0.000301792, -0.000301792, -0.000301792
1968, 1,0.00110224, -0.000238973, 0.000203354, 68.3349, -12.9782, 0.00641169, 270.461, -86.3354, 0.0421667, 0.00107967, 0.00114503, 0.000862109, 68.3173, -20.6088, 0, 0.00107848, 0.00110764, 0.000753806, 70.7274, -25.2016, 0, 0.00107856, 3.73333, -8.51051, 66.6034, 3.9, 1.82642, 69.8783, -0.00023459, -0.000528921, 0.00109784, -0.000302219, -0.000302219, -0.000302219
1969, 1,0.00226115, 0.00103172, 0.000694022, 141.339, 64.6105, 0.00572689, 351.887, -109.355, 0, 0.000978436, 0.00328738, 0.0022596, 205.877, -66.9599, 0, 0.000977764, 0.00124347, 0.000892871, 76.9232, -25.3433, 0, 0.000977104, 3.53558, -3.28593, 200.63, 4.68458, -4.37084, 75.7162, -0.000975925, -0.00114255, 0.00320506, -0.00029981, -0.00029981, -0.00029981
1970, 1,0.00182737, 0.000673609, 0.000455675, 111.624, 42.1977, 0.00616178, 365.688, -99.6886, 0, 0.00101201, 0.00249997, 0.00170536, 153.818, -48.4334, 0, 0.00101117, 0.00115588, 0.000817124, 69.4347, -21.3078, 0, 0.00101072, -4.03721, -0.0987307, 149.436, -2.95584, -0.356078, 67.2354, -0.000831221, -0.000811631, 0.00242877, -0.000382902, -0.000382902, -0.000382902
1971, 1,0.0014466, 0.000354036, 0.000252704, 86.9197, 21.3904, 0.00742573, 386.04, -96.2721, 0.0157232, 0.00104577, 0.0017862, 0.00123891, 107.36, -31.8755, 0, 0.00104466, 0.00111617, 0.000770043, 67.1011, -19.8174, 0, 0.00104445, -4.37034, -4.98352, 104.98, -3.38653, 0.583309, 62.2553, -0.000576843, -0.000660074, 0.00175411, -0.000366401, -0.000366401, -0.000366401
1972, 1,0.00123023, -0.000241714, 0.0002155, 70.5049, -12.6879, 0.0106323, 276.114, -78.4412, 0.123442, 0.0010794, 0.00126884, 0.000973684, 70.302, -16.5608, 6.83853E-07, 0.00107821, 0.00124026, 0.000892534, 73.119, -20.0771, 6.83853E-07, 0.00107828, -3.3433, -17.1252, 70.1508, -3.03688, -5.53706, 68.8053, -0.000322407, -0.000671413, 0.00126245, -0.000370483, -0.000370483, -0.000370483
1973, 1,0.0027237, 0.00114031, 0.000763006, 164.418, 71.8068, 0.00736125, 431.233, -112.104, 0, 0.000978491, 0.003856, 0.00265092, 236.06, -71.4226, 0, 0.000977845, 0.00160186, 0.00116092, 93.0003, -24.374, 0, 0.000977099, -6.65339, -9.06431, 229.986, -5.16075, -13.3413, 91.6241, -0.00125874, -0.00134377, 0.00376148, -0.000490429, -0.000490429, -0.000490429
1974, 1,0.001979, 0.000742639, 0.000498572, 114.106, 46.5947, 0.00927292, 433.821, -105.983, 0.0353413, 0.00101209, 0.00271877, 0.00190749, 160.59, -44.0021, 0, 0.00101104, 0.00124258, 0.00092373, 67.7577, -14.0376, 0, 0.00101055, -13.4379, -6.91947, 152.364, -12.2199, -7.99148, 62.3241, -0.000954739, -0.000911479, 0.00258022, -0.000459354, -0.000459354, -0.000459354
1975, 1,0.00178684, 0.000398988, 0.000281372, 108.794, 24.439, 0.0136805, 442.696, -137.704, 0.129043, 0.00104651, 0.00216844, 0.00152, 131.861, -41.5209, 0, 0.0010447, 0.00141548, 0.00100554, 86.5654, -27.3792, 0, 0.00104446, -5.26644, 2.97858, 126.851, -4.30228, 8.46401, 77.976, -0.000744849, -0.000690406, 0.00210891, -0.000502721, -0.000502721, -0.000502721
1976, 1,0.0015961, -0.000240375, 0.000227513, 96.1858, -12.007, 0.0198578, 319.454, -110.211, 0.300288, 0.00108007, 0.00169143, 0.00119166, 98.7715, -32.1933, 0, 0.00107831, 0.0015431, 0.00108668, 95.9581, -34.0459, 0, 0.00107834, -2.29465, 0.258283, 98.6162, -1.95572, 11.1441, 92.9493, -0.000552017, -0.000585548, 0.00165977, -0.000574113, -0.000574113, -0.000574113
1977, 1,0.00330712, 0.00129053, 0.000870177, 197.252, 81.5292, 0.011976, 459.902, -143.615, 0.0894914, 0.000979209, 0.00458701, 0.0031558, 278.661, -81.9412, -4.33681E-19, 0.000978109, 0.00203961, 0.00147056, 115.99, -28.2246, -4.33681E-19, 0.000977257, -16.6721, -8.22319, 270.719, -13.9627, -15.2707, 113.907, -0.00162173, -0.00151216, 0.00446354, -0.000724349, -0.000724349, -0.000724349
1978, 1,0.00283204, 0.000842432, 0.000569485, 171.71, 52.847, 0.0172808, 474.302, -163.652, 0.194529, 0.0010134, 0.00367199, 0.00250312, 224.265, -68.7035, 0, 0.00101151, 0.00199414, 0.00136909, 119.409, -35.1016, 0, 0.00101096, -12.5596, 9.43889, 209.231, -9.86828, 7.62102, 107.552, -0.00131339, -0.00100032, 0.00342848, -0.000730978, -0.000730978, -0.000730978
1979, 1,0.00223004, 0.000447298, 0.000308361, 139.085, 27.821, 0.0241624, 492.234, -186.87, 0.326777, 0.0010479, 0.00265964, 0.00186086, 165.129, -54.2162, 0, 0.00104494, 0.0018099, 0.00128983, 114.01, -37.8096, 0, 0.00104466, -9.70541, 16.2246, 156.13, -8.13022, 21.0305, 100.528, -0.00103251, -0.000653346, 0.00256544, -0.000743259, -0.000743259, -0.000743259
1980, 1,0.00213331, 0.000264243, 0.000261522, 116.423, 12.5337, 0.0315741, 352.309, -130.88, 0.521931, 0.0010809, 0.00228998, 0.00171546, 122.532, -29.7608, 0, 0.00107819, 0.00200943, 0.00147092, 112.301, -29.741, 0, 0.00107819, -13.0799, -18.6419, 121.004, -12.6406, -9.2481, 111.112, -0.000734789, -0.000960297, 0.00217778, -0.000726555, -0.000726555, -0.000726555
1981, 1,0.0040965, 0.00148083, 0.00100228, 255.544, 93.5978, 0.0171545, 473.394, -161.316, 0.191344, 0.000979862, 0.00556235, 0.00381129, 349.017, -115.381, 0, 0.000978826, 0.00264655, 0.00186615, 162.212, -53.633, 0, 0.000977846, -8.27704, 16.2213, 338.198, -4.35741, 7.59431, 157.662, -0.00196086, -0.00153712, 0.00537018, -0.000913486, -0.000913486, -0.000913486
1982, 1,0.00357012, 0.000976857, 0.000676673, 213.399, 60.8692, 0.0251854, 485.46, -175.342, 0.345636, 0.00101409, 0.00454697, 0.00324375, 274.034, -78.8493, 0, 0.00101181, 0.00259328, 0.0018995, 152.95, -41.2011, 0, 0.0010112, -34.9509, 14.9207, 256.578, -27.6537, 11.112, 140.145, -0.0019399, -0.00106847, 0.00428764, -0.00119831, -0.00119831, -0.00119831
1983, 1,0.00276853, 0.000515755, 0.000355454, 171.561, 31.9859, 0.0321976, 489.272, -177.58, 0.47699, 0.00104817, 0.00326678, 0.00231003, 201.656, -61.7792, 0, 0.00104511, 0.00227846, 0.00162348, 142.342, -43.357, 0, 0.0010448, -19.2966, 16.8008, 187.834, -14.574, 20.6096, 124.035, -0.00135266, -0.000762571, 0.00311748, -0.000966364, -0.000966364, -0.000966364
1984, 1,0.00265138, 0.000330155, 0.000314326, 162.697, 16.1996, 0.039537, 339.248, -115.757, 0.67697, 0.00108087, 0.00281451, 0.00197531, 168.761, -53.6112, 5.16318E-08, 0.00107855, 0.00253439, 0.0017354, 159.199, -52.5262, 5.16318E-08, 0.00107853, -1.57406, -6.04564, 168.453, -0.285493, 5.02899, 152.835, -0.000851579, -0.00106418, 0.0027855, -0.00080941, -0.00080941, -0.00080941
1985, 1,0.00490613, 0.00169876, 0.0011621, 307.883, 106.563, 0.0199342, 476.893, -164.84, 0.245047, 0.000980123, 0.00659442, 0.00456621, 414.394, -137.629, 0, 0.000979275, 0.00322833, 0.00228941, 201.429, -68.6755, 0, 0.00097818, -14.9268, 26.4993, 401.315, -6.73835, 17.5548, 195.21, -0.00245504, -0.00165834, 0.00634651, -0.00120567, -0.00120567, -0.00120567
1986, 1,0.00444012, 0.00118243, 0.000834926, 271.07, 72.503, 0.0280562, 481.928, -166.885, 0.398115, 0.00101364, 0.00562096, 0.00405538, 343.394, -102.906, 0, 0.0010118, 0.00326039, 0.00239269, 198.884, -60.1141, 0, 0.0010111, -42.3688, 29.6656, 321.421, -27.9074, 25.1255, 183.124, -0.00247626, -0.00111508, 0.00526085, -0.00150343, -0.00150343, -0.00150343
1987, 1,0.00357796, 0.000642749, 0.000464376, 216.921, 39.0317, 0.0345807, 474.59, -152.293, 0.519158, 0.00104712, 0.00420289, 0.00312985, 254.112, -69.9928, 0, 0.00104467, 0.00296105, 0.00223122, 180.544, -48.82, 0, 0.00104431, -45.6871, 19.452, 236.214, -34.4779, 22.3183, 158.62, -0.00203648, -0.000814879, 0.00398679, -0.00147024, -0.00147024, -0.00147024
1988, 1,0.00295431, 0.000400837, 0.00037309, 176.387, 19.6781, 0.0420752, 318.665, -98.6773, 0.729216, 0.0010801, 0.00318889, 0.002335, 185.554, -53.6968, 8.67362E-19, 0.00107812, 0.00277612, 0.00204412, 170.514, -52.3827, 8.67362E-19, 0.0010781, -20.2766, -3.59216, 184.959, -17.0051, 8.86104, 165.292, -0.00124337, -0.00100474, 0.00311917, -0.00115602, -0.00115602, -0.00115602
1989, 1,0.00657996, 0.00203798, 0.001419, 338.997, 115.361, 0.0181864, 470.941, -156.937, 0.211223, 0.000979994, 0.00861396, 0.0061585, 454.354, -143.035, 0.0251373, 0.000979472, 0.00454938, 0.0033341, 223.645, -67.882, 0.0179158, 0.000978257, -34.4814, 22.7257, 440.86, -24.1256, 10.425, 217.347, -0.00366644, -0.00227391, 0.00829419, -0.00207475, -0.00207475, -0.00207475
1990, 1,0.00559815, 0.00149162, 0.00105779, 327.984, 91.5039, 0.0265744, 471.239, -150.77, 0.369664, 0.00101287, 0.0070797, 0.00517228, 418.938, -111.817, 0, 0.00101159, 0.00412344, 0.00308562, 237.414, -56.9545, 0, 0.00101069, -69.1038, 15.8981, 388.658, -50.7015, 8.54814, 213.017, -0.00319113, -0.00151832, 0.00652362, -0.00194467, -0.00194467, -0.00194467
1991, 1,0.00541261, 0.000871193, 0.000645998, 276.223, 50.1815, 0.0345755, 468.589, -150.087, 0.52147, 0.00104658, 0.00624977, 0.00469559, 324.707, -97.1081, 0.020588, 0.00104466, 0.00458828, 0.00345432, 228.498, -68.711, 0.0197843, 0.00104417, -45.4587, 30.9525, 305.83, -29.0923, 29.0536, 206.172, -0.00307404, -0.00125484, 0.00592262, -0.00224048, -0.00224048, -0.00224048
1992, 1,0.00460648, 0.000576242, 0.000525722, 244.81, 25.4281, 0.0424704, 328.989, -108.4, 0.733433, 0.00108009, 0.00491998, 0.00351525, 258.183, -78.8, 0.0127822, 0.00107827, 0.00436715, 0.00313453, 234.818, -75.4533, 0.0125894, 0.00107821, -19.1441, -1.08203, 256.626, -14.3497, 9.65413, 231.055, -0.00194213, -0.0015908, 0.00482042, -0.0017945, -0.0017945, -0.0017945
1993, 1,0.0112518, 0.00278314, 0.00199175, 352.865, 117.642, 0.0145904, 464.38, -149.462, 0.141262, 0.000980393, 0.0140296, 0.010046, 470.484, -165.099, 0.132349, 0.000980648, 0.00847748, 0.00608049, 235.269, -83.0318, 0.0990595, 0.000979212, 3.19834, 35.0496, 457.048, 5.09709, 15.9084, 228.09, -0.00594858, -0.00462157, 0.0134626, -0.00360236, -0.00360236, -0.00360236
1994, 1,0.0102263, 0.00194288, 0.00135614, 355.957, 110.842, 0.0246793, 476.439, -161.821, 0.33568, 0.0010136, 0.0121495, 0.00866417, 466.567, -163.534, 0.0971528, 0.00101317, 0.00831133, 0.00606901, 245.568, -92.8357, 0.0954898, 0.00101194, 5.41437, 45.1189, 440.069, 16.1173, 34.7788, 227.611, -0.00490683, -0.00353375, 0.0112461, -0.00336877, -0.00336877, -0.00336877
1995, 1,0.00822314, 0.00119156, 0.000860707, 354.707, 68.2428, 0.033246, 458.878, -157.015, 0.506943, 0.00104707, 0.00935049, 0.00669508, 421.514, -149.342, 0.0577772, 0.00104597, 0.00711505, 0.00509277, 288.602, -107.416, 0.0577772, 0.00104523, -0.565429, 42.5212, 406.071, 13.0469, 38.8483, 270.352, -0.00386636, -0.00261174, 0.00898197, -0.00281337, -0.00281337, -0.00281337
1996, 1,0.00672203, 0.000814241, 0.000730329, 271.005, 29.5841, 0.0415124, 336.801, -112.927, 0.712923, 0.00108038, 0.00713857, 0.00513347, 290.185, -97.955, 0.0512878, 0.00107886, 0.00640707, 0.00465473, 254.926, -90.1741, 0.0512878, 0.00107872, -8.88503, 15.6551, 287.095, -3.64734, 22.06, 252.11, -0.00304802, -0.00228783, 0.00697197, -0.00284081, -0.00284081, -0.00284081
1997, 1,0.0167073, 0.00362621, 0.0026032, 355.841, 119.602, 0.0125763, 458.968, -142.288, 0.101531, 0.000981164, 0.0203304, 0.0149923, 475.436, -171.097, 0.255741, 0.00098194, 0.0130859, 0.00991963, 236.251, -83.2965, 0.194775, 0.000980252, 28.1295, 20.6854, 464.477, 16.3198, 2.87376, 230.696, -0.00795483, -0.00845443, 0.0196477, -0.00499394, -0.00499394, -0.00499394
1998, 1,0.0148633, 0.00277352, 0.00190267, 365.574, 118.295, 0.0218969, 472.063, -155.894, 0.281962, 0.00101423, 0.0176325, 0.0128604, 483.82, -188.05, 0.205903, 0.00101469, 0.0120961, 0.00909764, 247.377, -100.67, 0.176318, 0.00101303, 48.5564, 46.4118, 469.181, 34.2118, 29.1442, 238.655, -0.00662045, -0.00680882, 0.0168767, -0.00459961, -0.00459961, -0.00459961
1999, 1,0.0115529, 0.00162563, 0.00110205, 376.438, 92.0689, 0.0308063, 412.02, -121.689, 0.475768, 0.00104697, 0.0130985, 0.00952121, 467.629, -166.348, 0.117411, 0.00104718, 0.0100301, 0.00748661, 285.807, -102.944, 0.117411, 0.00104603, 18.1184, 24.5135, 456.413, 16.4708, 19.1596, 273.202, -0.00499891, -0.00483875, 0.0127262, -0.00386495, -0.00386495, -0.00386495
2000, 1,0.00887706, 0.000922805, 0.00082233, 288.327, 30.6081, 0.0399944, 303.257, -92.9106, 0.698493, 0.00108031, 0.00934194, 0.00676786, 311.028, -104.716, 0.089401, 0.00107958, 0.00850337, 0.0061423, 267.786, -93.9135, 0.089401, 0.00107938, 3.2031, 0.848092, 310.096, 6.95733, 8.95828, 265.825, -0.00364057, -0.00384401, 0.00927298, -0.00341359, -0.00341359, -0.00341359
2001, 1,0.0176794, 0.00406442, 0.00294103, 362.953, 120.612, 0.0127892, 448.942, -128.931, 0.106383, 0.00100082, 0.0217388, 0.0163628, 483.52, -185.135, 0.285713, 0.00100218, 0.0136228, 0.010584, 242.433, -94.8917, 0.209194, 0.00100035, 54.357, 26.7919, 474.257, 35.9551, 10.438, 238.282, -0.00781093, -0.00974219, 0.021127, -0.00462923, -0.00462923, -0.00462923
2002, 1,0.0172551, 0.00315078, 0.0021856, 385.909, 121.397, 0.0228145, 459.261, -143.173, 0.303191, 0.00103456, 0.0204006, 0.0151602, 507.273, -227.506, 0.263876, 0.00103615, 0.0141116, 0.0108019, 264.58, -130.147, 0.221678, 0.00103417, 107.058, 74.6849, 500.775, 74.781, 55.0727, 260.588, -0.00671188, -0.00895997, 0.020001, -0.00467355, -0.00467355, -0.00467355
2003, 1,0.0147974, 0.00181881, 0.00123387, 393.945, 101.769, 0.0323361, 372.911, -110.509, 0.528252, 0.00106799, 0.0165477, 0.0122517, 495.376, -213.558, 0.188898, 0.00106941, 0.0130638, 0.00992933, 292.788, -137.741, 0.188898, 0.00106794, 88.3575, 63.6803, 488.635, 70.735, 56.3476, 286.14, -0.00545541, -0.00689933, 0.0162285, -0.00442813, -0.00442813, -0.00442813
2004, 1,0.00974979, 0.000704478, 0.000622913, 300.026, 26.2373, 0.0412174, 308.791, -89.3733, 0.719545, 0.00110194, 0.0100829, 0.00762487, 320.673, -116.566, 0.105601, 0.00110149, 0.00946144, 0.00712584, 280.344, -98.696, 0.105601, 0.00110115, 24.4912, 11.446, 313.761, 17.377, 12.7633, 265.948, -0.00353558, -0.00427821, 0.00982382, -0.00338648, -0.00338648, -0.00338648
2005, 1,0.0107389, -0.00408762, 0.00277645, -6.23529, -185.319, 0.0307845, -18.8378, 281.634, 0.908635, 0.000938778, 0.012199, 0.0193252, -8.43495, 283.154, 0.273975, 0.000942397, 0.00928064, 0.0137886, -3.98454, 149.273, 0.246584, 0.000944863, -74.2486, -33.7551, -741.457, -47.2342, -19.08, -381.506, 0.00883887, 0.0110133, -0.0252759, 0.00623054, 0.00623054, 0.00623054
2006, 1,0.0119363, -0.00401821, 0.00273276, -14.4778, -195.068, 0.0342879, -30.3414, 346.333, 0.901116, 0.000972863, 0.0133716, 0.0201652, -17.9576, 326.682, 0.273268, 0.00097779, 0.0105055, 0.0147385, -10.8928, 177.765, 0.253906, 0.000980622, -138.467, -48.4999, -793.079, -88.325, -30.1756, -414.795, 0.00733024, 0.0119642, -0.0255492, 0.00510223, 0.00510223, 0.00510223
2007, 1,0.012596, -0.00412204, 0.00280666, -11.8699, -194.326, 0.03492, -28.3552, 343.415, 0.919025, 0.00100605, 0.0140725, 0.021223, -15.4184, 318.989, 0.300646, 0.00101132, 0.0111242, 0.0156421, -8.21882, 171.121, 0.27912, 0.00101429, -127.535, -46.472, -782.96, -79.5752, -27.5312, -406.257, 0.00811286, 0.0125487, -0.0268812, 0.00577324, 0.00577324, 0.00577324
2008, 1,0.0124615, -0.00439346, 0.00297433, -16.3169, -185.475, 0.0325377, -36.5749, 319.771, 0.944973, 0.00103664, 0.0139932, 0.0221185, -19.065, 294.903, 0.338272, 0.00104192, 0.0109355, 0.0162271, -13.4552, 161.133, 0.306181, 0.00104478, -75.5071, -52.5474, -756.653, -51.9784, -35.9341, -395.485, 0.0107332, 0.0121798, -0.0288119, 0.00781387, 0.00781387, 0.00781387
2009, 1,0.00799316, -0.00330054, 0.00224846, 5.6057, -167.254, 0.0254393, -0.706803, 238.771, 0.793841, 0.000980353, 0.00916063, 0.015488, 8.8626, 230.574, 0.20404, 0.000983037, 0.00683664, 0.0110494, 2.61598, 121.3, 0.193485, 0.00098502, -11.505, -27.4764, -652.74, -9.32268, -21.2786, -333.298, 0.00829029, 0.00771559, -0.0202279, 0.006133, 0.006133, 0.006133
2010, 1,0.00827292, -0.00327841, 0.0022156, 14.1384, -171.729, 0.0261515, -1.19978, 267.073, 0.765384, 0.00101537, 0.00941232, 0.0150166, 17.9266, 248.903, 0.177543, 0.0010185, 0.00713763, 0.0106129, 10.492, 133.114, 0.167712, 0.00102064, -49.8899, -10.0837, -686.735, -36.8817, -7.71995, -354.739, 0.00665167, 0.0084106, -0.0195452, 0.00452711, 0.00452711, 0.00452711
2011, 1,0.00887769, -0.00344797, 0.00233605, 9.1905, -173.849, 0.0271653, 2.2474, 267.924, 0.784032, 0.00104967, 0.0100928, 0.0161492, 11.9984, 252.869, 0.205171, 0.00105293, 0.00766588, 0.0115051, 6.49752, 134.428, 0.191803, 0.00105523, -46.4621, -15.1284, -697.015, -33.1171, -11.1442, -359.023, 0.00752262, 0.00904476, -0.021201, 0.00527444, 0.00527444, 0.00527444
2012, 1,0.00967699, -0.00380272, 0.00260012, 10.1578, -172.184, 0.0279577, 3.46995, 252.206, 0.849572, 0.00108317, 0.0110187, 0.018087, 11.937, 233.202, 0.264343, 0.0010868, 0.00834701, 0.0129923, 8.64286, 118.231, 0.242179, 0.00108921, -10.6018, -23.339, -665.664, -6.38982, -16.2269, -332.077, 0.00987095, 0.00939252, -0.0237023, 0.00727406, 0.00727406, 0.00727406
2013, 1,0.00525591, -0.00267517, 0.00181668, 19.8139, -154.078, 0.0215539, 0.31364, 229.91, 0.672803, 0.000979845, 0.00620173, 0.0107068, 25.001, 208.402, 0.0908251, 0.000982211, 0.00431545, 0.00709861, 14.8844, 109.938, 0.0884247, 0.000983867, -0.147294, -31.2341, -593.823, -2.29426, -20.9, -306.621, 0.00543864, 0.00461719, -0.0136177, 0.00366321, 0.00366321, 0.00366321
2014, 1,0.00549473, -0.00268039, 0.00182633, 13.6413, -153.373, 0.0221735, 6.10829, 247.527, 0.657596, 0.00101428, 0.00636195, 0.0112136, 16.8749, 209.362, 0.106039, 0.00101706, 0.00462945, 0.0076722, 10.5307, 112.444, 0.104097, 0.00101876, 4.79913, -19.5147, -613.371, -2.62555, -12.8385, -321.869, 0.00598026, 0.00531118, -0.0149021, 0.00407546, 0.00407546, 0.00407546
2015, 1,0.00586912, -0.00279721, 0.00189892, 14.364, -160.57, 0.0233265, 9.63878, 251.157, 0.677592, 0.00104829, 0.00678689, 0.0116351, 19.0745, 224.322, 0.106484, 0.0010511, 0.00495472, 0.00793887, 9.83464, 122.575, 0.105093, 0.00105295, -10.0974, -20.6906, -642.178, -15.9447, -16.2591, -335.52, 0.00582776, 0.00565088, -0.0153483, 0.00385283, 0.00385283, 0.00385283
2016, 1,0.00683818, -0.00302997, 0.00206412, 13.813, -165.195, 0.0240125, 0.222107, 246.069, 0.747488, 0.00108221, 0.00789398, 0.0134285, 17.7189, 220.55, 0.153808, 0.0010854, 0.00579376, 0.00937271, 10.2342, 113.4, 0.148922, 0.00108747, -1.53724, -25.1825, -634.929, -2.36403, -17.5275, -320.31, 0.00714343, 0.0064483, -0.0175064, 0.00512242, 0.00512242, 0.00512242
2017, 1,0.00354739, -0.00234198, 0.00158485, 12.1826, -139.05, 0.0189884, -1.17735, 226.366, 0.583667, 0.000978977, 0.00435937, 0.00807849, 14.9463, 198.426, 0.0364534, 0.000981095, 0.00274241, 0.0049359, 9.71976, 108.723, 0.0336639, 0.000982557, 8.14732, -59.0579, -544.367, 5.70575, -41.1958, -290.678, 0.00421323, 0.00267608, -0.0101757, 0.00265382, 0.00265382, 0.00265382
2018, 1,0.00371084, -0.00235613, 0.00160915, 18.7101, -139.531, 0.0196971, -0.240455, 252.633, 0.576348, 0.00101305, 0.00457292, 0.00830535, 24.092, 191.361, 0.0410776, 0.00101595, 0.00284897, 0.00508843, 13.3478, 103.109, 0.0386582, 0.00101744, 19.5948, -33.3428, -560.336, 10.7598, -20.0938, -299.994, 0.00447902, 0.00326005, -0.0109169, 0.00279543, 0.00279543, 0.00279543
2019, 1,0.00423784, -0.00245091, 0.00166667, 16.6521, -145.123, 0.0209249, 3.6741, 253.355, 0.609222, 0.001047, 0.00511315, 0.00912152, 21.8126, 202.584, 0.0559996, 0.00104997, 0.00336688, 0.00580571, 11.6545, 110.743, 0.0544582, 0.00105159, 18.7491, -43.4651, -583.036, 9.2136, -30.2285, -311.216, 0.00503365, 0.0035044, -0.0119312, 0.00329437, 0.00329437, 0.00329437
2020, 1,0.00436916, -0.0025995, 0.0017546, 13.0341, -156.306, 0.0213258, -0.911046, 247.667, 0.652329, 0.00108131, 0.00526768, 0.0095639, 16.8977, 213.383, 0.0604873, 0.00108427, 0.00347567, 0.00608828, 9.49415, 113.116, 0.0604873, 0.0010861, 8.55989, -41.4913, -607.217, 4.35461, -27.7218, -315.98, 0.00503005, 0.00386106, -0.0124745, 0.00329745, 0.00329745, 0.00329745
2021, 1,0.002729, -0.0020425, 0.00137993, 21.7305, -125.348, 0.0169112, -4.62483, 226.951, 0.511691, 0.000978754, 0.00344353, 0.00640022, 24.5928, 179.422, 0.00350484, 0.000980946, 0.00201527, 0.00365085, 19.028, 98.637, 0.00194522, 0.000982237, 15.7882, -67.7797, -486.274, 13.5418, -48.7495, -260.703, 0.00327072, 0.00165368, -0.00784137, 0.00191146, 0.00191146, 0.00191146
2022, 1,0.00306059, -0.00209312, 0.00142551, 30.197, -127.123, 0.0183768, -3.64285, 263.608, 0.514878, 0.00101235, 0.00381529, 0.00682032, 34.3009, 179.641, 0.00944994, 0.00101546, 0.00230684, 0.00397345, 26.1378, 98.3422, 0.00742664, 0.00101681, 29.7491, -51.7825, -516.888, 22.8819, -34.9379, -282.971, 0.00373238, 0.00208119, -0.00874383, 0.00225217, 0.00225217, 0.00225217
2023, 1,0.00323081, -0.00218636, 0.00148558, 29.1008, -132.822, 0.0199028, 4.33016, 263.302, 0.549557, 0.00104634, 0.00400419, 0.007229, 32.9576, 179.978, 0.0177149, 0.0010497, 0.00246301, 0.00428105, 25.3599, 94.9616, 0.0160833, 0.00105117, 32.7531, -45.2723, -527.415, 25.3533, -28.231, -282.007, 0.00400322, 0.00238923, -0.00934196, 0.00245797, 0.00245797, 0.00245797
2024, 1,0.00332865, -0.00232221, 0.00156194, 28.4204, -144.682, 0.0198189, -5.02468, 252.041, 0.600283, 0.0010807, 0.00411839, 0.00759277, 30.6435, 198.628, 0.0129303, 0.00108385, 0.00254544, 0.00449526, 26.5366, 104.688, 0.0129303, 0.00108551, 25.0935, -54.1078, -566.87, 22.3811, -35.1686, -301.275, 0.00398814, 0.00244387, -0.0096785, 0.0024444, 0.0024444, 0.0024444
2025, 1,0.00225945, -0.0017997, 0.00121032, 9.67552, -112.93, 0.0149726, 0.162021, 226.874, 0.42594, 0.000978864, 0.00287947, 0.00550167, 11.9698, 165.244, 0, 0.000980968, 0.00164017, 0.00308891, 7.55303, 92.3544, 0, 0.000982129, 5.12831, -72.511, -428.349, 2.89468, -52.8003, -227.158, 0.00273917, 0.00128121, -0.00670162, 0.00154405, 0.00154405, 0.00154405
2026, 1,0.00263261, -0.00186823, 0.00126765, 30.0586, -116.726, 0.0161971, -3.97386, 274.299, 0.421701, 0.00101236, 0.00329765, 0.00594527, 33.7855, 162.728, 7.97872E-05, 0.00101559, 0.00196911, 0.00341702, 26.3862, 88.2992, 5.08517E-06, 0.00101681, 31.646, -53.5493, -466.28, 25.5326, -37.0756, -253.355, 0.00326405, 0.00162139, -0.00752603, 0.00196065, 0.00196065, 0.00196065
2027, 1,0.00259586, -0.00197609, 0.00133796, 25.23, -123.174, 0.0178739, 3.78389, 269.493, 0.469507, 0.00104632, 0.00329008, 0.00613234, 28.3274, 169.358, 0.000740654, 0.00104965, 0.00190452, 0.00346846, 22.192, 90.1856, 0.000263079, 0.001051, 27.3753, -51.1465, -484.304, 21.934, -33.8016, -258.689, 0.00327813, 0.00182233, -0.00784968, 0.001904, 0.001904, 0.001904
2028, 1,0.00257492, -0.00211477, 0.00141857, 8.83536, -133.325, 0.0176374, -3.79734, 254.829, 0.510869, 0.00108076, 0.00329146, 0.00636894, 10.299, 194.566, 0, 0.0010836, 0.00186279, 0.00354798, 7.68829, 107.491, 0, 0.00108513, 5.56477, -73.6523, -515.609, 3.9189, -53.5195, -272.871, 0.00318304, 0.00177487, -0.00811504, 0.0017773, 0.0017773, 0.0017773
2029, 1,0.00219152, -0.0016244, 0.00108763, 21.0654, -102.09, 0.011061, 2.00683, 219.461, 0.290953, 0.000979476, 0.00273892, 0.00508379, 22.2309, 141.808, 0, 0.000981388, 0.00164479, 0.00292426, 19.9562, 75.4443, 0, 0.000982445, 20.2961, -64.8477, -380.873, 19.3511, -46.0393, -199.645, 0.00269268, 0.00103974, -0.00603345, 0.00162745, 0.00162745, 0.00162745
2030, 1,0.00211518, -0.00170202, 0.00114869, 8.42764, -106.932, 0.0121047, -3.47965, 268.338, 0.28565, 0.00101304, 0.00271016, 0.00518031, 10.7452, 156.402, 0, 0.00101572, 0.00152048, 0.00288515, 6.14072, 87.1265, 0, 0.00101686, 7.56538, -57.6629, -419.109, 4.27029, -40.1551, -225.495, 0.00265427, 0.00140795, -0.00660012, 0.00149352, 0.00149352, 0.00149352
2031, 1,0.00217563, -0.00181921, 0.00122645, 11.1092, -114.349, 0.0135849, 7.16067, 260.002, 0.330233, 0.00104717, 0.00279722, 0.00542465, 13.0361, 159.721, 0, 0.00104987, 0.00156126, 0.00299881, 9.33224, 85.6863, 0, 0.00105113, 12.618, -56.6285, -435.151, 9.26353, -39.0624, -227.26, 0.0027932, 0.00151669, -0.00690161, 0.00155656, 0.00155656, 0.00155656
2032, 1,0.00238942, -0.00195406, 0.00130799, 15.629, -123.282, 0.0136249, -2.97903, 247.935, 0.374074, 0.00108135, 0.00304557, 0.00580428, 16.5574, 170.803, 0, 0.00108386, 0.00173499, 0.00320243, 14.7596, 90.0833, 0, 0.00108528, 14.4487, -68.2813, -458.575, 13.4063, -48.6061, -235.05, 0.00299741, 0.00149211, -0.00726107, 0.00170454, 0.00170454, 0.00170454
2033, 1,0.00175235, -0.00147075, 0.000983884, -3.9192, -92.3438, 0.00708209, 11.6833, 201.308, 0.139961, 0.00097981, 0.00224698, 0.0043913, -2.81956, 143.305, 0, 0.000981004, 0.00125977, 0.00243717, -4.77835, 83.0828, 0, 0.000981963, -11.1855, -71.5659, -347.164, -11.5633, -53.2924, -184.393, 0.00204567, 0.000867055, -0.00523811, 0.00108902, 0.00108902, 0.00108902
2034, 1,0.00200057, -0.00156265, 0.00104989, 12.8747, -98.2002, 0.00733674, -0.123847, 237.462, 0.139248, 0.00101362, 0.00253721, 0.00474979, 14.4544, 140.083, 0, 0.00101555, 0.00146419, 0.00265338, 11.3, 76.087, 0, 0.0010166, 11.9471, -54.4031, -377.793, 10.1534, -37.2629, -201.152, 0.00248804, 0.00117416, -0.00593528, 0.00144215, 0.00144215, 0.00144215
2035, 1,0.00192205, -0.00168338, 0.00112864, 9.74586, -105.868, 0.00800859, 6.92555, 232.576, 0.162723, 0.00104794, 0.00247103, 0.00483067, 10.3055, 143.541, 0, 0.00104985, 0.00137487, 0.00260501, 9.46769, 74.4889, 0, 0.00105103, 5.76107, -49.7386, -386.645, 3.97014, -31.8894, -195.548, 0.00239667, 0.00135173, -0.0060776, 0.00127151, 0.00127151, 0.00127151
2036, 1,0.002078, -0.00182028, 0.00121786, 5.41859, -114.703, 0.0090261, 12.7769, 231.997, 0.193067, 0.00108221, 0.00268576, 0.00519372, 6.21875, 160.94, 0, 0.00108395, 0.00147701, 0.00278038, 5.18563, 85.7114, 0, 0.00108528, -2.92262, -65.3146, -414.583, -3.31503, -46.2782, -207.541, 0.00247629, 0.00133762, -0.00642548, 0.0012836, 0.0012836, 0.0012836
2037, 1,0.00173379, -0.00132744, 0.000886914, 12.2553, -83.3694, 0.00488049, 25.4452, 177.151, 0.0570751, 0.000980189, 0.0021766, 0.00412149, 12.8201, 118.685, -2.71051E-20, 0.000981212, 0.00129118, 0.0023583, 11.7143, 64.0385, -2.71051E-20, 0.000982083, 10.8422, -53.4402, -313.457, 10.9352, -35.9134, -167.137, 0.00211846, 0.00082384, -0.00486817, 0.00125951, 0.00125951, 0.00125951
2038, 1,0.00168948, -0.00143413, 0.000960092, 2.91457, -90.1136, 0.00504998, 53.7426, 193.477, 0.030216, 0.0010143, 0.00217095, 0.00418456, 3.82526, 130.913, 0, 0.00101538, 0.00120852, 0.00227287, 2.04098, 71.8904, 0, 0.00101636, -1.48683, -53.6059, -337.647, -2.19923, -36.5885, -176.884, 0.00205633, 0.00100784, -0.00518848, 0.00111162, 0.00111162, 0.00111162
2039, 1,0.00168154, -0.00156448, 0.00104496, 2.13107, -98.2938, 0.00547228, 50.4072, 198.167, 0.0459424, 0.00104834, 0.0022021, 0.00439345, 2.78687, 135.888, 0, 0.00104949, 0.00116817, 0.00232082, 1.96856, 71.6504, 0, 0.00105058, 0.36842, -55.8918, -352.141, -0.414901, -38.416, -176.12, 0.00216552, 0.0010586, -0.00542915, 0.00113739, 0.00113739, 0.00113739
2040, 1,0.00189803, -0.00169816, 0.00113614, 8.06548, -106.92, 0.00572147, 28.2509, 217.691, 0.0627515, 0.00108236, 0.00245872, 0.00478743, 8.41261, 144.277, 0, 0.00108379, 0.00134082, 0.00254263, 7.85435, 74.0677, 0, 0.00108502, 7.13948, -61.868, -378.103, 7.0768, -43.1977, -186.082, 0.00243097, 0.00109869, -0.00587083, 0.00132425, 0.00132425, 0.00132425
2041, 1,0.00147294, -0.00119334, 0.000797182, 0.840478, -74.9266, 0.00323291, 34.5367, 157.619, 0, 0.000980259, 0.00187193, 0.00363919, 1.49463, 115.014, 0, 0.000980937, 0.00107552, 0.00205435, 0.332071, 65.8123, 0, 0.00098172, -7.17855, -53.7025, -284.16, -6.79709, -36.7996, -153.84, 0.00167452, 0.000736606, -0.00427745, 0.000907417, 0.000907417, 0.000907417
2042, 1,0.001538, -0.00131641, 0.00087985, 4.65561, -82.6428, 0.00390957, 61.1562, 164.953, 0, 0.00101456, 0.00198025, 0.00384512, 5.47381, 116.643, 0, 0.00101535, 0.00109634, 0.00209405, 3.89351, 62.5772, 0, 0.00101624, 1.65503, -50.8783, -300.705, 1.63161, -35.0347, -154.328, 0.00189721, 0.000828211, -0.00461818, 0.0010451, 0.0010451, 0.0010451
2043, 1,0.00159894, -0.00144609, 0.000966864, 3.18765, -90.8809, 0.00416441, 66.1022, 174.845, 0, 0.00104868, 0.00207688, 0.0041001, 3.64355, 126.115, 0, 0.00104951, 0.0011238, 0.00219013, 2.92416, 66.6019, 0, 0.00105052, 2.47697, -56.6397, -324.183, 2.37663, -39.747, -162.435, 0.00205897, 0.000874608, -0.00498003, 0.00111964, 0.00111964, 0.00111964
2044, 1,0.00161146, -0.00158461, 0.00105973, -0.248771, -99.7547, 0.00387544, 33.7376, 200.365, 0, 0.0010826, 0.00213799, 0.0042838, 0.350643, 135.139, 0, 0.00108374, 0.00109297, 0.00218902, -0.17241, 69.5856, 0, 0.0010849, -2.32123, -61.473, -341.621, -2.15693, -42.9098, -163.69, 0.00209105, 0.000938135, -0.00522207, 0.00106242, 0.00106242, 0.00106242
2045, 1,0.00134597, -0.00106463, 0.000713574, 3.25325, -66.7683, 0.0026025, 13.0226, 146.558, 0, 0.00097999, 0.00170505, 0.00332091, 4.02973, 100.91, 0, 0.000980716, 0.000988935, 0.00190556, 2.63622, 57.2057, 0, 0.000981412, -0.624134, -50.9535, -251.154, -0.118246, -35.3587, -136.14, 0.00159015, 0.000564649, -0.00379228, 0.000912199, 0.000912199, 0.000912199
2046, 1,0.00136398, -0.00119453, 0.000797353, 1.35007, -74.9829, 0.0031089, 32.8652, 152.125, 0, 0.00101432, 0.0017617, 0.00349317, 1.92813, 107.951, 0, 0.00101505, 0.000968355, 0.0019124, 1.18522, 58.9206, 0, 0.00101586, -1.52282, -49.7996, -272.529, -1.11712, -35.0563, -140.588, 0.00169298, 0.000709146, -0.00415384, 0.000929231, 0.000929231, 0.000929231
2047, 1,0.00143365, -0.00132752, 0.000886572, 1.92943, -83.4883, 0.00330878, 30.5711, 168.214, 0, 0.00104835, 0.00187123, 0.0037184, 2.32545, 114.424, 0, 0.00104927, 0.000996072, 0.00196374, 1.56557, 59.6599, 0, 0.0010502, 0.895274, -52.4897, -291.677, 1.14701, -36.0536, -144.073, 0.00184402, 0.00077304, -0.00447381, 0.000986915, 0.000986915, 0.000986915
2048, 1,0.00149027, -0.00147199, 0.000984562, 1.20579, -92.7018, 0.0032636, 10.0803, 193.419, 0, 0.00108227, 0.00197918, 0.0039596, 1.74, 123.291, 0, 0.0010835, 0.00100946, 0.00201495, 1.32708, 62.3436, 0, 0.00108457, -0.162088, -57.4547, -312.257, 0.137288, -39.4433, -147.725, 0.00195259, 0.000829176, -0.00478241, 0.000999345, 0.000999345, 0.000999345
2049, 1,0.00118693, -0.00093269, 0.000626229, 1.50872, -58.4402, 0.00218125, 8.79254, 125.569, 0, 0.000979905, 0.00150325, 0.00294936, 2.32104, 90.4893, 0, 0.000980463, 0.000872349, 0.00170827, 0.842444, 52.3353, 0, 0.00098107, -1.32974, -49.5627, -220.575, -0.765319, -35.0587, -121.182, 0.00141028, 0.000421695, -0.00330036, 0.000820943, 0.000820943, 0.000820943
2050, 1,0.00124391, -0.00107108, 0.000715473, 1.67447, -67.2214, 0.00252837, 17.3718, 136.067, 0, 0.00101412, 0.00160115, 0.00315272, 2.29993, 96.8252, 0, 0.00101477, 0.000887097, 0.00173521, 1.1674, 52.9072, 0, 0.00101549, -0.74649, -47.5015, -242.228, -0.139132, -33.6779, -124.905, 0.0015345, 0.000575984, -0.00368168, 0.000855503, 0.000855503, 0.000855503
2051, 1,0.00128877, -0.00121092, 0.000809015, 0.939213, -76.1706, 0.00276663, 17.1895, 151.83, 0, 0.00104816, 0.00168801, 0.00336402, 1.42477, 104.292, 0, 0.00104897, 0.000889869, 0.00176468, 0.865029, 54.3294, 0, 0.00104982, -0.555329, -50.4071, -261.915, -0.10473, -34.6882, -128.195, 0.00165545, 0.000651171, -0.00399897, 0.000878148, 0.000878148, 0.000878148
2052, 1,0.00135234, -0.00136156, 0.000910942, 1.01137, -85.7578, 0.00288116, 7.99115, 172.014, 0, 0.00108214, 0.00180434, 0.00361202, 1.52747, 112.667, 0, 0.00108318, 0.000907723, 0.00181442, 1.16523, 56.3069, 0, 0.00108417, -0.554504, -55.0144, -282.431, -0.197957, -37.606, -131.117, 0.00177797, 0.000705727, -0.00431194, 0.000898217, 0.000898217, 0.000898217
2053, 1,0.00105764, -0.00079979, 0.000537971, 1.77086, -50.0567, 0.00181441, 4.32346, 108.28, 0, 0.00097977, 0.00133106, 0.00259801, 2.62162, 79.1784, 0, 0.000980232, 0.000785447, 0.00153156, 1.01791, 46.6049, 0, 0.000980751, -1.10053, -45.9087, -190.526, -0.506888, -32.6263, -106.681, 0.00123649, 0.000313414, -0.00283475, 0.00073561, 0.00073561, 0.00073561
2054, 1,0.00110426, -0.000947167, 0.000632928, 1.30763, -59.419, 0.00210993, 9.39033, 120.243, 0, 0.0010139, 0.00142105, 0.00279923, 1.93616, 85.9121, 0, 0.00101447, 0.000787752, 0.00154567, 0.879046, 47.1598, 0, 0.0010151, -1.08244, -44.1383, -212.516, -0.374053, -31.3332, -109.772, 0.00135575, 0.000468845, -0.0032187, 0.000760215, 0.000760215, 0.000760215
2055, 1,0.00115522, -0.00109453, 0.000731418, 0.922353, -68.8502, 0.00235321, 9.67201, 135.711, 0, 0.00104793, 0.00151635, 0.00301719, 1.39638, 93.4257, 0, 0.00104865, 0.00079441, 0.00157224, 0.861555, 48.2932, 0, 0.00104942, -0.695742, -47.3386, -232.243, -0.146125, -32.4375, -112.296, 0.00148234, 0.000538339, -0.0035367, 0.000783208, 0.000783208, 0.000783208
2056, 1,0.00121363, -0.00125158, 0.000837643, 0.988696, -78.8344, 0.00251758, 4.21826, 154.115, 0, 0.00108193, 0.00162914, 0.00326176, 1.473, 101.771, 0, 0.00108285, 0.000805633, 0.00161082, 1.18733, 49.991, 0, 0.00108376, -0.651151, -52.0616, -252.6, -0.269165, -35.3066, -114.397, 0.00160504, 0.000588723, -0.0038452, 0.000797984, 0.000797984, 0.000797984
2057, 1,0.000928407, -0.000667388, 0.000450298, 1.82049, -41.689, 0.00152021, 2.32241, 92.0987, 0, 0.000979612, 0.00115981, 0.0022486, 2.75513, 68.0791, 0, 0.000979993, 0.000697794, 0.0013554, 0.952585, 41.109, 0, 0.000980422, -1.18429, -42.1969, -160.856, -0.582637, -30.2517, -92.4926, 0.00105972, 0.000210778, -0.00237524, 0.000647202, 0.000647202, 0.000647202
2058, 1,0.000972967, -0.000823531, 0.000550638, 1.29687, -51.6182, 0.00176605, 4.23296, 105.285, 0, 0.00101367, 0.00124979, 0.00245199, 1.95612, 74.9682, 0, 0.00101417, 0.000696287, 0.00136168, 0.821777, 41.4105, 0, 0.00101472, -1.18606, -40.5262, -183.192, -0.426179, -28.8583, -94.9469, 0.00118158, 0.000366935, -0.00276503, 0.000668911, 0.000668911, 0.000668911
2059, 1,0.00102103, -0.000978127, 0.000653704, 0.822172, -61.5205, 0.00200321, 4.67585, 120.345, 0, 0.00104771, 0.00134415, 0.00267008, 1.28835, 82.6026, 0, 0.00104835, 0.000698147, 0.00137923, 0.763837, 42.3209, 0, 0.00104903, -0.851299, -43.8768, -203.08, -0.253771, -29.8802, -96.8286, 0.0013095, 0.00043481, -0.0030847, 0.000687766, 0.000687766, 0.000687766
2060, 1,0.00107387, -0.00114173, 0.000764341, 0.862203, -71.9196, 0.00221885, 2.63259, 137.623, 0, 0.00108171, 0.00145254, 0.0029113, 1.31326, 90.8833, 0, 0.00108253, 0.000702195, 0.00140665, 1.0999, 43.6735, 0, 0.00108336, -0.630548, -48.7342, -223.285, -0.240774, -32.6877, -98.092, 0.00143463, 0.000480482, -0.00338989, 0.000699751, 0.000699751, 0.000699751
2061, 1,0.00080302, -0.00053591, 0.000363657, 2.02387, -33.3593, 0.00126664, 2.21984, 76.3322, 0, 0.000979434, 0.000993557, 0.00190353, 3.09837, 56.9055, 0, 0.000979743, 0.000612834, 0.00118144, 0.981748, 35.5514, 0, 0.000980083, -1.17502, -38.1313, -131.41, -0.572448, -27.6147, -78.4672, 0.000884005, 0.000114602, -0.00192203, 0.000559881, 0.000559881, 0.000559881
2062, 1,0.000843432, -0.000700233, 0.000468932, 1.34648, -43.8234, 0.00147245, 1.57219, 90.3996, 0, 0.00101346, 0.00108089, 0.00210689, 2.06749, 64.0129, 0, 0.00101389, 0.00060602, 0.00117888, 0.790756, 35.6697, 0, 0.00101436, -1.27141, -36.5632, -154.204, -0.483892, -26.1217, -80.4035, 0.00100784, 0.000272047, -0.00231864, 0.000577848, 0.000577848, 0.000577848
2063, 1,0.000888759, -0.000861874, 0.000576042, 0.843909, -54.1908, 0.00170539, 2.23497, 105.448, 0, 0.00104748, 0.0011741, 0.00232463, 1.31452, 71.7002, 0, 0.00104805, 0.000603603, 0.00118748, 0.74524, 36.2801, 0, 0.00104865, -0.875208, -39.9967, -174.229, -0.251779, -26.9891, -81.5994, 0.00113821, 0.000338724, -0.00264041, 0.00059358, 0.00059358, 0.00059358
2064, 1,0.00093704, -0.0010321, 0.000691146, 0.841704, -65.0158, 0.00196551, 2.28302, 122.198, 0, 0.00108148, 0.00127832, 0.00256272, 1.25979, 79.9622, 0, 0.00108222, 0.000602095, 0.00120455, 1.11673, 37.3131, 0, 0.00108297, -0.594052, -44.9274, -194.365, -0.20451, -29.6553, -82.0795, 0.00126399, 0.000382038, -0.00294358, 0.000600961, 0.000600961, 0.000600961
2065, 1,0.000680803, -0.000406407, 0.000279141, 2.33902, -25.1189, 0.00102399, 2.58636, 60.4969, 0, 0.000979242, 0.000832545, 0.00156328, 3.64972, 45.708, 0, 0.000979477, 0.00052913, 0.00100851, 1.0375, 29.9838, 0, 0.000979727, -1.17393, -33.7599, -102.19, -0.575548, -24.75, -64.626, 0.000707861, 2.41187E-05, -0.0014737, 0.000472235, 0.000472235, 0.000472235
2066, 1,0.000715884, -0.000577647, 0.000388312, 1.49499, -36.0548, 0.001224, 1.64207, 75.2655, 0, 0.00101325, 0.000914846, 0.00176447, 2.32099, 53.0278, 0, 0.00101361, 0.000516927, 0.000997262, 0.818381, 29.9136, 0, 0.00101399, -1.32682, -32.2675, -125.489, -0.521819, -23.1296, -66.0895, 0.000834416, 0.000183244, -0.00187815, 0.0004871, 0.0004871, 0.0004871
2067, 1,0.0007571, -0.000745861, 0.000498499, 0.895466, -46.8679, 0.00146221, 1.96698, 90.4787, 0, 0.00104725, 0.00100503, 0.00198069, 1.38472, 60.8351, 0, 0.00104775, 0.000509329, 0.000996656, 0.744306, 30.2818, 0, 0.00104827, -0.924787, -35.8082, -145.772, -0.284577, -23.8629, -66.6979, 0.000966958, 0.00024937, -0.0022035, 0.000499325, 0.000499325, 0.000499325
2068, 1,0.000802375, -0.000922797, 0.000618153, 0.83883, -58.1282, 0.0017294, 2.47447, 106.988, 0, 0.00108124, 0.00110648, 0.00221773, 1.22467, 69.1435, 0, 0.0010819, 0.000503816, 0.0010055, 1.1539, 31.0435, 0, 0.00108257, -0.581731, -40.8214, -166.027, -0.195066, -26.3936, -66.5418, 0.00109438, 0.00029135, -0.00250773, 0.000502967, 0.000502967, 0.000502967
2069, 1,0.000564537, -0.000281819, 0.000199709, 2.89747, -17.1141, 0.00079207, 3.26687, 44.7844, 0, 0.000979062, 0.000681557, 0.00123254, 4.63227, 34.472, 0, 0.000979226, 0.000447867, 0.000837695, 1.18286, 24.391, 0, 0.000979386, -1.15691, -29.1116, -73.1475, -0.565726, -21.6761, -50.9311, 0.000531477, -6.14576E-05, -0.00102942, 0.000384486, 0.000384486, 0.000384486
2070, 1,0.000590701, -0.000456594, 0.000309481, 1.76274, -28.3529, 0.000986178, 1.87927, 59.9453, 0, 0.00101304, 0.000752708, 0.00142578, 2.76844, 42.0136, 0, 0.00101333, 0.000428786, 0.000816634, 0.90293, 24.1423, 0, 0.00101363, -1.36498, -27.7039, -96.9719, -0.549201, -19.9361, -51.9416, 0.000660941, 9.92476E-05, -0.00144195, 0.000396373, 0.000396373, 0.000396373
2071, 1,0.000626513, -0.000630353, 0.0004214, 1.03484, -39.5648, 0.00122757, 2.14769, 75.3267, 0, 0.00104703, 0.000837619, 0.00163888, 1.56469, 49.9715, 0, 0.00104746, 0.000415561, 0.000807023, 0.824168, 24.2896, 0, 0.0010479, -0.962977, -31.3401, -117.611, -0.311257, -20.5269, -52.0306, 0.000795957, 0.000165581, -0.00177243, 0.000405276, 0.000405276, 0.000405276
2072, 1,0.000668546, -0.000813979, 0.000545521, 0.94323, -51.2643, 0.00149641, 2.87861, 91.6684, 0, 0.001081, 0.000937115, 0.00187575, 1.29675, 58.346, 0, 0.00108158, 0.000407026, 0.00080885, 1.32537, 24.7842, 0, 0.00108217, -0.552046, -36.4314, -138.055, -0.169597, -22.9154, -51.2675, 0.000925438, 0.000206703, -0.00207894, 0.000405441, 0.000405441, 0.000405441
2073, 1,0.000459676, -0.000171774, 0.000134993, 3.90757, -9.82119, 0.000582436, 4.76161, 29.276, 0, 0.000978863, 0.00055129, 0.000922151, 6.49985, 23.2088, 0, 0.00097896, 0.000370701, 0.000670815, 1.46066, 18.7839, 0, 0.00097903, -1.13087, -24.2433, -44.2522, -0.549752, -18.4374, -37.3645, 0.000354841, -0.000143001, -0.000588467, 0.000296621, 0.000296621, 0.000296621
2074, 1,0.000470344, -0.000338921, 0.0002342, 2.25532, -20.8077, 0.000754563, 2.39233, 44.5669, 0, 0.00101283, 0.000598455, 0.00109473, 3.58987, 30.9741, 0, 0.00101306, 0.000342726, 0.000638082, 1.08033, 18.3585, 0, 0.00101326, -1.38145, -22.921, -68.6199, -0.56002, -16.5762, -37.9392, 0.000487514, 1.92092E-05, -0.00100935, 0.000305781, 0.000305781, 0.000305781
2075, 1,0.000497203, -0.000515753, 0.000345595, 1.27692, -32.3013, 0.00099397, 2.55174, 59.9634, 0, 0.00104681, 0.000672408, 0.00129969, 1.88256, 39.1035, 0, 0.00104716, 0.000322142, 0.000618528, 1.00102, 18.2975, 0, 0.00104752, -0.981231, -26.6597, -89.6695, -0.321993, -17.0365, -37.534, 0.000625283, 8.58801E-05, -0.0013457, 0.000311535, 0.000311535, 0.000311535
2076, 1,0.000535573, -0.000705732, 0.000473334, 1.13585, -44.4281, 0.00126243, 3.42949, 76.0885, 0, 0.00108077, 0.000769867, 0.00153674, 1.45244, 47.6001, 0, 0.00108127, 0.000313008, 0.000615719, 1.65032, 18.5663, 0, 0.00108178, -0.53172, -31.8368, -110.432, -0.154538, -19.2907, -36.2537, 0.000757099, 0.00012685, -0.00165637, 0.000308333, 0.000308333, 0.000308333
2077, 1,0.00038065, 0.000122772, 0.000114056, 5.99268, 6.33417, 0.000431942, 8.76826, 13.9853, 0, 0.000978671, 0.000471773, 0.000662199, 10.6616, 11.9205, 0, 0.000978704, 0.000301741, 0.000512047, 2.00758, 13.1652, 0, 0.000978684, -1.09542, -19.2009, -15.465, -0.526779, -15.0686, -23.9003, 0.000177976, -0.000221362, -0.000150063, 0.00020868, 0.00020868, 0.00020868
2078, 1,0.000360875, -0.000229704, 0.000167503, 3.26138, -13.6647, 0.000536371, 3.50186, 29.1865, 0, 0.00101263, 0.000462294, 0.000781519, 5.27798, 19.9026, 0, 0.00101279, 0.000261233, 0.000464153, 1.47303, 12.5558, 0, 0.00101291, -1.37379, -17.9574, -40.3767, -0.551853, -13.0782, -24.0375, 0.000314047, -5.77007E-05, -0.000579312, 0.000215245, 0.000215245, 0.000215245
2079, 1,0.000371001, -0.000402879, 0.00027196, 1.74459, -25.1172, 0.000764285, 3.2769, 44.4298, 0, 0.00104659, 0.00051203, 0.00096555, 2.49052, 28.2207, 0, 0.00104687, 0.000230007, 0.00043236, 1.39025, 12.2951, 0, 0.00104714, -0.974671, -21.8027, -61.8846, -0.311665, -13.4159, -23.1577, 0.000454857, 9.40925E-06, -0.000922203, 0.000218032, 0.000218032, 0.000218032
2080, 1,0.000406519, -0.000598276, 0.000401806, 1.52782, -37.6305, 0.00103027, 4.24513, 60.275, 0, 0.00108054, 0.000605802, 0.00120124, 1.78484, 36.8593, 0, 0.00108095, 0.000225545, 0.000429132, 2.36233, 12.3438, 0, 0.00108138, -0.494598, -27.0646, -83.0186, -0.123511, -15.5375, -21.3705, 0.000589165, 5.05161E-05, -0.00123781, 0.000211457, 0.000211457, 0.000211457
2081, 1,0.00036779, 0.000210294, 0.000155926, 11.2274, 12.6573, 0.000498994, 23.2575, -1.11543, 0, 0.000978451, 0.000523584, 0.000533278, 21.456, 0.608848, 0, 0.000978424, 0.000251701, 0.000372134, 3.24694, 7.53745, 0, 0.000978314, -1.05248, -14.0326, 13.2585, -0.498936, -11.6057, -10.5077, 8.60411E-07, -0.000297453, 0.0002867, 0.000120647, 0.000120647, 0.000120647
2082, 1,0.000282571, -0.000143989, 0.000124414, 5.79655, -7.64629, 0.000363238, 6.7111, 13.8208, 0, 0.0010124, 0.000378258, 0.00052017, 9.55394, 8.80027, 0, 0.00101248, 0.000192611, 0.000303234, 2.48181, 6.73599, 0, 0.00101251, -1.348, -12.8638, -12.189, -0.530706, -9.48096, -10.1963, 0.000140411, -0.000132455, -0.000150761, 0.000124638, 0.000124638, 0.000124638
2083, 1,0.000254266, -0.000293712, 0.000202153, 2.83499, -18.108, 0.000549061, 4.80557, 28.7681, 0, 0.00104636, 0.000364556, 0.000644437, 3.8418, 17.3174, 0, 0.00104655, 0.000144921, 0.000254957, 2.45263, 6.27745, 0, 0.00104674, -0.948522, -16.8083, -34.1953, -0.286323, -9.69389, -8.85212, 0.000284458, -6.46593E-05, -0.000500806, 0.000124538, 0.000124538, 0.000124538
2084, 1,0.000285708, -0.000491922, 0.000331259, 2.31985, -30.8866, 0.000808223, 5.70192, 44.2548, 0, 0.0010803, 0.000447514, 0.000871689, 2.42494, 26.1285, 0, 0.00108062, 0.000156846, 0.000261225, 4.13121, 6.12206, 0, 0.00108097, -0.450454, -22.1658, -55.7694, -0.0862062, -11.6938, -6.58614, 0.000421501, -2.32141E-05, -0.00082229, 0.000114687, 0.000114687, 0.000114687
2085, 1,0.000496935, 0.000328662, 0.000228504, 24.2306, 20.4165, 0.000957338, 56.8733, -16.037, 0, 0.000978235, 0.000794832, 0.000623496, 43.7674, -10.7253, 0, 0.000978151, 0.000250497, 0.00028101, 6.84756, 1.90149, 0, 0.00097795, -1.00384, -8.78827, 41.968, -0.467636, -8.08581, 2.84898, -0.000176541, -0.00037225, 0.000722821, 3.24989E-05, 3.24989E-05, 3.24989E-05
2086, 1,0.000312131, 0.0001543, 0.000131153, 14.1132, 8.58045, 0.000427174, 21.4912, -1.52072, 0, 0.00101217, 0.000458847, 0.000423156, 22.4232, -2.33385, 0, 0.00101219, 0.000174468, 0.000193031, 6.26769, 0.898479, 0, 0.00101213, -1.30853, -7.68761, 15.9977, -0.501486, -5.8201, 3.62615, -3.35235E-05, -0.000205985, 0.000277379, 3.38306E-05, 3.38306E-05, 3.38306E-05
2087, 1,0.00018251, -0.000193965, 0.000141803, 6.57255, -11.5473, 0.000391567, 9.24249, 13.0039, 0, 0.00104612, 0.000266436, 0.000372766, 7.92345, 6.39269, 0, 0.00104623, 0.00012084, 0.000138077, 6.90384, 0.243873, 0, 0.00104634, -0.909722, -11.7247, -6.54366, -0.252634, -5.90814, 5.42916, 0.000113907, -0.000137275, -8.03628E-05, 3.08828E-05, 3.08828E-05, 3.08828E-05
2088, 1,0.000188706, -0.000387365, 0.000262422, 4.42757, -24.2298, 0.000616382, 8.75019, 28.0384, 0, 0.00108006, 0.000304699, 0.00055765, 3.8991, 15.4036, 0, 0.00108028, 0.000170903, 0.000176014, 9.86094, -0.103103, 0, 0.00108055, -0.401694, -17.1749, -28.6343, -0.0452357, -7.78575, 8.14029, 0.000253981, -9.50548E-05, -0.000408896, 1.78926E-05, 1.78926E-05, 1.78926E-05
2089, 1,0.000773146, 0.000457187, 0.000311113, 44.7591, 28.6552, 0.00158369, 97.8871, -30.7832, 0, 0.000978014, 0.0012201, 0.000867408, 73.2814, -22.0831, 0, 0.000977876, 0.000348871, 0.000289401, 16.6032, -3.7432, 0, 0.000977585, -0.949248, -3.51642, 70.715, -0.432968, -4.54474, 16.2073, -0.000354245, -0.000446724, 0.0011593, -5.57808E-05, -5.57808E-05, -5.57808E-05
2090, 1,0.000547389, 0.000248463, 0.000182508, 32.8177, 15.0423, 0.000959647, 58.5902, -16.8316, 0, 0.00101196, 0.000794738, 0.000581128, 47.7706, -13.5009, 0, 0.0010119, 0.000301735, 0.000228472, 18.0227, -4.95744, 0, 0.00101176, -1.25649, -2.47827, 44.2376, -0.465542, -2.13344, 17.4713, -0.00020781, -0.000279279, 0.000706171, -5.72305E-05, -5.72305E-05, -5.72305E-05
2091, 1,0.000327545, -0.000120918, 0.00010817, 20.8374, -6.25498, 0.000523124, 27.7033, -2.85256, 0, 0.0010459, 0.00039045, 0.000323198, 23.0884, -4.55522, 0, 0.00104593, 0.000298331, 0.000220321, 20.1586, -5.80704, 0, 0.00104595, -0.859721, -6.59985, 21.1252, -0.212588, -2.09639, 19.7301, -5.68747E-05, -0.000209391, 0.000340189, -6.30176E-05, -6.30176E-05, -6.30176E-05
2092, 1,0.000216028, -0.000286222, 0.00019698, 12.4774, -17.7366, 0.000530019, 16.9475, 11.6273, 0, 0.00107983, 0.000226203, 0.000307961, 8.66553, 4.68473, 0, 0.00107995, 0.00036271, 0.000268465, 23.1555, -6.33108, 0, 0.00108015, -0.351434, -12.1443, -1.55844, -0.00352872, -3.85651, 22.8533, 8.65316E-05, -0.000166022, 3.45662E-06, -7.89879E-05, -7.89879E-05, -7.89879E-05
2093, 1,0.00112087, 0.000589755, 0.000397655, 68.2515, 37.0893, 0.00224682, 140.271, -45.3547, 0, 0.000977783, 0.00170752, 0.00117312, 105.338, -33.4663, 0, 0.000977594, 0.000540645, 0.000391107, 31.1706, -9.39775, 0, 0.000977212, -0.887399, 1.73344, 99.5527, -0.3938, -1.01887, 29.6059, -0.000532252, -0.000521876, 0.00159718, -0.000144189, -0.000144189, -0.000144189
2094, 1,0.000895869, 0.000361596, 0.000252754, 56.2362, 22.4054, 0.00164258, 102.405, -32.1082, 0, 0.00101173, 0.00125679, 0.00086493, 78.5013, -24.7044, 0, 0.00101161, 0.000535918, 0.000370777, 34.1627, -10.835, 0, 0.00101138, -1.18486, 2.71604, 72.5821, -0.416039, 1.54261, 31.3785, -0.00038236, -0.000353338, 0.00113658, -0.000148457, -0.000148457, -0.000148457
2095, 1,0.000674383, 0.000151806, 0.000125126, 43.6574, 8.62455, 0.00110969, 67.4663, -18.7901, 0, 0.00104567, 0.000800439, 0.000559379, 50.9152, -15.5288, 0, 0.00104562, 0.000564436, 0.000390181, 37.1792, -11.8774, 0, 0.00104555, -0.795024, -1.4841, 48.8657, -0.162606, 1.70118, 34.0935, -0.000227864, -0.000282023, 0.000761882, -0.000157131, -0.000157131, -0.000157131
2096, 1,0.000503419, -0.000192953, 0.000139439, 31.9053, -11.6178, 0.000778179, 41.0147, -4.97913, 0, 0.00107959, 0.000421353, 0.000331906, 25.8263, -6.03452, 0, 0.00107961, 0.000631124, 0.000437391, 40.1459, -12.5677, 0, 0.00107972, -0.295721, -7.11923, 25.5185, 0.0427298, 0.0574323, 37.603, -8.08651E-05, -0.000237103, 0.000415876, -0.000175968, -0.000175968, -0.000175968
2097, 1,0.0014968, 0.000724341, 0.000486117, 92.781, 45.6231, 0.00291794, 182.818, -59.7625, 0, 0.000977554, 0.00222019, 0.00150373, 138.385, -44.8794, 0, 0.000977318, 0.000775185, 0.000535493, 47.2133, -15.0669, 0, 0.000976846, -0.810853, 6.91579, 128.533, -0.342212, 2.45876, 43.0843, -0.000710482, -0.00059868, 0.00203742, -0.000232635, -0.000232635, -0.000232635
2098, 1,0.00127778, 0.000481957, 0.000330154, 80.9218, 30.1159, 0.00235529, 147.5, -47.3431, 0, 0.0010115, 0.00175841, 0.00118802, 110.837, -35.9445, 0, 0.00101131, 0.000798778, 0.000541424, 51.2477, -16.7345, 0, 0.001011, -1.08198, 7.84461, 101.071, -0.341061, 5.16828, 45.3762, -0.00055693, -0.000429166, 0.00156937, -0.000239603, -0.000239603, -0.000239603
2099, 1,0.00106228, 0.000244968, 0.000178836, 68.3269, 14.8735, 0.00183287, 113.584, -34.7913, 0, 0.00104544, 0.00128986, 0.00087461, 82.254, -26.5387, 0, 0.0010453, 0.000845489, 0.000574542, 54.9557, -17.9768, 0, 0.00104515, -0.695471, 3.5797, 76.7319, -0.0828086, 5.45128, 48.562, -0.000398796, -0.000356175, 0.00118562, -0.000251187, -0.000251187, -0.000251187
2100, 1,0.000878437, -0.00012101, 0.000103252, 55.6498, -6.51115, 0.00139307, 82.5042, -21.7839, 0, 0.00107936, 0.000857487, 0.000596794, 53.9924, -16.7546, 0, 0.00107927, 0.000916938, 0.000623552, 58.1349, -18.8125, 0, 0.0010793, -0.237767, -2.1566, 52.6583, 0.0904702, 3.90959, 52.4374, -0.0002483, -0.000309399, 0.000829565, -0.000273121, -0.000273121, -0.000273121
2101, 1,0.00188576, 0.000860092, 0.000575668, 117.785, 54.2157, 0.00359161, 225.339, -74.0314, 0, 0.000977323, 0.00274538, 0.00184638, 171.932, -56.3224, 0, 0.000977042, 0.00102693, 0.000696843, 63.7558, -20.7518, 0, 0.000976478, -0.737734, 11.9848, 157.72, -0.295237, 5.85511, 56.6955, -0.000889316, -0.000678046, 0.0024813, -0.0003215, -0.0003215, -0.0003215
2102, 1,0.00167106, 0.000605616, 0.000410783, 106.04, 37.9878, 0.00308038, 193.109, -62.5244, 0, 0.00101127, 0.00227463, 0.00152571, 143.772, -47.2153, 0, 0.00101102, 0.00106983, 0.000720069, 68.5958, -22.6492, 0, 0.00101061, -0.933133, 12.8612, 129.718, -0.225303, 8.70682, 59.4662, -0.000731116, -0.000507599, 0.00200489, -0.000330237, -0.000330237, -0.000330237
2103, 1,0.00145971, 0.000351951, 0.00024633, 93.4678, 21.7874, 0.00258971, 161.298, -50.8222, 0, 0.0010452, 0.00179795, 0.0012084, 114.477, -37.576, 0, 0.00104497, 0.00113034, 0.000762823, 72.9447, -24.0955, 0, 0.00104475, -0.536824, 8.531, 104.734, 0.0507131, 9.10247, 63.1333, -0.000569015, -0.000432921, 0.00161169, -0.000344517, -0.000344517, -0.000344517
2104, 1,0.00127075, 0.000129035, 0.00011102, 80.4031, 7.04558, 0.00213842, 130.24, -38.6432, 0, 0.00107911, 0.00134449, 0.000912353, 84.8347, -27.5234, 0, 0.00107892, 0.00120851, 0.000815192, 76.5114, -25.1115, 0, 0.00107888, -0.12368, 2.74067, 79.9532, 0.192984, 7.7049, 67.4367, -0.000415395, -0.000383632, 0.00124564, -0.000370053, -0.000370053, -0.000370053
2105, 1,0.00228313, 0.000996537, 0.000665843, 143.123, 62.8437, 0.00426842, 267.94, -88.2457, 0, 0.000977107, 0.00327907, 0.00219637, 205.842, -67.8014, 0, 0.000976783, 0.00128811, 0.000866665, 80.5981, -26.4605, 0, 0.000976128, -0.713877, 16.899, 187.219, -0.298696, 9.14152, 70.5386, -0.0010698, -0.000760903, 0.00293091, -0.000411855, -0.000411855, -0.000411855
2106, 1,0.00206937, 0.000731098, 0.00049319, 131.308, 45.95, 0.00382321, 239.515, -77.6669, 0, 0.00101105, 0.00279768, 0.00187047, 176.947, -58.4425, 0, 0.00101074, 0.0013441, 0.000901425, 86.0043, -28.5065, 0, 0.00101025, -0.884426, 17.6978, 158.514, -0.210233, 12.1034, 73.6264, -0.000906859, -0.000588886, 0.0024441, -0.000422229, -0.000422229, -0.000422229
2107, 1,0.00185705, 0.000464208, 0.000319048, 118.613, 28.957, 0.00336041, 209.569, -66.7303, 0, 0.00104495, 0.00230914, 0.00154663, 146.852, -48.6214, 0, 0.00104464, 0.00141311, 0.000950127, 90.8444, -30.2127, 0, 0.00104433, -0.229638, 13.3691, 132.725, 0.329552, 12.6606, 77.6478, -0.000736328, -0.000511893, 0.00203722, -0.000434862, -0.000434862, -0.000434862
2108, 1,0.00166954, 0.000210041, 0.000156211, 105.48, 12.5539, 0.00290876, 179.199, -55.537, 0, 0.00107884, 0.00184506, 0.00124266, 116.371, -38.2284, 0, 0.00107854, 0.00150361, 0.0010113, 95.0499, -31.3497, 0, 0.00107842, -0.00332764, 7.36425, 107.324, 0.298915, 11.2679, 82.4824, -0.000581399, -0.000462316, 0.00166404, -0.000466006, -0.000466006, -0.000466006
2109, 1,0.00268407, 0.00113337, 0.000756358, 168.642, 71.4905, 0.00494446, 310.543, -102.532, 0, 0.000976912, 0.00381648, 0.00254988, 239.955, -79.364, 0, 0.000976545, 0.00155305, 0.00104021, 97.5876, -32.246, 0, 0.000975799, -0.574599, 21.6627, 217.004, -0.185319, 12.333, 84.5904, -0.00124914, -0.000847845, 0.00338483, -0.000500949, -0.000500949, -0.000500949
2110, 1,0.00247838, 0.000857566, 0.000576505, 157.074, 53.9624, 0.0045971, 287.832, -93.424, 0, 0.00101085, 0.00333253, 0.00222363, 210.679, -69.7107, 0, 0.00101046, 0.00162785, 0.00108894, 103.845, -34.392, 0, 0.00100988, -1.07749, 22.2726, 187.937, -0.439631, 15.2951, 88.3206, -0.00108839, -0.000676125, 0.00289572, -0.000519881, -0.000519881, -0.000519881
2111, 1,0.00224531, 0.000579343, 0.00039467, 142.928, 36.2667, 0.00415337, 258.25, -81.7895, 0, 0.0010447, 0.00281259, 0.00188102, 178.46, -59.1299, 0, 0.00104431, 0.00168643, 0.0011299, 107.897, -35.7816, 0, 0.00104392, -0.440825, 17.9479, 159.882, 0.102476, 15.9907, 91.2515, -0.000906428, -0.000587698, 0.00245364, -0.000527554, -0.000527554, -0.000527554
2112, 1,0.00206653, 0.00030632, 0.000216548, 130.697, 18.7941, 0.00365119, 224.854, -69.7951, 0, 0.00107852, 0.00234636, 0.00157207, 148.176, -49.2008, 0, 0.00107816, 0.00179571, 0.00120307, 113.665, -37.8535, 0, 0.00107796, 0.338179, 12.5519, 134.712, 0.617464, 15.4411, 97.5019, -0.000746907, -0.000533119, 0.00207841, -0.000561615, -0.000561615, -0.000561615
2113, 1,0.00308584, 0.00127033, 0.00084701, 194.063, 80.1409, 0.00562972, 353.126, -116.22, 0, 0.00097676, 0.00435478, 0.00290461, 273.978, -90.7755, 0, 0.000976357, 0.00181883, 0.00121513, 114.465, -37.8785, 0, 0.000975519, -0.610394, 26.0781, 246.859, -0.245641, 15.2419, 98.6391, -0.00142977, -0.00093943, 0.00384221, -0.000591277, -0.000591277, -0.000591277
2114, 1,0.00289127, 0.000984438, 0.000660038, 183.36, 61.994, 0.00537567, 336.555, -109.43, 0, 0.00101066, 0.00387196, 0.00257841, 244.971, -81.4697, 0, 0.0010102, 0.00191445, 0.00127784, 122.142, -40.7618, 0, 0.00100953, -0.687009, 26.9422, 218.154, -0.0897812, 18.629, 103.746, -0.00126509, -0.000768737, 0.00335585, -0.000612699, -0.000612699, -0.000612699
2115, 1,0.00266026, 0.000696166, 0.000471862, 168.416, 43.6613, 0.00503752, 313.327, -99.6546, 0, 0.00104448, 0.00334382, 0.00223469, 211.295, -69.543, 0, 0.00104397, 0.00198558, 0.0013281, 126.08, -41.2425, 0, 0.00104349, -1.58612, 21.9686, 188.246, -1.05634, 18.8736, 105.91, -0.00109483, -0.000674079, 0.0028974, -0.000638303, -0.000638303, -0.000638303
2116, 1,0.00246793, 0.000408739, 0.00028285, 156.422, 25.3349, 0.00463957, 256.783, -79.8621, 0.00971699, 0.00107811, 0.0028534, 0.00189873, 180.557, -60.6006, 0, 0.00107777, 0.0020916, 0.00138961, 132.758, -44.7728, 0, 0.00107749, 0.0258428, 19.2531, 162.523, 0.283595, 21.1685, 112.866, -0.000932816, -0.000580301, 0.00249649, -0.000677415, -0.000677415, -0.000677415
2117, 1,0.00348948, 0.00140678, 0.00093733, 219.839, 88.7533, 0.00629233, 395.518, -131.126, 0, 0.000976659, 0.00489452, 0.00326087, 308.329, -102.559, 0, 0.000976206, 0.00208678, 0.00139174, 131.706, -43.9116, 0, 0.000975278, -0.160592, 30.4513, 277.387, 0.206387, 18.1855, 113.343, -0.00160589, -0.0010372, 0.00430731, -0.000676993, -0.000676993, -0.000676993
2118, 1,0.00328914, 0.00111188, 0.000744039, 208.258, 70.048, 0.00613015, 382.395, -123.085, 0, 0.00101047, 0.00439688, 0.00292658, 277.894, -92.3211, 0, 0.00100996, 0.00218562, 0.00145923, 139.041, -46.2224, 0, 0.00100921, -0.969732, 30.713, 247.22, -0.401181, 21.1139, 117.955, -0.00144121, -0.000865967, 0.00380528, -0.000704653, -0.000704653, -0.000704653
2119, 1,0.00312876, 0.000812823, 0.00054837, 198.457, 51.0557, 0.00605942, 374.967, -117.563, 0, 0.00104429, 0.00392986, 0.00261792, 248.757, -82.7534, 0, 0.0010437, 0.00233587, 0.00155881, 148.682, -49.4857, 0, 0.00104313, -0.562206, 27.0219, 221.8, -0.0738731, 22.8746, 125.656, -0.00128072, -0.000783859, 0.00340743, -0.000746922, -0.000746922, -0.000746922
2120, 1,0.00289163, 0.000513208, 0.00035111, 182.35, 31.9983, 0.00624685, 272.161, -88.7114, 0.0389929, 0.00107772, 0.00338372, 0.00225863, 213.205, -70.9413, 0, 0.00107737, 0.00240859, 0.00160968, 151.988, -50.6101, 0, 0.00107701, -1.51103, 23.1593, 191.176, -1.26928, 24.1449, 128.955, -0.00112817, -0.000673723, 0.00295306, -0.00080223, -0.00080223, -0.00080223
2121, 1,0.00389559, 0.00154087, 0.00102595, 245.416, 97.2452, 0.00690999, 429.168, -137.152, 0, 0.000976401, 0.00543484, 0.00361497, 342.393, -113.947, 0, 0.000976033, 0.00235847, 0.00157056, 148.793, -49.5538, 0, 0.000975014, -0.464783, 33.7665, 308.538, -0.116416, 20.0196, 128.758, -0.00179095, -0.00115071, 0.00479065, -0.000772177, -0.000772177, -0.000772177
2122, 1,0.00371771, 0.00123872, 0.000827001, 235.399, 78.059, 0.0070893, 435.995, -134.152, 0, 0.0010102, 0.00495236, 0.00330003, 313.051, -104.35, 0, 0.00100972, 0.00248713, 0.00165489, 158.152, -52.9065, 0, 0.00100887, -1.64132, 35.7912, 278.899, -1.04736, 24.9931, 134.774, -0.00164312, -0.000956218, 0.00429263, -0.000822013, -0.000822013, -0.000822013
2123, 1,0.0035377, 0.000930912, 0.000626184, 223.973, 58.5371, 0.00752303, 407.346, -127.591, 0.0188414, 0.00104395, 0.004457, 0.00296606, 281.731, -93.76, 0, 0.00104336, 0.00262667, 0.00174906, 166.769, -55.5041, 0, 0.00104271, -0.888825, 30.986, 251.183, -0.360917, 25.7305, 141.143, -0.00146054, -0.000886245, 0.00386824, -0.000847442, -0.000847442, -0.000847442
2124, 1,0.00329406, 0.000618045, 0.00041943, 207.1, 38.7191, 0.00815818, 287.758, -92.6254, 0.0725908, 0.00107721, 0.00389376, 0.00259966, 244.763, -81.103, 1.0842E-19, 0.00107694, 0.00270271, 0.00180514, 169.923, -56.2014, 1.0842E-19, 0.0010765, -1.14858, 24.4922, 219.965, -0.888633, 24.4198, 145.073, -0.00128166, -0.000819487, 0.00341719, -0.000883471, -0.000883471, -0.000883471
2125, 1,0.00435524, 0.00167329, 0.00111369, 270.757, 105.579, 0.0083659, 455.894, -142.204, 0.0193327, 0.000976153, 0.00602663, 0.00403431, 376.051, -121.573, 0, 0.000975802, 0.00268619, 0.00181149, 165.818, -51.7305, 0, 0.000974696, -6.51427, 32.5505, 338.684, -5.98703, 17.8997, 143.279, -0.00203583, -0.00130811, 0.00531668, -0.000927843, -0.000927843, -0.000927843
2126, 1,0.0041748, 0.00136748, 0.000912419, 263.409, 86.1759, 0.00894311, 457.736, -144.333, 0.0309834, 0.00100999, 0.00553719, 0.00368951, 349.079, -115.762, 0, 0.00100948, 0.00281737, 0.0018812, 178.231, -59.0067, 0, 0.00100855, -2.23994, 38.8772, 310.65, -1.49548, 27.2084, 151.307, -0.00183396, -0.00108675, 0.00479919, -0.000926301, -0.000926301, -0.000926301
2127, 1,0.00391445, 0.00104766, 0.000701558, 247.492, 65.9773, 0.00986816, 429.646, -137.727, 0.0593969, 0.00104367, 0.00495337, 0.00329442, 312.801, -104.313, -3.38813E-21, 0.00104303, 0.00288189, 0.00191575, 182.671, -61.0758, -3.38813E-21, 0.00104229, -1.15172, 33.8789, 280.211, -0.474883, 27.3605, 156.342, -0.00163135, -0.00101058, 0.00433461, -0.000936868, -0.000936868, -0.000936868
2128, 1,0.00369592, 0.000725274, 0.000488956, 235.13, 45.5959, 0.0108374, 307.161, -99.4082, 0.120756, 0.00107677, 0.00440626, 0.00293839, 279.778, -95.6854, 0, 0.00107658, 0.00299292, 0.00199729, 190.954, -66.1496, 0, 0.00107606, 1.10863, 32.907, 253.04, 1.48639, 31.6971, 165.265, -0.00146455, -0.000887945, 0.00390516, -0.000991099, -0.000991099, -0.000991099
2129, 1,0.00479875, 0.00178978, 0.00119237, 301.556, 113.312, 0.011179, 465.252, -153.233, 0.0746888, 0.000976061, 0.0065865, 0.00440152, 414.602, -137.721, 0, 0.00097571, 0.00301344, 0.00203018, 188.83, -62.194, 0, 0.000974515, -2.35742, 40.7684, 374.752, -2.48756, 24.2804, 164.789, -0.00219589, -0.00141093, 0.00584161, -0.00101315, -0.00101315, -0.00101315
2130, 1,0.00462347, 0.00149471, 0.00099998, 290.418, 94.1406, 0.0121275, 465.07, -151.899, 0.0933554, 0.00100977, 0.00611248, 0.00409636, 383.929, -126.299, 0, 0.00100921, 0.00313994, 0.00211968, 197.511, -64.585, 0, 0.0010082, -3.47295, 39.5866, 342.784, -1.73167, 27.0195, 168.467, -0.00202565, -0.00126562, 0.0053407, -0.00101931, -0.00101931, -0.00101931
2131, 1,0.00433394, 0.00117106, 0.000782298, 272.492, 73.7429, 0.0131449, 444.426, -145.742, 0.120556, 0.00104338, 0.0054979, 0.00366973, 345.596, -114.088, 0, 0.00104266, 0.00317517, 0.00212979, 199.86, -65.9228, 0, 0.00104185, -2.16169, 34.6576, 309.768, -0.869557, 27.3103, 171.328, -0.0018051, -0.00117447, 0.00483085, -0.00102034, -0.00102034, -0.00102034
2132, 1,0.00419169, 0.000841676, 0.000565923, 259.624, 53.0602, 0.0150906, 335.789, -112.243, 0.19779, 0.00107648, 0.00501735, 0.0033672, 311.582, -99.3885, 0, 0.00107601, 0.0033739, 0.00227456, 208.212, -64.9075, 0, 0.00107541, -6.83224, 24.5042, 280.494, -6.42412, 22.8081, 178.338, -0.00169071, -0.00114745, 0.00445089, -0.00113912, -0.00113912, -0.00113912
2133, 1,0.00519619, 0.00189858, 0.00127109, 327.08, 119.106, 0.015386, 469.021, -155.043, 0.156421, 0.000975826, 0.00709209, 0.0047287, 445.851, -147.093, 0, 0.000975466, 0.00330339, 0.00219736, 208.7, -70.0992, 0, 0.000974248, -2.56485, 43.5701, 400.275, 0.763269, 28.9945, 180.54, -0.00234281, -0.00151782, 0.00624748, -0.001065, -0.001065, -0.001065
2134, 1,0.0050257, 0.00162519, 0.00108894, 313.798, 102.3, 0.0168176, 470.827, -156.784, 0.184445, 0.00100953, 0.00664746, 0.00443969, 415.545, -135.182, 0, 0.00100888, 0.00340717, 0.00228781, 212.578, -68.5099, 0, 0.00100779, -6.67238, 40.8493, 371.369, -4.05385, 27.5129, 182.071, -0.00223068, -0.0014161, 0.00584032, -0.00112847, -0.00112847, -0.00112847
2135, 1,0.00484379, 0.001308, 0.000876789, 300.891, 81.7038, 0.0188447, 455.947, -151.508, 0.229183, 0.00104309, 0.00614513, 0.00415652, 381.851, -124.19, 0.000760778, 0.00104225, 0.00354741, 0.00241399, 220.486, -70.9977, 0.000286768, 0.00104135, -10.651, 40.2771, 342.945, -8.64119, 32.0807, 189.554, -0.00216156, -0.00127055, 0.00544816, -0.00127109, -0.00127109, -0.00127109
2136, 1,0.00440262, 0.000957609, 0.000641653, 280.298, 60.3557, 0.0227602, 377.119, -122.311, 0.333359, 0.0010762, 0.00535176, 0.0035664, 339.787, -116.968, 8.48432E-05, 0.00107562, 0.00345825, 0.00229908, 221.308, -78.0272, 1.54419E-05, 0.00107494, 2.66862, 39.1907, 309.046, 4.1393, 36.4291, 193.513, -0.00177292, -0.00116707, 0.00483803, -0.00112775, -0.00112775, -0.00112775
2137, 1,0.00621087, 0.00215924, 0.00145558, 342.293, 119.584, 0.0223517, 474.739, -159.092, 0.290436, 0.000975667, 0.00836748, 0.00566502, 461.453, -152.55, 0.0207841, 0.000975105, 0.00405704, 0.00276265, 223.58, -72.3705, 0.0101506, 0.000973815, -3.586, 48.5503, 412.686, -4.93483, 30.1086, 191.938, -0.00295471, -0.00187591, 0.007335, -0.00146066, -0.00146066, -0.00146066
2138, 1,0.0056636, 0.00179338, 0.00119866, 340.098, 111.205, 0.0254797, 478.302, -163.517, 0.35096, 0.00100949, 0.00745335, 0.00500154, 450.683, -147.326, 0.00511182, 0.00100858, 0.00387721, 0.00261318, 230.116, -74.8087, 0.00411635, 0.00100739, -6.83212, 48.9679, 399.841, -5.14617, 34.8644, 194.708, -0.00254036, -0.00157373, 0.00651151, -0.00134115, -0.00134115, -0.00134115
2139, 1,0.00557298, 0.00147397, 0.000988061, 316.442, 90.0283, 0.0324001, 478.198, -158.354, 0.479209, 0.00104318, 0.00703865, 0.0047798, 405.492, -129.477, 0.0103547, 0.00104173, 0.00411318, 0.0028192, 228.149, -70.5697, 0.0086312, 0.00104072, -12.0784, 39.2681, 361.243, -10.6022, 30.0694, 192.242, -0.00250804, -0.00161811, 0.00623929, -0.00150602, -0.00150602, -0.00150602
2140, 1,0.0058374, 0.00113222, 0.000761012, 299.555, 68.3798, 0.0424207, 418.403, -139.146, 0.68726, 0.00107672, 0.00695388, 0.00474516, 366.832, -119.799, 0.0216744, 0.0010749, 0.00472826, 0.00326389, 232.919, -74.7331, 0.0200879, 0.0010741, -3.49333, 31.1428, 331.748, -3.4872, 27.112, 200.575, -0.00247868, -0.00186268, 0.00630891, -0.00172058, -0.00172058, -0.00172058
2141, 1,0.00743327, 0.00245698, 0.0016792, 343.553, 118.756, 0.0327947, 480.566, -161.852, 0.486114, 0.000975639, 0.00988793, 0.00682831, 462.027, -152.013, 0.050778, 0.0009746, 0.00498088, 0.00347987, 225.378, -72.7833, 0.0285686, 0.000973297, -6.90948, 45.5554, 417.394, -7.16678, 28.1375, 197.379, -0.00375587, -0.00249627, 0.00879067, -0.00196095, -0.00196095, -0.00196095
2142, 1,0.00707282, 0.0020277, 0.00137151, 343.893, 115.661, 0.0410409, 489.612, -172.942, 0.63717, 0.00101, 0.00909398, 0.00623637, 458.872, -149.135, 0.0352692, 0.0010081, 0.00505683, 0.00353532, 229.604, -73.2512, 0.0288258, 0.00100683, -9.06808, 51.6816, 404.791, -7.82363, 35.3496, 192.228, -0.00334877, -0.00209213, 0.00790936, -0.00196404, -0.00196404, -0.00196404
2143, 1,0.00704612, 0.00165998, 0.00111687, 336.039, 99.4824, 0.0534051, 511.991, -200.672, 0.846404, 0.0010453, 0.00869053, 0.00593902, 434.505, -147.672, 0.0374603, 0.00104142, 0.005411, 0.00376216, 238.443, -82.4123, 0.0357702, 0.00104029, 5.30409, 49.8656, 387.846, 6.53721, 39.1801, 201.52, -0.00306786, -0.00222596, 0.00774099, -0.00194166, -0.00194166, -0.00194166
2144, 1,0.00700526, 0.00129605, 0.00086967, 313.394, 76.8683, 0.0633924, 501.935, -186.125, 1, 0.00107924, 0.0082785, 0.0056977, 389.096, -132.263, 0.0438659, 0.00107425, 0.00574196, 0.00399739, 238.46, -81.8198, 0.0423376, 0.00107335, 1.87643, 41.8338, 353.078, 2.64953, 37.1064, 205.703, -0.00310906, -0.00227404, 0.00758285, -0.00224139, -0.00224139, -0.00224139
2145, 1,0.00893014, 0.00280054, 0.00193977, 344.471, 118.522, 0.0452535, 486.993, -164.453, 0.707418, 0.000975812, 0.0117216, 0.0082252, 462.728, -151.835, 0.0865841, 0.000974038, 0.00614673, 0.00437163, 226.488, -72.9717, 0.0516902, 0.000972705, -6.51395, 41.7481, 420.272, -5.87794, 25.0351, 199.758, -0.00461386, -0.0032586, 0.0104612, -0.00247366, -0.00247366, -0.00247366
2146, 1,0.00919808, 0.00232993, 0.00160168, 344.431, 115.706, 0.0581942, 504.884, -185.029, 0.919447, 0.00101156, 0.011518, 0.00810129, 459.549, -148.679, 0.0839095, 0.00100788, 0.0068848, 0.00493318, 229.909, -73.4927, 0.0677718, 0.00100658, -13.2186, 51.995, 407.262, -8.82535, 34.6809, 194.622, -0.00467758, -0.00285456, 0.010063, -0.0029659, -0.0029659, -0.0029659
2147, 1,0.00816695, 0.00184477, 0.00125475, 341.454, 108.457, 0.0662029, 573.576, -202.968, 1, 0.00104634, 0.00999871, 0.00695954, 449.176, -143.776, 0.0568335, 0.00104108, 0.0063425, 0.00449065, 234.413, -74.7408, 0.055112, 0.00103987, -12.6008, 41.018, 402.911, -6.00917, 29.7877, 200.444, -0.00390402, -0.00267517, 0.00898829, -0.00258751, -0.00258751, -0.00258751
2148, 1,0.00722289, 0.00145325, 0.000981802, 320.067, 86.3637, 0.0699204, 660.437, -215.381, 1, 0.00107968, 0.0086642, 0.00603262, 405.571, -132.968, 0.0451917, 0.00107355, 0.00578731, 0.00409212, 235.193, -76.8, 0.0434194, 0.00107254, -8.8603, 32.6999, 375.063, -5.60317, 27.3118, 208.691, -0.00338856, -0.00252322, 0.00812496, -0.0023725, -0.0023725, -0.0023725
2149, 1,0.0115691, 0.00323549, 0.00226651, 348.652, 118.183, 0.0547666, 490.589, -163.508, 0.863525, 0.000976155, 0.0147867, 0.0105687, 466.616, -156.995, 0.146446, 0.000973867, 0.00836488, 0.00609217, 230.909, -77.8792, 0.096475, 0.000972468, 0.0505083, 42.422, 428.513, 0.878832, 25.3631, 207.396, -0.00602737, -0.00447185, 0.0132733, -0.00344548, -0.00344548, -0.00344548
2150, 1,0.0112459, 0.00272842, 0.00191167, 343.995, 115.551, 0.0655186, 546.921, -187.204, 1, 0.00101182, 0.0139718, 0.00998184, 459.319, -146.492, 0.131407, 0.00100747, 0.00852149, 0.00616564, 228.9, -72.172, 0.10077, 0.00100614, -17.0627, 41.023, 415.517, -9.8214, 24.3148, 202.023, -0.00598347, -0.00391711, 0.0124653, -0.00380713, -0.00380713, -0.00380713
2151, 1,0.0104407, 0.00218693, 0.00152169, 345.258, 113.447, 0.0705687, 685.092, -230.747, 1, 0.0010469, 0.0126089, 0.00892732, 458.176, -147.231, 0.106665, 0.00104071, 0.00828199, 0.00591824, 232.855, -74.8753, 0.0969544, 0.0010394, -12.4911, 42.6336, 411.55, -3.95009, 27.9359, 200.64, -0.005208, -0.00349505, 0.0112429, -0.00351145, -0.00351145, -0.00351145
2152, 1,0.01024, 0.00172375, 0.00116316, 337.073, 97.8944, 0.0752567, 810.845, -268.386, 1, 0.00108107, 0.0119192, 0.0083862, 434.185, -147.683, 0.102577, 0.00107319, 0.00857731, 0.00613936, 240.607, -83.4757, 0.101462, 0.00107201, 2.0342, 36.8369, 404.178, 5.06657, 29.909, 215.451, -0.00478482, -0.00379322, 0.0111195, -0.00358032, -0.00358032, -0.00358032
2153, 1,0.0170493, 0.00399618, 0.00282444, 348.343, 118.112, 0.0589879, 489.759, -158.5, 0.927915, 0.000975457, 0.0210209, 0.0153988, 466.301, -154.356, 0.26677, 0.000973127, 0.0130921, 0.00981072, 230.535, -74.0417, 0.192438, 0.000971575, 1.98835, 27.6665, 433.414, -0.809973, 12.3541, 210.581, -0.00871855, -0.00740311, 0.0190641, -0.00549184, -0.00549184, -0.00549184
2154, 1,0.0165425, 0.00347178, 0.00243735, 355.616, 116.863, 0.0681898, 619.503, -209.867, 1, 0.0010109, 0.0200107, 0.014536, 472.386, -165.869, 0.249623, 0.00100629, 0.013076, 0.00975395, 238.94, -87.2625, 0.194893, 0.00100474, 21.9575, 40.165, 435.486, 19.4085, 24.9994, 217.38, -0.00785396, -0.00705027, 0.0180311, -0.00506897, -0.00506897, -0.00506897
2155, 1,0.0160725, 0.00280039, 0.00197781, 351.897, 115.413, 0.0746111, 796.677, -267.195, 1, 0.00104629, 0.0188353, 0.0136075, 466.964, -159.275, 0.229368, 0.00103915, 0.013324, 0.00993087, 237.168, -82.318, 0.202274, 0.00103763, 14.0368, 40.5674, 423.22, 13.8997, 24.8723, 208.182, -0.00746521, -0.00627101, 0.0166997, -0.00519677, -0.00519677, -0.00519677
2156, 1,0.0150033, 0.00202873, 0.00136995, 346.924, 108.685, 0.080048, 945.846, -314.803, 1, 0.00108149, 0.0169538, 0.0121626, 455.095, -149.559, 0.193546, 0.00107198, 0.0130744, 0.00959291, 239.213, -78.5048, 0.193546, 0.00107059, -3.38559, 24.588, 427.476, -0.210726, 17.9701, 217.755, -0.00713778, -0.00599947, 0.0158573, -0.00571896, -0.00571896, -0.00571896
2157, 1,0.0271531, 0.00550441, 0.00393928, 355.796, 119.079, 0.0628574, 498.062, -167.592, 0.985272, 0.000974603, 0.0326442, 0.0242684, 474.827, -163.841, 0.48662, 0.000972276, 0.0216685, 0.0164261, 236.812, -80.4559, 0.367248, 0.000970327, 16.9646, 24.6108, 449.947, 8.30889, 10.6352, 222.424, -0.0135572, -0.0130553, 0.0302618, -0.00912071, -0.00912071, -0.00912071
2158, 1,0.0253827, 0.00478785, 0.00341899, 366.206, 119.182, 0.071031, 703.329, -242.238, 1, 0.00100927, 0.0301652, 0.022536, 485.334, -184.057, 0.444482, 0.00100432, 0.0206027, 0.0157108, 247.134, -98.4117, 0.349634, 0.00100232, 52.3047, 40.1504, 459.715, 35.2748, 27.4843, 232.476, -0.0112834, -0.0127177, 0.0279727, -0.00779792, -0.00779792, -0.00779792
2159, 1,0.0237729, 0.00380635, 0.00264841, 362.938, 117.946, 0.0776245, 885.871, -302.079, 1, 0.00104472, 0.0275575, 0.0207383, 480.768, -180.211, 0.398537, 0.00103709, 0.0199956, 0.015518, 245.223, -95.8572, 0.340709, 0.00103518, 53.5261, 37.059, 450.047, 37.0863, 24.0312, 226.454, -0.00984592, -0.0115965, 0.0252026, -0.00698715, -0.00698715, -0.00698715
2160, 1,0.0229408, 0.0026773, 0.00181897, 362.884, 114.105, 0.0838915, 1051.82, -348.662, 1, 0.00108095, 0.0255593, 0.0185957, 476.814, -176.66, 0.358923, 0.00107103, 0.020336, 0.0151093, 249.125, -99.0256, 0.343991, 0.00106932, 29.2027, 42.023, 458.754, 26.3787, 33.8997, 236.798, -0.0107729, -0.0100031, 0.0243602, -0.00885921, -0.00885921, -0.00885921
2161, 1,0.0352122, 0.00718792, 0.00514316, 364.476, 120.729, 0.064669, 527.536, -184.245, 1, 0.000973426, 0.0423995, 0.0317248, 485.195, -175.775, 0.663368, 0.000971252, 0.0280253, 0.0214406, 243.767, -89.9655, 0.496546, 0.00096882, 32.1102, 24.8436, 470.372, 20.2892, 13.835, 235.772, -0.0174596, -0.0185692, 0.0405573, -0.0117033, -0.0117033, -0.0117033
2162, 1,0.0345579, 0.00632742, 0.0046097, 376.231, 122.527, 0.0729503, 765.04, -270.326, 1, 0.00100763, 0.0408763, 0.0308391, 498.711, -201.115, 0.641658, 0.00100276, 0.0282434, 0.021655, 253.798, -106.969, 0.50465, 0.00100009, 74.3914, 45.7428, 483.209, 45.0874, 31.0086, 244.81, -0.0149906, -0.0189489, 0.0390233, -0.0107639, -0.0107639, -0.0107639
2163, 1,0.0318534, 0.00512861, 0.00369885, 370.096, 120.651, 0.0804971, 969.121, -332.029, 1, 0.00104291, 0.0369653, 0.0283559, 490.684, -192.898, 0.574458, 0.00103503, 0.0267473, 0.0210071, 249.571, -101.633, 0.478037, 0.00103259, 73.2591, 32.3384, 473.097, 44.2351, 21.7549, 238.909, -0.0126903, -0.0178006, 0.0350978, -0.00933184, -0.00933184, -0.00933184
2164, 1,0.0274275, 0.00377348, 0.00262471, 358.81, 117.997, 0.0859404, 1113.49, -374.011, 1, 0.00107964, 0.031179, 0.0230698, 476.728, -171.797, 0.462552, 0.00106892, 0.0236826, 0.0178656, 240.967, -86.2519, 0.410101, 0.00106685, 23.4869, 25.41, 466.493, 11.3929, 13.2367, 234.126, -0.0132773, -0.0133047, 0.0303395, -0.0105357, -0.0105357, -0.0105357
2165, 1,0.0362137, 0.00782284, 0.00561873, 371.368, 122.492, 0.0656712, 556.556, -193.183, 1, 0.00100774, 0.044029, 0.0330362, 493.814, -188.606, 0.693816, 0.00100563, 0.0284025, 0.0218115, 248.971, -98.6251, 0.50675, 0.00100286, 51.3263, 31.798, 482.693, 33.3917, 20.1145, 242.369, -0.0174073, -0.0201955, 0.0425972, -0.011285, -0.011285, -0.011285
2166, 1,0.037135, 0.00712228, 0.00527978, 378.899, 124.22, 0.0738029, 791.804, -280.477, 1, 0.0010424, 0.0442412, 0.0335857, 503.057, -206.187, 0.701588, 0.00103741, 0.0300357, 0.0231377, 254.802, -108.293, 0.541208, 0.00103433, 82.794, 41.2994, 494.468, 47.2561, 28.263, 249.359, -0.0157941, -0.0218364, 0.0431292, -0.0113356, -0.0113356, -0.0113356
2167, 1,0.0352834, 0.00603612, 0.00448533, 368.238, 123.616, 0.0812882, 987.224, -333.289, 1, 0.00107883, 0.0412789, 0.0319156, 491.731, -192.286, 0.651251, 0.00107094, 0.0293036, 0.0230665, 244.864, -92.983, 0.527415, 0.00106799, 74.0632, 20.3216, 482.474, 33.0405, 7.66636, 238.242, -0.0139884, -0.0212643, 0.0401544, -0.0105521, -0.0105521, -0.0105521
2168, 1,0.029359, 0.00459714, 0.00331337, 363.78, 119.771, 0.0854336, 1098.5, -368.327, 1, 0.00111703, 0.0338784, 0.0251431, 483.313, -180.504, 0.512466, 0.00110655, 0.0248668, 0.0186992, 244.482, -91.7187, 0.434332, 0.00110419, 37.9691, 29.9781, 473.565, 19.9053, 18.5028, 236.748, -0.013906, -0.0149275, 0.0329357, -0.0107096, -0.0107096, -0.0107096
2169, 1,0.0347614, 0.00554022, 0.00393636, 364.607, 121.028, 0.0803083, 956.807, -321.573, 1, 0.00111255, 0.0402601, 0.0300443, 485.517, -180.521, 0.627513, 0.00110446, 0.0292774, 0.0222604, 243.814, -90.0386, 0.52261, 0.00110176, 35.6393, 30.8642, 475.059, 17.6973, 15.9627, 236.456, -0.016891, -0.0176733, 0.0390723, -0.0127463, -0.0127463, -0.0127463
2170, 1,0.0360545, 0.00579009, 0.00421791, 370.127, 123.197, 0.0811516, 982.189, -330.282, 1, 0.00107557, 0.0418083, 0.0322048, 493.224, -194.912, 0.659999, 0.00106793, 0.0303136, 0.0238552, 247.126, -96.8786, 0.547577, 0.00106501, 75.8225, 25.362, 483.551, 38.3667, 11.8505, 240.419, -0.0143448, -0.021296, 0.0406479, -0.0107467, -0.0107467, -0.0107467
2171, 1,0.0356733, 0.00560413, 0.00408762, 372.56, 122.643, 0.0802397, 956.799, -322.075, 1, 0.00104032, 0.0412475, 0.031743, 495.121, -198.645, 0.650432, 0.0010333, 0.0301093, 0.0236396, 250.079, -101.759, 0.543662, 0.00103053, 81.6591, 28.1674, 486.109, 44.405, 16.8997, 243.972, -0.0139144, -0.0212065, 0.0401811, -0.0105373, -0.0105373, -0.0105373
2172, 1,0.0326743, 0.00507693, 0.00361337, 366.151, 119.809, 0.0771348, 871.112, -295.597, 1, 0.00100739, 0.0377248, 0.0282108, 485.88, -183.057, 0.58285, 0.00100092, 0.0276328, 0.0210471, 246.501, -94.9985, 0.490459, 0.000998639, 45.7498, 26.9595, 476.461, 27.6011, 17.231, 240.163, -0.0149607, -0.0173667, 0.0367298, -0.0112573, -0.0112573, -0.0112573
2173, 1,0.0331634, 0.00488946, 0.00343005, 362.434, 118.73, 0.0802415, 955.389, -321.698, 1, 0.00107849, 0.038045, 0.0282393, 481.132, -175.096, 0.587667, 0.00107034, 0.0282843, 0.0214166, 243.769, -90.1465, 0.502259, 0.001068, 27.828, 27.7182, 469.74, 17.3034, 16.2008, 236.935, -0.0162013, -0.0164473, 0.0368761, -0.0123817, -0.0123817, -0.0123817
2174, 1,0.0344837, 0.00498529, 0.00353761, 369.84, 120.407, 0.0805762, 969.252, -329.951, 1, 0.00104309, 0.0394553, 0.0302251, 490.203, -192.064, 0.618222, 0.00103544, 0.0295163, 0.0231827, 249.519, -101.086, 0.53213, 0.00103294, 71.0362, 29.3814, 475.775, 43.2981, 19.0974, 240.862, -0.0137883, -0.0193096, 0.0378558, -0.0104028, -0.0104028, -0.0104028
2175, 1,0.0340582, 0.00484941, 0.00343431, 369.701, 120.628, 0.0795148, 940.726, -321.671, 1, 0.00100916, 0.0388905, 0.0298182, 490.277, -192.872, 0.608516, 0.00100204, 0.029231, 0.0229931, 249.175, -100.662, 0.52673, 0.000999617, 73.4805, 30.1271, 475.01, 43.602, 18.4845, 239.9, -0.0134039, -0.0190771, 0.0372198, -0.0101599, -0.0101599, -0.0101599
2176, 1,0.030666, 0.00444376, 0.00311393, 360.959, 118.685, 0.0764655, 851.188, -287.845, 1, 0.000976214, 0.0351029, 0.0261627, 479.612, -174.514, 0.534908, 0.000969858, 0.0262312, 0.019982, 242.336, -88.3927, 0.461608, 0.00096782, 31.9869, 23.9703, 467.585, 18.1886, 11.8417, 235.148, -0.014413, -0.0155313, 0.0339808, -0.0110009, -0.0110009, -0.0110009
2177, 1,0.0257005, 0.00394788, 0.00276832, 356.485, 117.339, 0.0777445, 887.001, -300.495, 1, 0.00107985, 0.0296126, 0.0216714, 473.678, -166.235, 0.432511, 0.00107181, 0.0218006, 0.016246, 239.433, -84.2455, 0.371773, 0.00106985, 17.2931, 30.4381, 450.973, 10.7599, 17.197, 224.78, -0.0125874, -0.0116564, 0.027799, -0.00946469, -0.00946469, -0.00946469
2178, 1,0.0261255, 0.00409131, 0.00287134, 362.659, 118.35, 0.0779956, 894.442, -303.547, 1, 0.00104499, 0.0301532, 0.0227263, 480.765, -179.49, 0.446822, 0.00103743, 0.0221189, 0.017132, 244.792, -94.4322, 0.383418, 0.00103543, 51.9192, 41.3408, 445.211, 33.9717, 27.7179, 221.607, -0.0109668, -0.012303, 0.0271494, -0.00802037, -0.00802037, -0.00802037
2179, 1,0.024706, 0.00392552, 0.00275505, 361.252, 118.27, 0.0765824, 859.574, -296.458, 1, 0.00101091, 0.028566, 0.0215611, 479.252, -177.697, 0.417053, 0.00100373, 0.0208682, 0.0162078, 243.516, -92.7813, 0.358151, 0.00100185, 50.9813, 39.1486, 442.961, 33.0226, 25.6673, 219.654, -0.0102621, -0.0116656, 0.0256853, -0.00743244, -0.00743244, -0.00743244
2180, 1,0.0225949, 0.0035129, 0.00244731, 356.282, 116.939, 0.0737896, 779.302, -266.831, 1, 0.000977399, 0.0260825, 0.0191448, 473.093, -166.817, 0.366361, 0.000971168, 0.019116, 0.0143444, 239.597, -85.2756, 0.317761, 0.0009695, 18.8137, 31.287, 450.35, 12.3854, 18.2567, 225.185, -0.0109228, -0.0102036, 0.0245284, -0.00819229, -0.00819229, -0.00819229
2181, 1,0.0155124, 0.00310303, 0.0021702, 352.082, 116.457, 0.0747715, 802.936, -271.174, 1, 0.00108044, 0.0186078, 0.0135015, 468.408, -160.481, 0.222073, 0.00107292, 0.0124206, 0.0091929, 235.884, -81.7328, 0.180538, 0.00107131, 2.11314, 39.9693, 439.359, 2.47026, 24.754, 217.974, -0.00807183, -0.00622991, 0.0172739, -0.00562673, -0.00562673, -0.00562673
2182, 1,0.0150223, 0.00309046, 0.00215013, 350.128, 116.204, 0.0747102, 799.828, -269.05, 1, 0.00104652, 0.0180983, 0.0129574, 466.072, -156.393, 0.212598, 0.00103922, 0.0119534, 0.00873968, 234.44, -79.2836, 0.171985, 0.00103771, 6.98989, 40.8791, 421.311, 6.30341, 25.6354, 205.912, -0.00734167, -0.00582807, 0.0160488, -0.00495134, -0.00495134, -0.00495134
2183, 1,0.0144773, 0.00298594, 0.00207569, 351.576, 116.433, 0.0734329, 765.435, -258.546, 1, 0.00101242, 0.017447, 0.0124723, 467.731, -159.499, 0.200046, 0.00100578, 0.0115156, 0.00839544, 235.696, -81.4022, 0.162911, 0.00100431, 8.46546, 45.5747, 424.457, 7.4423, 28.7177, 208.046, -0.00712946, -0.00551611, 0.0155587, -0.0048234, -0.0048234, -0.0048234
2184, 1,0.0143455, 0.00278076, 0.00192432, 351.027, 115.912, 0.0710035, 697.518, -235.03, 1, 0.000977906, 0.0171196, 0.0123357, 466.807, -158.884, 0.193251, 0.000972309, 0.0115743, 0.00852689, 235.377, -80.45, 0.162932, 0.000970897, 2.63591, 36.4448, 437.57, 2.31217, 21.7621, 217.276, -0.00723626, -0.00579468, 0.0159204, -0.00510223, -0.00510223, -0.00510223
2185, 1,0.0107599, 0.00255034, 0.00175828, 351.222, 116.139, 0.0716545, 713.89, -238.925, 1, 0.00108046, 0.0133086, 0.00938157, 467.164, -160.171, 0.118787, 0.00107401, 0.00821231, 0.00586924, 235.479, -82.5884, 0.0942135, 0.00107254, 4.29437, 44.8774, 431.342, 4.73757, 30.0553, 212.972, -0.00536946, -0.0040782, 0.012231, -0.0034651, -0.0034651, -0.0034651
2186, 1,0.0101269, 0.00245265, 0.00169336, 347.903, 115.492, 0.0713136, 705.596, -236.782, 1, 0.00104729, 0.0125744, 0.00885134, 463.033, -153.623, 0.104625, 0.00104097, 0.00768249, 0.00547182, 233.137, -78.5655, 0.0839848, 0.00103961, -1.9276, 49.3057, 413.49, 1.47254, 33.2391, 200.985, -0.0050319, -0.00345904, 0.0111381, -0.00319271, -0.00319271, -0.00319271
2187, 1,0.0101416, 0.00235722, 0.00162359, 347.722, 115.063, 0.0703695, 677.774, -225.876, 1, 0.00101298, 0.0124906, 0.00880975, 462.382, -153.088, 0.102987, 0.00100727, 0.00779739, 0.00557602, 233.466, -78.2327, 0.0860676, 0.00100596, -6.00441, 51.7861, 413.483, -1.37318, 34.8283, 201.243, -0.00512642, -0.00332919, 0.011091, -0.00335253, -0.00335253, -0.00335253
2188, 1,0.00991736, 0.00224837, 0.00153536, 347.094, 114.926, 0.0680766, 611.351, -201.547, 1, 0.000977749, 0.0121629, 0.00854587, 461.781, -152.527, 0.0959554, 0.000973081, 0.00767342, 0.00548342, 232.641, -76.3352, 0.0822132, 0.000971801, -5.861, 37.9185, 425.523, -3.83749, 23.6527, 209.19, -0.00491753, -0.0036696, 0.0112019, -0.00327309, -0.00327309, -0.00327309
2189, 1,0.00878892, 0.00213781, 0.00145099, 346.903, 115.075, 0.0679744, 609.873, -202.452, 1, 0.00107963, 0.0109233, 0.00757691, 461.604, -152.665, 0.0717671, 0.0010744, 0.00665664, 0.00468996, 232.569, -76.4079, 0.0615501, 0.00107301, -1.13866, 40.1021, 419.032, -0.783577, 26.0287, 203.978, -0.00416688, -0.00317718, 0.00992457, -0.00265703, -0.00265703, -0.00265703
2190, 1,0.00831828, 0.0020284, 0.00138589, 346.019, 113.645, 0.0676793, 610.814, -209.99, 1, 0.00104671, 0.010341, 0.00714905, 459.125, -149.349, 0.0600014, 0.00104127, 0.00629904, 0.00443639, 233.437, -76.5783, 0.0538349, 0.00104, -3.72654, 43.9883, 407.786, 1.06415, 30.6059, 198.065, -0.00388207, -0.00281394, 0.0092033, -0.00241579, -0.00241579, -0.00241579
2191, 1,0.00796888, 0.00194872, 0.00133053, 345.568, 112.765, 0.0667833, 594.915, -213.429, 1, 0.00101299, 0.00990835, 0.00684545, 457.614, -147.562, 0.0513962, 0.00100756, 0.00603511, 0.00421883, 234.216, -76.3295, 0.0480498, 0.00100636, -9.09965, 46.7357, 405.05, -1.70498, 34.1614, 196.532, -0.00378179, -0.0025644, 0.00881119, -0.0023616, -0.0023616, -0.0023616
2192, 1,0.00807229, 0.00187961, 0.00126593, 350.848, 112.047, 0.0646242, 532.125, -191.682, 1, 0.000977838, 0.00994678, 0.00685591, 462.427, -156.219, 0.0528056, 0.00097352, 0.0062008, 0.00433244, 239.723, -83.7385, 0.0510921, 0.00097234, -0.025325, 47.2322, 421.451, 4.03276, 36.0391, 211.144, -0.00376378, -0.00273377, 0.00910929, -0.00245989, -0.00245989, -0.00245989
2193, 1,0.00714325, 0.00184459, 0.00123781, 347.329, 112.126, 0.0601765, 512.506, -195.034, 0.949127, 0.00107948, 0.00898492, 0.00616854, 458.928, -151.025, 0.0332799, 0.00107492, 0.00530356, 0.00369781, 236.241, -78.4333, 0.031989, 0.00107363, -5.34663, 43.6942, 414.728, -2.42375, 32.5941, 205.13, -0.00331631, -0.00235134, 0.00816463, -0.00206423, -0.00206423, -0.00206423
2194, 1,0.00706729, 0.00179651, 0.00121351, 344.581, 108.825, 0.0580327, 522.6, -215.561, 0.921684, 0.00104644, 0.00885712, 0.00606094, 452.662, -149.248, 0.0320961, 0.00104149, 0.00528185, 0.00364281, 237.196, -79.6541, 0.0310131, 0.0010403, -3.9892, 49.9056, 401.826, 0.75411, 38.2189, 199.989, -0.00323126, -0.00218863, 0.0078858, -0.00198149, -0.00198149, -0.00198149
2195, 1,0.00676587, 0.00174771, 0.00117791, 343.795, 107.034, 0.0540131, 514.592, -205.875, 0.858566, 0.00101187, 0.00850678, 0.00579895, 450.036, -150.346, 0.0263015, 0.0010079, 0.00502952, 0.00346209, 238.281, -81.1954, 0.0255266, 0.00100675, -2.47249, 52.6177, 400.894, 1.50895, 40.4513, 201.626, -0.00306883, -0.00205745, 0.00760217, -0.0018566, -0.0018566, -0.0018566
2196, 1,0.00646451, 0.00168983, 0.00112919, 347.247, 105.927, 0.049447, 492.643, -171.012, 0.778424, 0.000976472, 0.00814979, 0.00553413, 452.423, -146.953, 0.0178638, 0.000974036, 0.00478237, 0.0032832, 242.719, -77.4362, 0.0178638, 0.000972927, -8.14693, 40.5528, 408.454, -6.73827, 30.0649, 208.982, -0.00291737, -0.00208301, 0.00740882, -0.00178318, -0.00178318, -0.00178318
2197, 1,0.00607549, 0.00170569, 0.0011366, 337.09, 105.666, 0.0379927, 479.043, -155.775, 0.579241, 0.00107706, 0.00777735, 0.00525573, 442.15, -144.943, 0.0136778, 0.00107559, 0.00437657, 0.00299062, 232.575, -74.7339, 0.0125168, 0.00107436, -3.85143, 39.5758, 399.105, -4.52907, 27.8941, 200.837, -0.00270025, -0.00192788, 0.00699816, -0.00157394, -0.00157394, -0.00157394
2198, 1,0.00599701, 0.00166179, 0.00110952, 333.804, 102.409, 0.0352848, 481.634, -163.006, 0.532567, 0.00104348, 0.00765138, 0.00518638, 435.385, -143.68, 0.0129275, 0.001042, 0.00434826, 0.00297899, 232.954, -76.0502, 0.0116404, 0.00104085, -4.64802, 49.3799, 386.309, -4.48032, 37.0222, 195.609, -0.00268723, -0.00170004, 0.00673564, -0.00158245, -0.00158245, -0.00158245
2199, 1,0.0058405, 0.00160611, 0.00107309, 329.857, 99.6685, 0.0323636, 478.588, -159.818, 0.479122, 0.00100956, 0.00744067, 0.00505787, 428.79, -139.146, 0.0101918, 0.00100828, 0.00424475, 0.00292194, 231.553, -73.4088, 0.00926555, 0.0010072, -10.4133, 45.1134, 382.739, -9.70558, 33.264, 196.668, -0.00266409, -0.00166951, 0.00660434, -0.0015892, -0.0015892, -0.0015892
2200, 1,0.0054037, 0.0015376, 0.00102528, 336.43, 97.643, 0.0300873, 479.784, -162.157, 0.436111, 0.000975713, 0.00693935, 0.00464202, 433.482, -142.014, 0, 0.000974569, 0.0038696, 0.00259531, 239.857, -77.5862, 0, 0.000973551, -5.3391, 38.3449, 393.038, -4.89514, 28.6375, 209.016, -0.00234195, -0.00164627, 0.00629256, -0.00131814, -0.00131814, -0.00131814
2201, 1,0.00524921, 0.0015641, 0.00104207, 324.245, 97.9168, 0.0195301, 473.288, -158.74, 0.236319, 0.00107695, 0.00680901, 0.00455551, 421.613, -139.894, 0.0015178, 0.0010762, 0.00369306, 0.00247889, 227.353, -75.2558, 0.000964607, 0.00107507, -1.52385, 40.1928, 381.014, -1.5819, 30.0126, 197.337, -0.00227619, -0.00152075, 0.00606892, -0.00124565, -0.00124565, -0.00124565
2202, 1,0.00508179, 0.00151209, 0.00100776, 312.157, 95.1487, 0.0177695, 465.472, -147.156, 0.201731, 0.00104296, 0.00658871, 0.00444229, 406.695, -131.037, 0.000232602, 0.00104238, 0.00357926, 0.00243617, 218.147, -68.5247, 7.47277E-05, 0.00104132, -9.62543, 40.0439, 362.692, -9.2719, 29.3266, 185.519, -0.0022779, -0.00137909, 0.00578355, -0.001282, -0.001282, -0.001282
2203, 1,0.00498476, 0.00145877, 0.000971857, 308.141, 92.1155, 0.0173319, 468.753, -153.048, 0.193856, 0.00100935, 0.00643925, 0.00432825, 399.699, -130.278, 0, 0.00100867, 0.00353379, 0.00239174, 217.057, -69.7195, 0, 0.00100768, -7.11164, 40.1687, 357.778, -6.51994, 29.6581, 186.02, -0.00220202, -0.00136878, 0.00568474, -0.00123582, -0.00123582, -0.00123582
2204, 1,0.00499556, 0.00140408, 0.000935054, 311.648, 88.952, 0.0175806, 469.992, -154.802, 0.198772, 0.000975624, 0.0063968, 0.00428114, 400.123, -131.903, 0, 0.000974956, 0.00359654, 0.00241514, 223.552, -73.0715, 0, 0.000974026, -4.03773, 36.5715, 363.175, -3.85174, 27.3219, 195.744, -0.00216053, -0.00145403, 0.00575483, -0.0012301, -0.0012301, -0.0012301
2205, 1,0.00472859, 0.00142866, 0.000952273, 295.636, 90.1155, 0.0127465, 466.551, -153.622, 0.104915, 0.00107725, 0.00615184, 0.00410096, 385.226, -127.99, 5.68107E-07, 0.00107663, 0.00331002, 0.00220993, 206.507, -68.532, 5.68107E-07, 0.00107559, -0.7624, 37.2576, 347.474, -0.852062, 27.8593, 178.589, -0.00203493, -0.00133163, 0.00544346, -0.00110047, -0.00110047, -0.00110047
2206, 1,0.00457257, 0.00138291, 0.000920836, 286.069, 87.3251, 0.0119169, 463.951, -150.387, 0.0886678, 0.00104341, 0.00595055, 0.00395763, 372.898, -124.874, 0, 0.00104284, 0.00319886, 0.00212842, 199.68, -67.0982, 0, 0.00104187, 0.987844, 40.0396, 333.593, 0.745497, 29.438, 171.111, -0.00194942, -0.00123552, 0.00521122, -0.00104462, -0.00104462, -0.00104462
2207, 1,0.00453977, 0.00133499, 0.00088876, 283.345, 84.3609, 0.0116783, 461.709, -147.084, 0.0839676, 0.00100958, 0.00586968, 0.00391603, 367.183, -122.26, 0, 0.00100906, 0.00321408, 0.00214917, 199.952, -66.4339, 0, 0.00100814, -1.25555, 39.7388, 328.298, -1.3725, 29.5883, 171.086, -0.00195343, -0.00120825, 0.00514551, -0.00107668, -0.00107668, -0.00107668
2208, 1,0.00449683, 0.00127921, 0.000851638, 282.075, 80.8902, 0.0116945, 466.263, -154.355, 0.0847102, 0.00097592, 0.00577195, 0.0038493, 362.48, -121.072, 0, 0.000975272, 0.00322495, 0.00215465, 202.061, -67.6316, 0, 0.000974427, -0.47746, 36.0566, 327.635, -0.39384, 27.6084, 175.68, -0.00191626, -0.00126069, 0.00514146, -0.00107281, -0.00107281, -0.00107281
2209, 1,0.00423913, 0.00130335, 0.000869723, 266.271, 82.1475, 0.00948671, 464.944, -155.061, 0.0415336, 0.00107777, 0.00553641, 0.00368372, 347.916, -116.833, 0, 0.00107704, 0.00294722, 0.00196131, 185.078, -62.5874, 0, 0.00107609, 2.09022, 35.0889, 313.32, 1.7875, 26.4789, 159.496, -0.00179834, -0.0011773, 0.00487151, -0.00095046, -0.00095046, -0.00095046
2210, 1,0.00417699, 0.00126005, 0.000840285, 261.608, 79.4751, 0.00889166, 456.761, -142.81, 0.0293477, 0.00104371, 0.00543133, 0.00362115, 340.593, -113.821, 0, 0.00104318, 0.00292758, 0.00195544, 183.052, -61.2912, 0, 0.00104229, 0.443229, 36.9882, 304.033, 0.118736, 27.5332, 156.222, -0.00178626, -0.00109648, 0.00472969, -0.000965812, -0.000965812, -0.000965812
2211, 1,0.0040793, 0.00121195, 0.000807984, 256.461, 76.4928, 0.00854352, 455.344, -141.213, 0.0225824, 0.00100986, 0.00528587, 0.00351228, 332.463, -111.986, 3.52194E-07, 0.00100935, 0.00287727, 0.00191162, 180.881, -61.4395, 3.52194E-07, 0.00100852, 1.8871, 37.3016, 296.771, 1.76464, 28.1736, 154.38, -0.00172565, -0.00106672, 0.0046095, -0.000932141, -0.000932141, -0.000932141
2212, 1,0.00404254, 0.00115805, 0.000772166, 253.769, 73.1475, 0.00863604, 459.219, -147.138, 0.0247297, 0.000976159, 0.00519554, 0.00346136, 326.417, -108.961, 2.81117E-07, 0.000975522, 0.0028936, 0.00193009, 181.529, -60.6997, 2.81117E-07, 0.000974758, -0.29765, 33.2921, 293.89, -0.293974, 25.8136, 156.58, -0.0017226, -0.00110428, 0.00459489, -0.000962338, -0.000962338, -0.000962338
2213, 1,0.00380539, 0.00117789, 0.000786972, 238.476, 74.1506, 0.00729298, 449.342, -140.913, 0, 0.00107799, 0.00497702, 0.00331698, 312.155, -103.988, 0, 0.00107735, 0.00263937, 0.00176088, 165.225, -55.1069, 0, 0.00107649, 0.566733, 30.4666, 280.931, 0.308756, 22.9776, 142.034, -0.00162774, -0.001053, 0.00436819, -0.000863403, -0.000863403, -0.000863403
2214, 1,0.00374334, 0.0011351, 0.000757667, 235.206, 71.5567, 0.00705684, 432.245, -132.872, 0, 0.001044, 0.00487258, 0.00324375, 306.292, -102.738, 0, 0.00104349, 0.00261917, 0.00174443, 164.535, -55.4829, 0, 0.00104269, 1.55034, 33.6582, 273.004, 1.22045, 25.2921, 139.936, -0.00158816, -0.000974038, 0.0042293, -0.00085093, -0.00085093, -0.00085093
2215, 1,0.00368774, 0.00108846, 0.000726269, 231.023, 68.6846, 0.00699374, 428.966, -132.374, 0, 0.00101012, 0.00477063, 0.00317839, 299.225, -99.6414, 0, 0.00100959, 0.00260949, 0.00174135, 163.23, -54.2954, 0, 0.00100884, -0.211606, 32.6228, 266.513, -0.357074, 24.647, 138.596, -0.00157615, -0.000955939, 0.0041489, -0.000865034, -0.000865034, -0.000865034
2216, 1,0.00360438, 0.00103757, 0.000692477, 226.796, 65.5115, 0.00697402, 433.302, -139.181, 0, 0.000976382, 0.00463682, 0.00308689, 291.818, -97.7236, 0, 0.000975725, 0.00257609, 0.00171618, 162.171, -54.5737, 0, 0.000975042, 1.24168, 29.6083, 262.321, 1.24863, 23.1864, 139.286, -0.00151361, -0.000991841, 0.0040911, -0.000833763, -0.000833763, -0.000833763
2217, 1,0.00337377, 0.00105166, 0.000703442, 211.469, 66.1671, 0.0064611, 406.115, -135.63, 0, 0.00107844, 0.00441934, 0.00294561, 277.189, -92.2307, 0, 0.00107768, 0.00233371, 0.00155624, 146.157, -48.6869, 0, 0.00107692, 0.594724, 26.5967, 249.501, 0.345567, 20.305, 125.41, -0.00144192, -0.000939955, 0.00387854, -0.000761476, -0.000761476, -0.000761476
2218, 1,0.00332598, 0.00100954, 0.000674492, 208.486, 63.6249, 0.00627554, 392.198, -128.69, 0, 0.00104442, 0.00432984, 0.00288616, 271.659, -90.4721, 0, 0.00104377, 0.00232707, 0.00155308, 145.71, -48.5243, 0, 0.00104306, 0.410742, 29.138, 241.868, 0.110455, 22.0007, 123.462, -0.00141921, -0.000867916, 0.0037552, -0.000764955, -0.000764955, -0.000764955
2219, 1,0.00327025, 0.000964749, 0.000644242, 205.198, 60.8768, 0.00620395, 387.601, -127.025, 0, 0.00101049, 0.00422968, 0.00281493, 265.612, -88.6986, 0, 0.00100986, 0.00231527, 0.00154176, 145.174, -48.5691, 0, 0.00100921, 0.37527, 29.2959, 236.425, 0.250798, 22.5, 122.956, -0.00139181, -0.000846359, 0.00367741, -0.000762416, -0.000762416, -0.000762416
2220, 1,0.00320732, 0.000917449, 0.000612869, 201.086, 57.9314, 0.006185, 387.968, -128.461, 0, 0.00097663, 0.00411988, 0.00274318, 258.55, -85.8075, 0, 0.000975954, 0.00229865, 0.00153256, 144, -47.7195, 0, 0.000975351, -0.466201, 25.4212, 232.467, -0.460512, 20.1477, 123.471, -0.00136238, -0.000886228, 0.00364089, -0.000762286, -0.000762286, -0.000762286
2221, 1,0.00294913, 0.000925157, 0.000619689, 184.707, 58.1645, 0.00564248, 353.457, -116.849, 0, 0.00107867, 0.00386862, 0.00258132, 242.466, -80.4976, 0, 0.00107803, 0.00203481, 0.00135844, 127.322, -42.2981, 0, 0.00107736, 0.436557, 22.2767, 218.78, 0.203471, 17.2503, 109.441, -0.00126065, -0.000838031, 0.00340495, -0.000664045, -0.000664045, -0.000664045
2222, 1,0.0029054, 0.000883719, 0.000590998, 182.12, 55.6791, 0.00551567, 345.772, -114.574, 0, 0.00104468, 0.00378386, 0.00252341, 237.385, -79.0515, 0, 0.00104408, 0.00203151, 0.0013564, 127.221, -42.3987, 0, 0.00104346, 0.455516, 25.0875, 211.611, 0.178378, 19.1932, 107.824, -0.00123864, -0.000766195, 0.00328759, -0.000667295, -0.000667295, -0.000667295
2223, 1,0.00285891, 0.000841183, 0.000562213, 179.097, 53.0765, 0.00544499, 341.096, -112.769, 0, 0.00101072, 0.00369514, 0.00246154, 231.743, -77.1246, 0, 0.00101013, 0.00202681, 0.00135196, 126.814, -42.1938, 0, 0.00100956, -0.0921143, 24.9992, 206.467, -0.196346, 19.4399, 107.338, -0.00121972, -0.000748163, 0.00321932, -0.000671789, -0.000671789, -0.000671789
2224, 1,0.00280749, 0.000797799, 0.00053357, 176.042, 50.3745, 0.00540841, 339.057, -112.086, 0, 0.000976784, 0.00360077, 0.00239891, 225.979, -75.0509, 0, 0.000976198, 0.0020178, 0.00134447, 126.456, -42.01, 0, 0.000975674, -0.0884776, 21.5832, 203.658, -0.0680783, 17.5164, 108.582, -0.00118518, -0.000791967, 0.00319488, -0.000664265, -0.000664265, -0.000664265
2225, 1,0.00252631, 0.000798816, 0.000536063, 158.11, 50.1659, 0.00479432, 300.39, -99.3834, 0, 0.00107892, 0.00331998, 0.00221869, 207.92, -68.866, 0, 0.00107838, 0.00173739, 0.00116158, 108.63, -36.0045, 0, 0.00107781, 0.423077, 17.662, 188.513, 0.204327, 13.9604, 93.8489, -0.00107791, -0.000743111, 0.00293856, -0.00056509, -0.00056509, -0.00056509
2226, 1,0.00248657, 0.00075817, 0.000507711, 155.687, 47.7431, 0.00472721, 296.332, -98.2267, 0, 0.00104492, 0.00323997, 0.00216312, 203.061, -67.4559, 0, 0.0010444, 0.00173733, 0.00116152, 108.641, -36.0883, 0, 0.00104387, 0.28857, 20.4815, 181.598, 0.0354175, 15.8935, 92.336, -0.00105985, -0.000672691, 0.00282714, -0.000571257, -0.000571257, -0.000571257
2227, 1,0.00244892, 0.0007179, 0.000480336, 153.287, 45.2889, 0.00468383, 293.612, -97.3316, 0, 0.00101092, 0.00316234, 0.00210733, 198.187, -65.8895, 0, 0.00101041, 0.00173921, 0.0011603, 108.715, -36.1436, 0, 0.00100992, -0.0789538, 20.6083, 177.139, -0.160368, 16.3357, 92.2556, -0.0010428, -0.000656678, 0.0027686, -0.000576056, -0.000576056, -0.000576056
2228, 1,0.00241347, 0.000678538, 0.000454576, 151.088, 42.8352, 0.00465297, 291.683, -96.437, 0, 0.000976937, 0.00308788, 0.00206033, 193.52, -64.0631, 0, 0.000976424, 0.00174227, 0.00116266, 108.977, -36.0593, 0, 0.00097598, -0.24803, 17.2379, 175.199, -0.212983, 14.4426, 93.9484, -0.00101569, -0.000704199, 0.00275933, -0.000573809, -0.000573809, -0.000573809
2229, 1,0.00210493, 0.000672795, 0.000452717, 131.589, 42.1817, 0.00396349, 247.797, -81.4349, 0, 0.00107915, 0.00277322, 0.00185771, 173.473, -57.2281, 0, 0.00107872, 0.00144085, 0.000965479, 89.9845, -29.6993, 0, 0.00107824, 0.360365, 12.7876, 158.536, 0.157212, 10.4602, 78.4806, -0.000896117, -0.000653233, 0.00247804, -0.000466963, -0.000466963, -0.000466963
2230, 1,0.00206901, 0.000632989, 0.0004247, 129.401, 39.8252, 0.00393386, 246.266, -81.3442, 0, 0.00104514, 0.0026978, 0.00180377, 168.909, -55.9843, 0, 0.00104471, 0.00144389, 0.00096668, 90.1769, -29.8887, 0, 0.00104426, 0.248491, 15.7153, 151.989, 0.0190509, 12.478, 77.169, -0.000880341, -0.000583995, 0.00237279, -0.000474287, -0.000474287, -0.000474287
2231, 1,0.00204127, 0.00059505, 0.00039878, 127.552, 37.5224, 0.0039246, 245.678, -81.1704, 0, 0.00101112, 0.00263236, 0.00175586, 164.731, -54.6204, 0, 0.00101069, 0.00145343, 0.000970341, 90.6618, -30.0466, 0, 0.00101028, -0.171264, 15.9126, 148.12, -0.228913, 12.9761, 77.3928, -0.000867593, -0.000570552, 0.00232441, -0.000481813, -0.000481813, -0.000481813
2232, 1,0.00202096, 0.000559732, 0.000375997, 126.269, 35.3155, 0.00392365, 245.623, -80.9104, 0, 0.000977103, 0.002577, 0.00172376, 161.217, -53.1776, 0, 0.000976663, 0.00146775, 0.000981886, 91.6058, -30.2067, 0, 0.000976299, -0.263031, 12.7138, 147.082, -0.212036, 11.2358, 79.5964, -0.000844768, -0.00062134, 0.00232891, -0.000481823, -0.000481823, -0.000481823
2233, 1,0.00168564, 0.000547404, 0.00036996, 105.214, 34.2274, 0.00314333, 195.898, -63.7066, 0, 0.00107939, 0.00222931, 0.00149944, 139.211, -45.6125, 0, 0.00107907, 0.00114555, 0.000770571, 71.4416, -23.4105, 0, 0.00107868, 0.315223, 7.70336, 128.819, 0.128444, 6.79043, 63.3126, -0.000714298, -0.000567668, 0.00202218, -0.000368703, -0.000368703, -0.000368703
2234, 1,0.00165374, 0.000508409, 0.000342206, 103.235, 31.9372, 0.00314196, 196.232, -64.4045, 0, 0.00104535, 0.00215857, 0.00144696, 134.911, -44.5214, 0, 0.00104501, 0.00115208, 0.000773135, 71.7949, -23.6852, 0, 0.00104466, 0.178264, 10.7201, 122.666, -0.0276296, 8.87413, 62.209, -0.000701602, -0.000499772, 0.00192382, -0.000377895, -0.000377895, -0.000377895
2235, 1,0.00163619, 0.000472824, 0.00031774, 101.974, 29.7863, 0.00316718, 197.826, -65.0106, 0, 0.00101133, 0.00210559, 0.00140723, 131.464, -43.4116, 0, 0.00101098, 0.00116957, 0.000781662, 72.7291, -23.9972, 0, 0.00101066, -0.224095, 11.0381, 119.421, -0.258298, 9.47509, 62.7749, -0.000692502, -0.000488622, 0.00188551, -0.000387497, -0.000387497, -0.000387497
2236, 1,0.00163178, 0.000441818, 0.000298279, 101.577, 27.8353, 0.00320614, 200.225, -65.5466, 0, 0.000977303, 0.0020703, 0.00139105, 129.08, -42.2829, 0, 0.000976934, 0.0011957, 0.000803379, 74.3244, -24.3414, 0, 0.00097665, -0.321668, 7.96954, 119.201, -0.254129, 7.84761, 65.4309, -0.000674633, -0.000542472, 0.00190312, -0.000390557, -0.000390557, -0.000390557
2237, 1,0.00127055, 0.000423239, 0.000288383, 79.1038, 26.3333, 0.00233668, 144.756, -46.0691, 0, 0.00107963, 0.00169096, 0.00114648, 105.279, -34.0098, 0, 0.00107942, 0.000852941, 0.000578173, 53.0863, -17.1276, 0, 0.00107912, 0.262259, 2.45741, 99.3097, 0.0918018, 2.98727, 48.3039, -0.000532847, -0.000485363, 0.00157016, -0.000270705, -0.000270705, -0.000270705
2238, 1,0.00124197, 0.000384865, 0.000260666, 77.2765, 24.1007, 0.00235602, 146.516, -47.4969, 0, 0.00104558, 0.00162389, 0.00109414, 101.175, -33.1001, 0, 0.00104533, 0.000862692, 0.000581489, 53.5628, -17.5105, 0, 0.00104507, 0.12033, 5.57685, 93.603, -0.0631954, 5.15177, 47.443, -0.000523256, -0.000418943, 0.00147932, -0.000281722, -0.000281722, -0.000281722
2239, 1,0.00123537, 0.000351718, 0.000237718, 76.5988, 22.1045, 0.00241557, 150.234, -48.8431, 0, 0.00101154, 0.00158415, 0.00106366, 98.4538, -32.2285, 0, 0.00101127, 0.000888923, 0.000596091, 54.9473, -17.9618, 0, 0.00101103, -0.286085, 6.00335, 90.9683, -0.298032, 5.84286, 48.3406, -0.000518016, -0.000410072, 0.00145101, -0.000293623, -0.000293623, -0.000293623
2240, 1,0.00124818, 0.000325808, 0.000222433, 77.1179, 20.4419, 0.00249774, 155.243, -50.2019, 0, 0.000977508, 0.00157092, 0.00106546, 97.2538, -31.4096, 0, 0.00097721, 0.00092759, 0.000628679, 57.2038, -18.4934, 0, 0.000977006, -0.36822, 3.07688, 91.5202, -0.284744, 4.33784, 51.4271, -0.000504583, -0.000466643, 0.00148081, -0.000299324, -0.000299324, -0.000299324
2241, 1,0.00086513, 0.000301758, 0.000209452, 53.5826, 18.5718, 0.00155632, 95.0488, -28.5341, 0, 0.00107984, 0.00116518, 0.000805857, 72.0756, -22.4217, 0, 0.00107974, 0.0005669, 0.000392178, 35.1723, -10.8537, 0, 0.00107953, 0.210636, -2.90032, 69.9549, 0.0564643, -0.909802, 33.4145, -0.0003516, -0.000405391, 0.0011209, -0.000172822, -0.000172822, -0.000172822
2242, 1,0.000837468, 0.000263561, 0.000181286, 51.7129, 16.3745, 0.00158457, 97.5564, -30.6482, 0, 0.0010458, 0.00109867, 0.00075024, 67.9443, -21.7086, 0, 0.00104565, 0.000578434, 0.000394385, 35.6154, -11.3531, 0, 0.00104547, 0.0621351, 0.323319, 64.7403, -0.101028, 1.33774, 32.8226, -0.000345387, -0.000340638, 0.0010383, -0.000185869, -0.000185869, -0.000185869
2243, 1,0.000843235, 0.0002332, 0.000160179, 51.6244, 14.5462, 0.0016774, 103.276, -32.7004, 0, 0.00101175, 0.00107379, 0.000730879, 65.9588, -21.08, 0, 0.00101156, 0.000614695, 0.000417257, 37.4585, -11.949, 0, 0.00101141, -0.341026, 0.864648, 62.7164, -0.333101, 2.1244, 34.0556, -0.000343927, -0.000333949, 0.00101989, -0.000200009, -0.000200009, -0.000200009
2244, 1,0.000876901, 0.000214671, 0.000151427, 53.1531, 13.2717, 0.00180489, 110.921, -34.8321, 0, 0.000977702, 0.0010882, 0.000756298, 66.1132, -20.5478, 0, 0.000977476, 0.000667796, 0.00046216, 40.4043, -12.6527, 0, 0.00097735, -0.417585, -1.92655, 63.9876, -0.318989, 0.734439, 37.5425, -0.000334776, -0.000392992, 0.0010611, -0.000208285, -0.000208285, -0.000208285
2245, 1,0.000490686, 0.000187694, 0.0001379, 29.8309, 11.1799, 0.000859698, 49.6595, -11.0934, 0, 0.00108008, 0.000677901, 0.000503517, 40.9995, -10.8453, 0, 0.00108007, 0.000304069, 0.000229216, 18.6753, -4.58618, 0, 0.00107996, 0.157972, -8.32072, 40.6986, 0.0199674, -4.86256, 18.6011, -0.000170561, -0.000326775, 0.000673404, -7.50677E-05, -7.50677E-05, -7.50677E-05
2246, 1,0.000456095, 0.000149175, 0.000108734, 27.3622, 8.98531, 0.000861209, 51.0045, -13.8647, 0, 0.00104601, 0.000603253, 0.000435618, 36.2567, -10.3477, 0, 0.00104595, 0.000310915, 0.00022352, 18.5593, -5.21454, 0, 0.00104586, 0.00850474, -4.98898, 36.0237, -0.136245, -2.52677, 18.3066, -0.000167905, -0.000263885, 0.000599721, -9.02599E-05, -9.02599E-05, -9.02599E-05
2247, 1,0.000477578, 0.000123698, 9.15538E-05, 27.8328, 7.41142, 0.000980759, 58.2478, -16.5773, 0, 0.00101195, 0.000598198, 0.000432554, 35.0336, -9.9608, 0, 0.00101185, 0.000359145, 0.000257192, 20.7929, -5.95399, 0, 0.00101178, -0.392558, -4.33446, 34.6094, -0.367252, -1.64675, 19.876, -0.000170228, -0.000259351, 0.000591171, -0.000106658, -0.000106658, -0.000106658
2248, 1,0.000539828, 0.00011987, 9.6728E-05, 30.6012, 6.8467, 0.00115471, 68.4587, -19.4192, 0, 0.00097791, 0.000653789, 0.00049525, 37.0192, -9.6996, 0, 0.000977756, 0.000429379, 0.000316896, 24.4565, -6.82135, 0, 0.00097771, -0.464163, -6.99274, 36.5557, -0.351558, -2.92466, 23.7403, -0.000165127, -0.000320629, 0.000643055, -0.000117363, -0.000117363, -0.000117363
2249, 1,0.000247491, 0.000100211, 9.28904E-05, 12.442, 5.11772, 0.000481864, 19.4283, 6.2427, 0, 0.00108032, 0.000346227, 0.000356589, 17.5374, 0.720824, 0, 0.00108042, 0.00015051, 0.000175377, 7.36887, 1.67577, 0, 0.0010804, 0.106032, -13.7526, 11.4841, -0.0162369, -8.83102, 3.81995, 1.03288E-05, -0.000248522, 0.000226585, 2.26014E-05, 2.26014E-05, 2.26014E-05
2250, 1,0.00019956, -7.04949E-05, 6.92095E-05, 9.07936, -3.38479, 0.000390576, 16.5998, 2.84817, 0, 0.00104625, 0.000264894, 0.000277576, 12.2221, 0.985189, 0, 0.00104628, 0.000136977, 0.000146182, 6.01756, 0.907537, 0, 0.00104628, -0.0408142, -10.312, 7.39727, -0.169434, -6.40466, 3.85148, 9.22684E-06, -0.00018773, 0.00016254, 5.13118E-06, 5.13118E-06, 5.13118E-06
2251, 1,0.000232184, -7.68824E-05, 6.824E-05, 9.66755, -4.05559, 0.000470405, 21.973, -0.477084, 0, 0.00101219, 0.000286607, 0.000297925, 11.8174, 1.1292, 0, 0.00101216, 0.000181761, 0.0001752, 7.75595, 0.0230947, 0, 0.00101218, -0.438173, -9.54463, 6.59522, -0.398291, -5.43202, 5.76103, 3.13318E-06, -0.000185334, 0.00016384, -1.35251E-05, -1.35251E-05, -1.35251E-05
2252, 1,0.000313213, -0.000110557, 9.3628E-05, 13.1537, -6.0083, 0.000650805, 32.6922, -3.95641, 0, 0.000978134, 0.000379123, 0.000393758, 15.4011, 1.13662, 0, 0.000978053, 0.000255473, 0.000236035, 11.4043, -0.997909, 0, 0.000978087, -0.508757, -12.0759, 9.17476, -0.383365, -6.60395, 9.98104, 4.37269E-06, -0.000248655, 0.000225747, -2.65506E-05, -2.65506E-05, -2.65506E-05
2253, 1,0.000248821, -0.00014793, 0.000112821, 5.54246, -8.75256, 0.000538144, 9.00554, 23.4717, 0, 0.00108052, 0.000325482, 0.000520424, 7.73465, 12.2788, 0, 0.00108071, 0.000173415, 0.000297915, 3.36333, 7.93374, 0, 0.00108079, 0.0546668, -19.1447, -17.7464, -0.0522438, -12.7752, -10.9738, 0.000191099, -0.000169626, -0.000220626, 0.000120207, 0.000120207, 0.000120207
2254, 1,0.000217558, -0.000151227, 0.000108354, 3.29946, -9.19728, 0.000432317, 6.15523, 19.485, 0, 0.00104643, 0.000280596, 0.000473222, 4.45229, 12.2911, 0, 0.00104656, 0.000157037, 0.000263075, 2.2342, 7.01391, 0, 0.00104665, -0.0849673, -15.5946, -21.1939, -0.199892, -10.256, -10.5858, 0.000186041, -0.000111185, -0.000274275, 0.00010033, 0.00010033, 0.00010033
2255, 1,0.000233305, -0.000169506, 0.000120146, 3.52933, -10.3412, 0.000419824, 7.68811, 15.5993, 0, 0.00101238, 0.000299843, 0.000487818, 4.381, 12.1914, 0, 0.00101243, 0.000170726, 0.000259412, 2.89552, 5.98362, 0, 0.00101254, -0.477815, -14.7172, -21.3792, -0.426306, -9.19377, -8.33079, 0.000176181, -0.000110943, -0.000263101, 7.94085E-05, 7.94085E-05, 7.94085E-05
2256, 1,0.000280798, -0.000202435, 0.000145465, 5.61062, -12.1904, 0.000495797, 13.744, 11.5605, 0, 0.000978323, 0.000361292, 0.000548934, 6.74023, 11.9613, 0, 0.000978317, 0.000208372, 0.000281883, 4.88844, 4.81815, 0, 0.00097843, -0.550364, -17.1278, -18.2058, -0.413567, -10.2661, -3.77478, 0.000173751, -0.000176138, -0.000191796, 6.41757E-05, 6.41757E-05, 6.41757E-05
2257, 1,0.00034968, -0.000254509, 0.000177025, 3.28749, -15.8368, 0.000740249, 5.58331, 40.5902, 0, 0.00108074, 0.000448443, 0.000827832, 4.55958, 23.8303, 0, 0.00108103, 0.000252097, 0.000476233, 2.07274, 14.1891, 0, 0.0010812, 0.0044752, -24.4458, -47.0495, -0.0876698, -16.6551, -25.8245, 0.000371785, -8.90822E-05, -0.000669296, 0.000217777, 0.000217777, 0.000217777
2258, 1,0.000327322, -0.000265021, 0.000180713, 1.84802, -16.5583, 0.000639392, 3.5652, 36.0417, 0, 0.00104665, 0.000421113, 0.000793431, 2.53038, 23.5719, 0, 0.00104686, 0.000236091, 0.000439133, 1.29436, 13.106, 0, 0.00104704, -0.124151, -20.7869, -49.8046, -0.22785, -14.042, -25.0481, 0.000362562, -3.32713E-05, -0.000711755, 0.000195355, 0.000195355, 0.000195355
2259, 1,0.000331668, -0.000284061, 0.000194037, 1.96135, -17.6896, 0.000593173, 4.04122, 31.6487, 0, 0.00101257, 0.000431703, 0.00079604, 2.51463, 23.2273, 0, 0.00101271, 0.000235282, 0.000419059, 1.62491, 11.9287, 0, 0.0010129, -0.511464, -19.8033, -49.3672, -0.451293, -12.8938, -22.4411, 0.000348939, -3.52251E-05, -0.00069065, 0.000172161, 0.000172161, 0.000172161
2260, 1,0.000354166, -0.000312687, 0.000215706, 3.19084, -19.2886, 0.000602084, 7.38884, 27.1354, 0, 0.00097852, 0.000466679, 0.000827183, 3.97776, 22.7762, 0, 0.000978589, 0.000247975, 0.000414358, 2.72103, 10.6282, 0, 0.000978782, -0.589184, -22.1012, -45.6383, -0.442331, -13.8744, -17.5679, 0.00034303, -0.000102144, -0.000610556, 0.000154834, 0.000154834, 0.000154834
2261, 1,0.000474505, -0.000373722, 0.000253918, 2.31946, -23.496, 0.000978949, 4.07245, 57.5972, 0, 0.00108096, 0.000607302, 0.00117105, 3.23438, 35.3774, 0, 0.00108135, 0.000343318, 0.000667172, 1.52178, 20.4433, 0, 0.00108161, -0.0448439, -29.6048, -76.4825, -0.122782, -20.4302, -40.7767, 0.000552419, -5.88875E-06, -0.00112049, 0.000315333, 0.000315333, 0.000315333
2262, 1,0.000454105, -0.000385435, 0.000259819, 1.27834, -24.2238, 0.00087794, 2.55903, 52.507, 0, 0.00104687, 0.000585192, 0.00113704, 1.79739, 34.8295, 0, 0.00104717, 0.000325876, 0.000625973, 0.937761, 19.1853, 0, 0.00104744, -0.158859, -25.8397, -78.4901, -0.253775, -17.724, -39.5781, 0.000538812, 4.69797E-05, -0.00115093, 0.000290219, 0.000290219, 0.000290219
2263, 1,0.00045119, -0.00040308, 0.000272443, 1.35001, -25.2481, 0.000815686, 2.70481, 47.66, 0, 0.0010128, 0.000588741, 0.00112915, 1.79769, 34.2386, 0, 0.00101302, 0.000317423, 0.000596131, 1.14607, 17.8599, 0, 0.00101329, -0.539726, -24.7543, -77.4216, -0.473935, -16.4944, -36.6113, 0.000521421, 4.2774E-05, -0.0011198, 0.000264743, 0.000264743, 0.000264743
2264, 1,0.000460184, -0.000428266, 0.0002913, 2.18942, -26.6484, 0.000792861, 4.91452, 42.7698, 0, 0.000978731, 0.000608682, 0.00114193, 2.82349, 33.583, 0, 0.000978877, 0.000317436, 0.000576636, 1.86217, 16.4337, 0, 0.000979149, -0.624725, -26.948, -73.1763, -0.469289, -17.3917, -31.4401, 0.000512249, -2.57242E-05, -0.00103155, 0.000245456, 0.000245456, 0.000245456
2265, 1,0.00060754, -0.000496954, 0.00033488, 1.82013, -31.3366, 0.00122982, 3.27474, 74.4872, 0, 0.00108118, 0.000778324, 0.0015264, 2.56774, 46.921, 0, 0.00108166, 0.000438852, 0.000862536, 1.24904, 26.697, 0, 0.00108202, -0.0927085, -34.5698, -106.101, -0.157103, -24.0601, -55.8739, 0.000733023, 8.09558E-05, -0.00157525, 0.000412891, 0.000412891, 0.000412891
2266, 1,0.000586036, -0.000507742, 0.000340897, 1.00228, -31.9719, 0.00112538, 2.07674, 68.8495, 0, 0.00104708, 0.000756378, 0.00148759, 1.45435, 46.0647, 0, 0.00104747, 0.000418945, 0.000816054, 0.7793, 25.2523, 0, 0.00104782, -0.189371, -30.7025, -107.302, -0.278174, -21.2625, -54.2163, 0.000714794, 0.00013053, -0.00159277, 0.000384921, 0.000384921, 0.000384921
2267, 1,0.000577507, -0.000523444, 0.000352248, 1.05379, -32.8654, 0.00105321, 2.09818, 63.6057, 0, 0.00101301, 0.000753872, 0.00147008, 1.46109, 45.2264, 0, 0.00101331, 0.000405224, 0.0007787, 0.92567, 23.778, 0, 0.00101366, -0.56201, -29.5217, -105.596, -0.493793, -19.958, -50.8821, 0.000693664, 0.000123997, -0.00155156, 0.00035718, 0.00035718, 0.00035718
2268, 1,0.000578105, -0.000545867, 0.000368941, 1.68265, -34.1049, 0.00101269, 3.71711, 58.4616, 0, 0.000978925, 0.000764168, 0.00147008, 2.24282, 44.3846, 0, 0.000979149, 0.000397747, 0.000749733, 1.44575, 22.237, 0, 0.000979501, -0.657303, -31.6217, -100.875, -0.494829, -20.782, -45.4342, 0.000681448, 5.40605E-05, -0.00145581, 0.000336074, 0.000336074, 0.000336074
2269, 1,0.000744333, -0.000621842, 0.000417537, 1.5419, -39.2496, 0.00148504, 2.83642, 91.2106, 0, 0.0010814, 0.000954839, 0.00188723, 2.20522, 58.4629, 0, 0.00108197, 0.000536392, 0.00106, 1.11071, 32.9519, 0, 0.00108242, -0.139723, -39.2909, -135.958, -0.19138, -27.5051, -71.1591, 0.000913609, 0.000172423, -0.00203459, 0.000510458, 0.000510458, 0.000510458
2270, 1,0.000720099, -0.00063072, 0.000422693, 0.864901, -39.7447, 0.00137489, 1.8647, 84.9766, 0, 0.00104731, 0.000930468, 0.00184089, 1.29192, 57.2759, 0, 0.00104778, 0.000513402, 0.00100744, 0.715953, 31.3058, 0, 0.00104822, -0.210883, -35.3259, -136.291, -0.296717, -24.6191, -69.0016, 0.000890593, 0.000218296, -0.00203825, 0.000479536, 0.000479536, 0.000479536
2271, 1,0.000706803, -0.000644283, 0.000432582, 0.904139, -40.4992, 0.00129714, 1.86743, 79.4033, 0, 0.00101321, 0.000922537, 0.00181427, 1.30073, 56.193, 0, 0.00101359, 0.000495502, 0.000963587, 0.823945, 29.6847, 0, 0.00101403, -0.577286, -34.0595, -133.942, -0.510228, -23.2489, -65.295, 0.00086573, 0.000209334, -0.00198692, 0.00044952, 0.00044952, 0.00044952
2272, 1,0.00070158, -0.000664404, 0.000447537, 1.40375, -41.6041, 0.00124587, 3.10097, 74.1848, 0, 0.000979129, 0.000926011, 0.00180458, 1.93016, 55.184, 0, 0.000979431, 0.000483011, 0.000927801, 1.22597, 28.0404, 0, 0.000979862, -0.684555, -36.0771, -128.79, -0.516742, -24.0107, -59.5939, 0.000850729, 0.000138109, -0.00188437, 0.000426775, 0.000426775, 0.000426775
2273, 1,0.000883154, -0.000747518, 0.000501007, 1.39379, -47.1937, 0.00173928, 2.57099, 107.684, 0, 0.00108162, 0.00113428, 0.00225098, 2.01587, 69.9946, 0, 0.00108228, 0.000635041, 0.00125863, 1.05428, 39.1995, 0, 0.00108282, -0.173515, -43.7126, -166.098, -0.213549, -30.7198, -86.6652, 0.00109431, 0.000269418, -0.00249941, 0.000608164, 0.000608164, 0.000608164
2274, 1,0.000855265, -0.000753914, 0.000504745, 0.810787, -47.5198, 0.00162144, 1.85683, 100.721, 0, 0.00104752, 0.001106, 0.00219546, 1.23437, 68.4612, 0, 0.00104807, 0.000608619, 0.00119947, 0.711823, 37.3443, 0, 0.0010486, -0.214005, -39.6627, -165.507, -0.301264, -27.7573, -83.9743, 0.00106638, 0.00031111, -0.00248835, 0.000574218, 0.000574218, 0.000574218
2275, 1,0.00083771, -0.000765268, 0.000513119, 0.843586, -48.1331, 0.0015469, 2.12186, 94.9023, 0, 0.00101342, 0.00109309, 0.00216013, 1.24539, 67.1341, 0, 0.00101388, 0.000587124, 0.00114971, 0.794135, 35.5763, 0, 0.0010144, -0.567776, -38.3224, -162.512, -0.507246, -26.3323, -79.8892, 0.00103794, 0.000299545, -0.00242687, 0.000542053, 0.000542053, 0.000542053
2276, 1,0.000828221, -0.000783444, 0.000526643, 1.25179, -49.1245, 0.00148713, 2.89101, 89.8719, 0, 0.000979328, 0.0010915, 0.00214276, 1.76782, 65.9863, 0, 0.000979708, 0.000571036, 0.00110869, 1.11211, 33.8485, 0, 0.000980219, -0.707264, -40.2702, -156.981, -0.536661, -27.0432, -73.9656, 0.00102017, 0.000227326, -0.00231831, 0.000517605, 0.000517605, 0.000517605
2277, 1,0.00102308, -0.000873567, 0.000584878, 1.31415, -55.1482, 0.0019869, 2.30093, 123.871, 0, 0.00108185, 0.00131534, 0.00261625, 1.9201, 81.5177, 0, 0.0010826, 0.000734244, 0.00145777, 1.03504, 45.4439, 0, 0.00108323, -0.204402, -47.8007, -196.548, -0.235343, -33.6798, -102.417, 0.00127493, 0.000372686, -0.00297027, 0.000705816, 0.000705816, 0.000705816
2278, 1,0.000991103, -0.000877089, 0.000586822, 0.828217, -55.2844, 0.00188845, 3.47544, 115.949, 0, 0.00104776, 0.00128233, 0.00255082, 1.26094, 79.5973, 0, 0.00104838, 0.000704342, 0.00139206, 0.762259, 43.3474, 0, 0.00104899, -0.140824, -43.6465, -195.004, -0.238668, -30.6227, -99.1809, 0.00124302, 0.000409894, -0.00294447, 0.000669774, 0.000669774, 0.000669774
2279, 1,0.000970001, -0.000886266, 0.000593722, 0.860854, -55.7598, 0.00182405, 4.38466, 109.944, 0, 0.00101365, 0.00126518, 0.00250746, 1.2777, 78.0482, 0, 0.00101418, 0.000679936, 0.00133703, 0.828193, 41.4518, 0, 0.00101478, -0.510447, -42.2532, -191.381, -0.466811, -29.1624, -94.7263, 0.00121078, 0.000395678, -0.00287295, 0.000635168, 0.000635168, 0.000635168
2280, 1,0.000957028, -0.000902834, 0.000606085, 1.18781, -56.6587, 0.00173662, 3.19522, 105.496, 0, 0.000979543, 0.00125948, 0.00248361, 1.70795, 76.7861, 0, 0.00098, 0.000660899, 0.00129156, 1.07014, 39.6531, 0, 0.00098059, -0.701804, -44.1541, -185.502, -0.532917, -29.8403, -88.5862, 0.0011902, 0.000322515, -0.00275877, 0.000608913, 0.000608913, 0.000608913
2281, 1,0.00116429, -0.000999683, 0.000668863, 1.33695, -63.0964, 0.00226846, 3.3644, 140.305, 0, 0.00108207, 0.00149794, 0.00298291, 1.94217, 92.9497, 0, 0.0010829, 0.000834415, 0.00165782, 1.09485, 51.6081, 0, 0.00108363, -0.109308, -51.4566, -227.283, -0.137387, -36.2999, -118.387, 0.00145677, 0.000483551, -0.00344848, 0.000804726, 0.000804726, 0.000804726
2282, 1,0.00112741, -0.00100009, 0.000668765, 0.883952, -63.0286, 0.0022323, 8.3875, 131.102, 0, 0.00104799, 0.00145914, 0.00290691, 1.33335, 90.6903, 0, 0.00104868, 0.00080043, 0.00158536, 0.835759, 49.3275, 0, 0.00104938, 0.0259065, -47.2365, -224.86, -0.104156, -33.1851, -114.693, 0.00142098, 0.000515882, -0.00340842, 0.000766511, 0.000766511, 0.000766511
2283, 1,0.00110381, -0.00100722, 0.000674308, 0.970166, -63.3757, 0.00215884, 9.25358, 124.896, 0, 0.00101388, 0.00143887, 0.00285662, 1.40531, 88.8934, 0, 0.00101447, 0.000774063, 0.00152595, 0.938192, 47.2705, 0, 0.00101516, -0.283948, -45.7717, -220.624, -0.279302, -31.6639, -109.868, 0.00138618, 0.000498931, -0.00332758, 0.00073057, 0.00073057, 0.00073057
2284, 1,0.00108809, -0.0010226, 0.000685835, 1.19445, -64.2092, 0.00201957, 4.94889, 121.44, 0, 0.000979754, 0.00143, 0.00282719, 1.72793, 87.5872, 0, 0.000980292, 0.000752685, 0.0014764, 1.08461, 45.4526, 0, 0.000980963, -0.665966, -47.6882, -214.407, -0.507422, -32.3631, -103.487, 0.00136095, 0.000424926, -0.0032072, 0.000700661, 0.000700661, 0.000700661
2285, 1,0.00130491, -0.00112544, 0.000752574, 1.21232, -71.0165, 0.00263112, 7.09489, 158.282, 0, 0.00108227, 0.00167993, 0.00334784, 1.82294, 104.473, 0, 0.00108322, 0.00093383, 0.00185624, 0.990047, 57.8866, 0, 0.00108404, -0.253917, -54.8606, -258.305, -0.297514, -38.7531, -134.609, 0.00163498, 0.00060222, -0.00393235, 0.000899987, 0.000899987, 0.000899987
2286, 1,0.00126298, -0.00112278, 0.000750398, 1.00675, -70.7435, 0.00264578, 16.25, 146.813, 0, 0.00104821, 0.00163496, 0.00326354, 1.4745, 101.584, 0, 0.00104898, 0.000895862, 0.00177944, 0.956027, 55.1404, 0, 0.00104977, 0.656765, -50.358, -255.051, 0.446468, -35.3807, -130.487, 0.00160566, 0.000628972, -0.00388297, 0.000869461, 0.000869461, 0.000869461
2287, 1,0.00123897, -0.00112827, 0.000754954, 1.14362, -70.9874, 0.0025754, 17.4762, 140.338, 0, 0.0010141, 0.00161404, 0.00320796, 1.57836, 99.7112, 0, 0.00101477, 0.000869162, 0.00171656, 1.07632, 53.0776, 0, 0.00101553, 0.13861, -48.9434, -250.329, 0.0535628, -33.9068, -125.38, 0.00156542, 0.000609437, -0.00379285, 0.000828973, 0.000828973, 0.000828973
2288, 1,0.00122186, -0.00114293, 0.000765967, 1.2775, -71.7898, 0.00238056, 8.83232, 139.242, 0, 0.000979941, 0.00160354, 0.00317383, 1.82824, 98.3666, 0, 0.000980591, 0.000846738, 0.00166318, 1.15739, 51.2159, 0, 0.000981341, -0.547673, -50.8495, -243.703, -0.41923, -34.5849, -118.644, 0.00153321, 0.000535965, -0.00366541, 0.000793271, 0.000793271, 0.000793271
2289, 1,0.00145272, -0.00124999, 0.000835227, 2.17856, -78.8614, 0.0030856, 13.2484, 178.922, 0, 0.00108243, 0.00186849, 0.00371758, 2.79366, 114.892, 0, 0.00108356, 0.00104091, 0.0020607, 1.95617, 63.1074, 0, 0.00108447, 1.14008, -56.5777, -289.24, 1.04188, -39.6131, -150.751, 0.00182836, 0.000740167, -0.00443275, 0.00101032, 0.00101032, 0.00101032
2290, 1,0.00140292, -0.00124475, 0.000831233, 1.52533, -78.4026, 0.00318144, 29.5754, 162.936, 0, 0.00104842, 0.00181496, 0.0036229, 1.98646, 112.387, 0, 0.00104928, 0.000995648, 0.00197656, 1.42002, 60.9151, 0, 0.00105016, 1.20721, -52.3964, -285.971, 0.805711, -36.5867, -146.964, 0.00178726, 0.000763262, -0.00437413, 0.000967811, 0.000967811, 0.000967811
2291, 1,0.00138682, -0.00124933, 0.000835416, 2.39177, -78.5913, 0.00314216, 32.0678, 156.706, 0, 0.00101431, 0.00180212, 0.00356879, 2.81806, 110.011, 0, 0.00101508, 0.000975989, 0.00191543, 2.20953, 58.3895, 0, 0.00101593, 1.46007, -50.9143, -280.577, 1.18374, -35.0436, -141.309, 0.00175564, 0.000737404, -0.00427817, 0.000936592, 0.000936592, 0.000936592
2292, 1,0.00135789, -0.00126418, 0.0008467, 1.61852, -79.4283, 0.00287944, 16.6892, 160.325, 0, 0.000980101, 0.00177981, 0.0035254, 2.17421, 108.91, 0, 0.000980919, 0.000942375, 0.00185316, 1.46415, 56.7112, 0, 0.00098175, 0.135876, -53.4082, -273.457, 0.197921, -36.2711, -134.061, 0.00171387, 0.000658257, -0.00413944, 0.000893008, 0.000893008, 0.000893008
2293, 1,0.0015923, -0.00137333, 0.000916834, 1.00281, -86.6235, 0.00371155, 30.8752, 195.047, 0, 0.00108259, 0.00204827, 0.00406213, 1.57628, 127.94, 0, 0.00108377, 0.00113857, 0.00224029, 0.71189, 71.0211, 0, 0.00108477, -2.25519, -60.3077, -321.257, -2.47785, -42.4592, -168.126, 0.00196168, 0.000876154, -0.00491376, 0.00106014, 0.00106014, 0.00106014
2294, 1,0.00155134, -0.00136674, 0.000911788, 3.34297, -86.0323, 0.00408079, 68.1979, 168.153, 0, 0.00104874, 0.00200402, 0.00397213, 3.75097, 122.776, 0, 0.00104951, 0.00109878, 0.00216013, 2.93518, 66.3585, 0, 0.00105047, 3.36128, -55.309, -316.382, 2.55965, -38.6682, -162.967, 0.00199631, 0.000870252, -0.00485876, 0.00109048, 0.00109048, 0.00109048
2295, 1,0.00151866, -0.00137146, 0.000916609, 2.64283, -86.2328, 0.00400535, 65.9895, 165.954, 0, 0.00101457, 0.00197465, 0.0039146, 3.07214, 121.272, 0, 0.00101531, 0.0010643, 0.00209636, 2.25128, 64.6986, 0, 0.00101624, 2.33882, -54.4188, -311.735, 1.68353, -37.7565, -158.023, 0.00195194, 0.000846186, -0.00476597, 0.00104687, 0.00104687, 0.00104687
2296, 1,0.00150243, -0.00138729, 0.000928796, 2.06017, -87.1694, 0.00350396, 28.6241, 183.896, 0, 0.000980212, 0.00196522, 0.00387788, 2.61961, 120.039, 0, 0.000981228, 0.00104536, 0.0020412, 1.83893, 62.7579, 0, 0.000982141, -0.0104283, -56.4056, -303.702, -0.100426, -38.4573, -149.716, 0.00188648, 0.000780844, -0.00461522, 0.000982338, 0.000982338, 0.000982338
2297, 1,0.00177211, -0.00149729, 0.000998639, 3.5099, -94.44, 0.0052257, 29.8453, 214.361, 0.0459821, 0.00108232, 0.00226915, 0.00448041, 4.05837, 138.362, 0, 0.00108376, 0.0012758, 0.00249274, 3.07869, 76.3622, 0, 0.00108485, 2.09428, -62.0011, -355.178, 1.55928, -43.6222, -187.024, 0.00221733, 0.00102824, -0.00549061, 0.00122919, 0.00122919, 0.00122919
2298, 1,0.00171747, -0.00148688, 0.000993001, 3.86072, -93.5904, 0.005613, 58.2178, 195.524, 0.046276, 0.00104831, 0.00221364, 0.00435314, 4.60816, 134.881, 0, 0.00104943, 0.00122221, 0.00237512, 3.19662, 73.6056, 0, 0.00105047, 2.61786, -55.6897, -351.572, 1.09955, -38.4149, -183.502, 0.00217098, 0.00106956, -0.00542916, 0.00117351, 0.00117351, 0.00117351
2299, 1,0.00170147, -0.00149657, 0.00100111, 5.19519, -94.0203, 0.00543486, 64.5228, 189.865, 0.0378283, 0.00101436, 0.00220366, 0.00431431, 6.04381, 131.583, 0, 0.00101539, 0.00120126, 0.00232508, 4.42338, 70.143, 0, 0.0010164, 5.02008, -55.8294, -343.94, 3.59927, -38.8268, -175.201, 0.00217207, 0.00099231, -0.00529954, 0.00117412, 0.00117412, 0.00117412
2300, 1,0.00162365, -0.00151035, 0.0010102, 0.793372, -94.9485, 0.00439732, 38.0274, 204.228, 0.0138264, 0.000980239, 0.00212815, 0.00422821, 1.33128, 132.136, 0, 0.000981411, 0.00112294, 0.00222339, 0.434655, 69.6993, 0, 0.000982406, -0.298964, -58.7587, -337.351, -0.618497, -39.9489, -168.531, 0.00207179, 0.000934727, -0.00515071, 0.00108158, 0.00108158, 0.00108158
2301, 1,0.00201266, -0.00162673, 0.00108454, 5.04874, -102.735, 0.00881146, 9.05969, 236.063, 0.186511, 0.00108204, 0.00255362, 0.00493746, 5.86779, 153.063, 0, 0.00108398, 0.0014724, 0.00277574, 4.41919, 85.7382, 0, 0.00108516, -1.65948, -65.6402, -391.888, -2.66742, -46.5593, -207.988, 0.00236932, 0.00124528, -0.00609817, 0.00128736, 0.00128736, 0.00128736
2302, 1,0.00194366, -0.00161478, 0.00108291, 9.94217, -101.666, 0.00820626, 3.28411, 237.172, 0.170676, 0.00104778, 0.00249366, 0.00482035, 11.2843, 143.699, 0, 0.0010498, 0.00139417, 0.00265925, 8.62096, 77.4827, 0, 0.00105093, 11.2103, -56.0404, -386.267, 8.53861, -38.5508, -202.436, 0.00249158, 0.00125102, -0.00607429, 0.00139196, 0.00139196, 0.00139196
2303, 1,0.00184884, -0.00162478, 0.00109009, 8.98613, -102.096, 0.00750972, 2.03487, 235.553, 0.147166, 0.00101367, 0.00239253, 0.00468107, 9.90405, 139.687, 0, 0.00101559, 0.00130895, 0.0025229, 8.20924, 73.2859, 0, 0.00101669, 7.83852, -53.7321, -373.169, 5.3177, -36.4257, -188.75, 0.00236085, 0.00120592, -0.00583342, 0.00126148, 0.00126148, 0.00126148
2304, 1,0.00190166, -0.00163733, 0.00109446, 3.27754, -103.056, 0.00732543, 11.2319, 233.377, 0.129101, 0.000979787, 0.00245087, 0.00471576, 4.15399, 148.025, 0, 0.000981434, 0.00135454, 0.00253515, 2.59389, 80.3357, 0, 0.000982512, -2.21968, -63.5165, -378.34, -3.03828, -44.1561, -193.813, 0.00228354, 0.0011294, -0.00581495, 0.00120008, 0.00120008, 0.00120008
2305, 1,0.00236961, -0.0017729, 0.00118537, 17.6289, -112.044, 0.0138217, -2.67455, 249.221, 0.378399, 0.00108118, 0.002966, 0.00558328, 18.6268, 163.071, 0, 0.00108387, 0.00177353, 0.00321936, 16.6534, 89.926, 0, 0.00108516, 17.2966, -72.3145, -434.196, 15.6936, -52.6325, -232.839, 0.00292935, 0.00133281, -0.00690811, 0.00174315, 0.00174315, 0.00174315
2306, 1,0.00212245, -0.00175442, 0.00118206, 7.92989, -110.455, 0.0138621, 5.2471, 266.978, 0.332986, 0.00104695, 0.00273151, 0.00529638, 10.1422, 160.181, 0, 0.0010498, 0.00151396, 0.00293521, 5.7481, 88.663, 0, 0.00105102, 9.22881, -60.0507, -429.721, 5.04403, -42.218, -228.815, 0.00271035, 0.0014838, -0.00679326, 0.00149525, 0.00149525, 0.00149525
2307, 1,0.0020628, -0.0017588, 0.00118527, 5.77979, -110.497, 0.0132067, 3.23711, 269.049, 0.311139, 0.00101298, 0.00266496, 0.00520479, 7.77658, 158.255, 2.87796E-07, 0.00101574, 0.00146923, 0.0028538, 4.39841, 86.8829, 2.87796E-07, 0.00101691, 5.23067, -58.0407, -421.955, 0.910501, -40.7343, -220.825, 0.0025989, 0.0014623, -0.00662912, 0.00138319, 0.00138319, 0.00138319
2308, 1,0.00234028, -0.00178592, 0.00119605, 25.3367, -112.49, 0.0119802, -2.91645, 245.836, 0.314537, 0.000979473, 0.00294015, 0.00541799, 26.2607, 150.936, 0, 0.000981816, 0.0017413, 0.00304045, 24.4611, 77.356, 0, 0.000982989, 24.7617, -63.2378, -414.331, 23.4142, -43.8085, -211.674, 0.00290208, 0.00124846, -0.00659973, 0.00171475, 0.00171475, 0.00171475
2309, 1,0.00244388, -0.00194249, 0.00130164, 3.84093, -122.675, 0.0175713, -3.94246, 257.22, 0.503685, 0.00108059, 0.00310276, 0.00604432, 5.50113, 189.759, 0, 0.00108354, 0.0017861, 0.00344719, 2.49218, 109.762, 0, 0.00108495, -2.78123, -78.9661, -487.528, -4.59103, -58.548, -266.148, 0.00292677, 0.00162578, -0.00763155, 0.00162826, 0.00162826, 0.00162826
2310, 1,0.00257146, -0.00191394, 0.00129474, 24.9175, -120.35, 0.018147, 2.62778, 272.878, 0.475116, 0.00104614, 0.0032435, 0.00603335, 27.791, 168.953, 0, 0.00104958, 0.00190106, 0.00344874, 22.1134, 91.3348, 0, 0.00105091, 27.7165, -52.6147, -481.962, 21.976, -34.5225, -261.458, 0.00324159, 0.00180268, -0.00778573, 0.00189745, 0.00189745, 0.00189745
2311, 1,0.00265146, -0.00192601, 0.00130472, 32.1732, -119.521, 0.0172822, 0.242458, 273.483, 0.450536, 0.00101231, 0.00333368, 0.00606388, 35.4546, 162.279, 0.00115541, 0.00101565, 0.00197, 0.00346086, 28.9301, 85.7061, 0.000424009, 0.00101691, 34.1266, -51.8313, -469.133, 27.8059, -35.1107, -249.813, 0.00330296, 0.00169769, -0.00763555, 0.00194384, 0.00194384, 0.00194384
2312, 1,0.00233049, -0.00195431, 0.00131309, 4.88042, -122.734, 0.015697, -1.92751, 256.191, 0.432266, 0.000978858, 0.00299597, 0.00575029, 6.88424, 180.098, 0, 0.000981363, 0.0016693, 0.00313942, 3.3599, 100.611, 0, 0.00098263, -4.48983, -72.7401, -463.065, -7.41519, -53.2305, -241.187, 0.00274018, 0.00152607, -0.00718866, 0.00142643, 0.00142643, 0.00142643
2313, 1,0.00302555, -0.00214981, 0.00144641, 31.8408, -135.056, 0.0196481, -5.34163, 253.289, 0.592135, 0.00108057, 0.00376033, 0.00696624, 34.2108, 193.11, 0, 0.00108382, 0.00229216, 0.00408477, 29.6184, 106.038, 0, 0.00108536, 30.6261, -63.2103, -546.747, 27.3948, -44.7806, -300.729, 0.00368829, 0.001992, -0.00881368, 0.0022482, 0.0022482, 0.0022482
2314, 1,0.00321654, -0.00210885, 0.00143177, 36.534, -131.105, 0.0200452, 4.12908, 263.136, 0.555225, 0.00104626, 0.0039634, 0.00707891, 40.6831, 180.076, 0.0101587, 0.00104966, 0.00247211, 0.00422572, 32.4665, 96.4573, 0.0101587, 0.0010511, 40.5707, -46.8882, -533.91, 32.2165, -30.0104, -291.578, 0.00396175, 0.00225306, -0.00915335, 0.00246566, 0.00246566, 0.00246566
2315, 1,0.00304704, -0.00213172, 0.0014516, 26.2149, -129.4, 0.0189786, -2.00154, 268.654, 0.524002, 0.00101227, 0.00381478, 0.00693893, 30.3494, 181.395, 0.0122362, 0.00101551, 0.00228188, 0.00404534, 22.2385, 98.6477, 0.0102699, 0.00101688, 26.9601, -45.9651, -525.18, 18.9112, -29.101, -285.753, 0.00373638, 0.00230032, -0.00900026, 0.00220404, 0.00220404, 0.00220404
2316, 1,0.00334267, -0.00221285, 0.00149283, 26.0908, -133.787, 0.0177681, -6.04504, 252.553, 0.527136, 0.000978826, 0.00410352, 0.00740507, 28.2929, 185.837, 0.022072, 0.000981524, 0.00258495, 0.00444421, 24.0719, 98.8768, 0.0199905, 0.000982929, 23.2242, -64.9266, -515.81, 20.4484, -45.1411, -271.938, 0.00398004, 0.00210132, -0.00913443, 0.00249176, 0.00249176, 0.00249176
2317, 1,0.00409189, -0.00243474, 0.00164096, 19.1859, -148.417, 0.0212537, -3.67902, 250.033, 0.652923, 0.00108109, 0.00493414, 0.00894885, 22.8327, 211.487, 0.0436934, 0.00108419, 0.00325252, 0.00567986, 15.8456, 116.015, 0.0436934, 0.00108591, 11.8154, -48.2278, -598.047, 7.90201, -32.399, -323.548, 0.00466506, 0.0033718, -0.0115541, 0.00303515, 0.00303515, 0.00303515
2318, 1,0.00394679, -0.00236395, 0.00161127, 23.3597, -143.45, 0.0210582, 7.90696, 250.905, 0.606591, 0.00104704, 0.00480505, 0.00868044, 29.2285, 196.874, 0.0422729, 0.00105006, 0.00308905, 0.00545863, 17.5082, 106.632, 0.0422729, 0.00105164, 28.2202, -29.5975, -589.246, 17.0229, -17.0145, -319.904, 0.00477987, 0.0035038, -0.0115552, 0.00307419, 0.00307419, 0.00307419
2319, 1,0.00418619, -0.002385, 0.0016288, 22.8895, -140.905, 0.0199612, -1.79384, 255.551, 0.587001, 0.00101301, 0.00505793, 0.00894336, 28.5109, 191.908, 0.0551406, 0.00101601, 0.00331495, 0.00568788, 17.2874, 102.775, 0.0531891, 0.00101753, 27.0926, -33.0876, -569.727, 16.3887, -19.541, -305.173, 0.00501495, 0.00354968, -0.0117773, 0.00328212, 0.00328212, 0.00328212
2320, 1,0.00394577, -0.00249492, 0.00168739, 14.5053, -147.418, 0.0189063, -1.28348, 246.589, 0.568647, 0.000979349, 0.00480882, 0.00873104, 17.4472, 204.897, 0.047265, 0.000981748, 0.0030907, 0.00539356, 11.9382, 109.599, 0.0445804, 0.000983311, 9.17272, -57.6688, -566.196, 5.85449, -39.9757, -294.676, 0.00458867, 0.00301392, -0.0110173, 0.00290929, 0.00290929, 0.00290929
2321, 1,0.00681922, -0.00282443, 0.00191747, 15.4291, -160.93, 0.0244569, 2.22642, 248.077, 0.749521, 0.00108203, 0.00778615, 0.0131415, 20.3892, 220.874, 0.145665, 0.0010853, 0.0058618, 0.00937116, 10.7758, 117.488, 0.145657, 0.00108728, -6.43485, -27.7007, -628.488, -7.76703, -20.2582, -324.44, 0.0067891, 0.00624404, -0.0169337, 0.00491632, 0.00491632, 0.00491632
2322, 1,0.00606634, -0.00271758, 0.00184992, 6.77112, -157.238, 0.0235077, 6.60506, 251.733, 0.692321, 0.00104822, 0.00693509, 0.0120254, 10.5444, 227.955, 0.11846, 0.00105105, 0.00519944, 0.00844419, 3.10856, 128.08, 0.11828, 0.00105287, -9.95306, -25.2758, -648.636, -16.877, -19.7135, -347.649, 0.00621728, 0.00590297, -0.0160808, 0.00426786, 0.00426786, 0.00426786
2323, 1,0.0056275, -0.00272031, 0.0018579, 13.9761, -155.712, 0.0218821, 6.10676, 247.87, 0.648222, 0.00101452, 0.00650916, 0.011368, 17.7599, 213.837, 0.10667, 0.00101717, 0.00474921, 0.0077774, 10.3297, 115.614, 0.104929, 0.0010189, 3.62376, -21.2648, -623.87, -5.38872, -14.7563, -326.696, 0.00603056, 0.00538634, -0.0151062, 0.00405415, 0.00405415, 0.00405415
2324, 1,0.00540475, -0.00281377, 0.0019168, 16.1586, -161.388, 0.0200664, -2.12741, 248.798, 0.60772, 0.000980558, 0.00639263, 0.0111212, 21.416, 215.301, 0.0971809, 0.000982929, 0.0044294, 0.0073482, 11.358, 112.535, 0.0950734, 0.000984666, 0.00558782, -30.7089, -615.2, -3.94494, -22.2023, -311.457, 0.00569798, 0.00490359, -0.0142954, 0.00379628, 0.00379628, 0.00379628
2325, 1,0.00997947, -0.00355928, 0.00242396, 5.48378, -169.874, 0.0286819, -0.729808, 254.886, 0.881296, 0.00108253, 0.01119, 0.0184293, 7.49232, 237.217, 0.272946, 0.00108643, 0.00878248, 0.0137074, 3.74364, 124.472, 0.259707, 0.0010888, -13.1258, -30.6336, -667.89, -10.1352, -23.0739, -340.208, 0.0101297, 0.00943159, -0.0241019, 0.00775545, 0.00775545, 0.00775545
2326, 1,0.00988751, -0.0033442, 0.00224617, 10.8625, -172.731, 0.0275345, 1.78236, 267.871, 0.797468, 0.00104953, 0.0110042, 0.017163, 14.4324, 259.337, 0.224987, 0.00105271, 0.00877867, 0.0127316, 7.49392, 141.671, 0.217353, 0.00105502, -59.4958, -18.0565, -700.457, -44.7558, -14.7994, -365.457, 0.0075963, 0.00969353, -0.022102, 0.00539171, 0.00539171, 0.00539171
2327, 1,0.0097493, -0.00331128, 0.00222502, 17.8414, -172.794, 0.0260329, 3.54306, 267.305, 0.745023, 0.00101575, 0.0108504, 0.0166049, 22.3564, 259.458, 0.207946, 0.00101846, 0.00865348, 0.0122132, 13.4814, 141.76, 0.200381, 0.00102067, -71.6494, -5.52888, -701.195, -54.3693, -5.12555, -365.785, 0.00669211, 0.00978167, -0.0212366, 0.00447988, 0.00447988, 0.00447988
2328, 1,0.00938667, -0.00350421, 0.00238903, 7.10758, -170.542, 0.0246281, 1.8435, 253.527, 0.741394, 0.000981142, 0.0105751, 0.0174525, 8.92981, 236.548, 0.248571, 0.000983658, 0.00821142, 0.0128142, 5.56854, 122.965, 0.236032, 0.000985782, -18.8569, -27.1423, -663.644, -13.7049, -19.6239, -335.567, 0.00920653, 0.0089739, -0.0226369, 0.00686146, 0.00686146, 0.00686146
2329, 1,0.0122396, -0.00430967, 0.0029144, -7.50246, -185.027, 0.0328781, -28.5046, 305.64, 0.966118, 0.00102233, 0.0137374, 0.0217824, -10.6102, 279.995, 0.335203, 0.00102763, 0.0107478, 0.0159968, -4.28046, 146.554, 0.30518, 0.00103043, -61.6084, -41.1574, -737.22, -38.5902, -24.2615, -376.81, 0.0107778, 0.0121207, -0.0284874, 0.00791704, 0.00791704, 0.00791704
2330, 1,0.0128829, -0.00412846, 0.00280925, -8.60986, -194.427, 0.0344191, -31.0103, 344.257, 0.912131, 0.00099191, 0.0143518, 0.0213385, -11.413, 321.278, 0.299946, 0.000997, 0.0114215, 0.015772, -5.65226, 173.271, 0.278893, 0.000999925, -133.659, -44.5821, -785.594, -84.7835, -27.3763, -407.653, 0.00785318, 0.0127437, -0.0268582, 0.0054919, 0.0054919, 0.0054919
2331, 1,0.0130314, -0.00410504, 0.00279281, -7.33801, -194.289, 0.0340394, -21.8468, 338.618, 0.885635, 0.000960198, 0.0144957, 0.0214416, -9.78963, 321.384, 0.301301, 0.000964622, 0.0115728, 0.0158944, -4.76717, 173.391, 0.281033, 0.000967453, -138.666, -37.6807, -787.807, -87.8959, -22.7437, -409.532, 0.00762381, 0.0131459, -0.0270388, 0.00530627, 0.00530627, 0.00530627
2332, 1,0.0117177, -0.004292, 0.00292285, -6.55797, -184.536, 0.0294625, -20.9779, 297.919, 0.856395, 0.000926954, 0.0132578, 0.0209181, -8.41961, 281.5, 0.31252, 0.000930416, 0.0101827, 0.0151041, -4.58765, 148.966, 0.28074, 0.000932898, -70.8162, -33.5033, -740.179, -45.8336, -20.6516, -380.413, 0.00980649, 0.0119888, -0.0273279, 0.0069976, 0.0069976, 0.0069976
2333, 1,0.0146803, 0.00172184, 0.00118432, 369.911, 98.2175, 0.0320414, 457.597, -138.707, 0.478322, 0.00110554, 0.0163911, 0.0122131, 468.065, -182.643, 0.186462, 0.0011058, 0.0129721, 0.00994547, 271.807, -112.249, 0.186462, 0.00110439, 44.8894, 40.9995, 462.04, 38.4054, 31.0207, 267.322, -0.00625349, -0.00655572, 0.0161172, -0.00498909, -0.00498909, -0.00498909
2334, 1,0.0158672, 0.00195118, 0.00133236, 377.228, 110.293, 0.0329806, 447.989, -140.66, 0.502058, 0.00107079, 0.0178057, 0.0131527, 487.465, -200.15, 0.211268, 0.00107133, 0.0139316, 0.0106649, 267.043, -119.083, 0.211268, 0.00106974, 77.1325, 39.979, 483.339, 60.4986, 32.7643, 263.987, -0.0058593, -0.00806993, 0.0176112, -0.00448483, -0.00448483, -0.00448483
2335, 1,0.0158999, 0.00193013, 0.00131316, 379.35, 108.863, 0.0335069, 455.463, -146.2, 0.509089, 0.00103656, 0.0178115, 0.0131913, 488.132, -201.597, 0.211751, 0.00103697, 0.0139926, 0.0107391, 270.639, -121.076, 0.211751, 0.00103543, 83.6479, 37.7769, 483.365, 64.2221, 32.0271, 266.979, -0.00557789, -0.00829536, 0.017583, -0.00428574, -0.00428574, -0.00428574
2336, 1,0.0139774, 0.00167026, 0.00115431, 391.481, 95.8562, 0.0326351, 473.946, -156.04, 0.486051, 0.00100283, 0.0156155, 0.0114686, 487.129, -199.894, 0.168606, 0.00100294, 0.0123468, 0.009278, 295.98, -130.127, 0.168606, 0.00100169, 67.2948, 55.1924, 477.194, 57.1108, 45.5682, 287.702, -0.00545468, -0.00614919, 0.0151845, -0.00430856, -0.00430856, -0.00430856
2337, 1,0.0131817, 0.00167065, 0.00115212, 360.129, 94.6446, 0.0306398, 465.181, -148.051, 0.449393, 0.00108196, 0.0148062, 0.0107823, 454.47, -175.008, 0.158547, 0.00108186, 0.0115685, 0.00865433, 266.016, -108.236, 0.158547, 0.00108057, 33.4669, 41.8258, 449.733, 31.5727, 32.0925, 261.042, -0.00592049, -0.00558682, 0.0146226, -0.00465471, -0.00465471, -0.00465471
2338, 1,0.014012, 0.00180714, 0.00125891, 371.449, 103.36, 0.0319183, 465.956, -147.467, 0.47201, 0.00104778, 0.0157962, 0.0113103, 474.665, -186.464, 0.172766, 0.00104788, 0.0122334, 0.00906364, 268.351, -112.923, 0.172766, 0.0010465, 50.016, 42.9411, 466.436, 44.3674, 32.5184, 261.883, -0.00583267, -0.00627634, 0.0154574, -0.00441927, -0.00441927, -0.00441927
2339, 1,0.013629, 0.00177574, 0.00123741, 363.292, 101.085, 0.0321227, 469.758, -149.071, 0.473991, 0.0010142, 0.01537, 0.0110248, 464.16, -180.104, 0.167278, 0.00101414, 0.0118966, 0.0088075, 262.6, -108.41, 0.167278, 0.00101284, 46.6514, 39.6529, 454.007, 40.7517, 30.2018, 254.276, -0.00564657, -0.00608262, 0.0149524, -0.00429475, -0.00429475, -0.00429475
2340, 1,0.0119349, 0.00156232, 0.00108704, 380.428, 90.2139, 0.0311881, 474.555, -153.503, 0.456163, 0.000981171, 0.0134446, 0.00976493, 470.076, -171, 0.123531, 0.000980817, 0.0104389, 0.00774111, 291.127, -107.484, 0.123531, 0.000979732, 22.1708, 26.6767, 464.153, 20.207, 18.2128, 284.033, -0.00519826, -0.00508386, 0.0132622, -0.0040392, -0.0040392, -0.0040392
2341, 1,0.00855138, 0.00141228, 0.000982607, 327.582, 83.4003, 0.0312561, 481.115, -163.941, 0.457898, 0.00108166, 0.00990925, 0.00711221, 410.075, -145.598, 0.0710837, 0.00108046, 0.00721304, 0.00525381, 245.707, -88.5445, 0.0710837, 0.00107942, 1.50697, 32.7708, 402.516, 6.10947, 23.3076, 236.216, -0.00412493, -0.00311276, 0.00969764, -0.0030217, -0.0030217, -0.0030217
2342, 1,0.00962971, 0.00148602, 0.00105375, 344.599, 86.3471, 0.0330954, 485.473, -169.943, 0.491487, 0.00104754, 0.0110704, 0.00788681, 430.335, -162.296, 0.0915307, 0.00104647, 0.0082038, 0.00584126, 259.301, -104.848, 0.0915307, 0.00104544, 15.4599, 59.2834, 412.145, 23.8626, 47.895, 242.787, -0.00464784, -0.00308941, 0.0105123, -0.00341096, -0.00341096, -0.00341096
2343, 1,0.00925837, 0.0014584, 0.00103551, 337.125, 84.3737, 0.0330792, 487.245, -172.865, 0.491338, 0.00101397, 0.0106659, 0.00758124, 420.798, -160.546, 0.0872188, 0.00101283, 0.00786775, 0.00559101, 253.959, -104.399, 0.0870758, 0.00101186, 19.7028, 60.852, 401.082, 27.2387, 50.1437, 235.813, -0.00438311, -0.00294973, 0.010071, -0.00318357, -0.00318357, -0.00318357
2344, 1,0.00821243, 0.00129083, 0.000901745, 358.026, 78.2574, 0.0317979, 478.506, -159.156, 0.467488, 0.000980503, 0.00946779, 0.00669065, 435.356, -151.201, 0.0528374, 0.000979556, 0.00696946, 0.00495335, 281.208, -97.7088, 0.0528374, 0.00097868, -0.820654, 24.8088, 429.615, 2.65209, 17.2471, 273.227, -0.00375934, -0.00305899, 0.00934609, -0.00277519, -0.00277519, -0.00277519
2345, 1,0.00519672, 0.00115258, 0.000800859, 295.912, 70.9694, 0.0338819, 479.23, -159.161, 0.505968, 0.00108139, 0.00634442, 0.00450007, 366.318, -114.381, 0.00782251, 0.00107952, 0.00405178, 0.00290863, 225.847, -67.2342, 0.00665713, 0.00107869, -26.9542, 8.92142, 361.175, -21.531, 3.73536, 219.498, -0.00257763, -0.00183832, 0.00627995, -0.00168549, -0.00168549, -0.00168549
2346, 1,0.00493799, 0.00113784, 0.00081616, 276.944, 68.9891, 0.0340563, 477.563, -156.51, 0.508742, 0.00104685, 0.00607051, 0.00459283, 345.171, -86.2624, 0.00352689, 0.00104461, 0.00380869, 0.00296808, 209.181, -44.5105, 0.00281639, 0.0010439, -75.6959, 14.2335, 320.25, -61.5415, 8.67974, 186.393, -0.00306356, -0.00121668, 0.00568256, -0.00208595, -0.00208595, -0.00208595
2347, 1,0.00492867, 0.00110391, 0.000790121, 276.41, 67.1687, 0.0335836, 476.336, -154.722, 0.499914, 0.00101301, 0.0060261, 0.00456623, 342.737, -86.3687, 0.00367838, 0.0010109, 0.00383503, 0.00299665, 210.584, -45.6231, 0.00311115, 0.00101023, -77.0972, 18.6275, 317.576, -63.4976, 13.2871, 187.08, -0.00310141, -0.00113369, 0.00563926, -0.00215612, -0.00215612, -0.00215612
2348, 1,0.00501911, 0.00102842, 0.000711653, 305.764, 64.9902, 0.0328278, 477.031, -156.04, 0.486363, 0.000979867, 0.00604287, 0.00426706, 370.103, -114.606, -6.77626E-21, 0.000978285, 0.00399778, 0.00285736, 241.771, -72.3039, -6.77626E-21, 0.000977614, -31.8369, 10.5899, 365.064, -26.2676, 8.00013, 235.179, -0.00247037, -0.00166314, 0.00599299, -0.00168645, -0.00168645, -0.00168645
2349, 1,0.0041074, 0.000939441, 0.000642706, 251.291, 59.2863, 0.0347327, 475.06, -152.143, 0.52147, 0.00108149, 0.00504609, 0.00350836, 310.277, -98.3942, 0, 0.00107945, 0.00316918, 0.00222833, 192.493, -60.2603, 0, 0.00107878, -13.4831, 2.5719, 306.094, -9.76556, 2.68667, 187.86, -0.00182913, -0.00158643, 0.0050121, -0.00115018, -0.00115018, -0.00115018
2350, 1,0.00373279, 0.00087246, 0.000614178, 228.054, 54.1019, 0.0342146, 475.767, -154.09, 0.512391, 0.00104731, 0.00460486, 0.00332517, 281.816, -85.8769, 0, 0.0010451, 0.00286096, 0.0020977, 174.515, -53.2564, 0, 0.00104455, -31.2337, 23.8016, 265.063, -22.4851, 21.8016, 160.453, -0.00201212, -0.00099074, 0.00439626, -0.00131349, -0.00131349, -0.00131349
2351, 1,0.00373694, 0.000839961, 0.000589872, 227.931, 52.1207, 0.0336078, 475.38, -153.489, 0.500883, 0.00101341, 0.00457591, 0.00335352, 279.554, -84.6669, 0, 0.0010113, 0.00289859, 0.00217563, 176.625, -53.259, 0, 0.00101079, -37.634, 30.0337, 261.601, -28.9241, 28.1547, 160.546, -0.00212773, -0.000849426, 0.00435089, -0.00144897, -0.00144897, -0.00144897
2352, 1,0.00396869, 0.000836367, 0.000567765, 248.041, 52.4977, 0.0328592, 478.702, -158.922, 0.487347, 0.000979976, 0.00480147, 0.00330958, 299.862, -100.07, 0, 0.000978098, 0.00313789, 0.0021787, 196.609, -67.1155, 0, 0.000977576, -9.82344, 14.9794, 295.055, -6.30727, 17.5092, 190.145, -0.00177534, -0.00136694, 0.00476595, -0.00118209, -0.00118209, -0.00118209
2353, 1,0.00324983, 0.000777647, 0.000528127, 201.937, 48.8423, 0.0332227, 480.871, -163.02, 0.494984, 0.00108204, 0.00402681, 0.00276735, 250.426, -83.7331, 0, 0.00107955, 0.00247329, 0.00171418, 153.696, -53.2539, 0, 0.00107902, -2.39035, 7.19155, 246.398, -0.370924, 11.1144, 149.018, -0.00136516, -0.00127844, 0.00400223, -0.000842732, -0.000842732, -0.000842732
2354, 1,0.00300973, 0.000700503, 0.000483558, 184.04, 43.545, 0.0325838, 483.058, -167.652, 0.484042, 0.00104808, 0.00370948, 0.00261944, 227.1, -71.9539, 0, 0.00104541, 0.00231044, 0.00165437, 141.307, -45.9626, 0, 0.00104496, -16.0272, 18.0299, 213.859, -11.0336, 19.937, 128.984, -0.00147298, -0.000925703, 0.00356615, -0.000958231, -0.000958231, -0.000958231
2355, 1,0.00294382, 0.000666998, 0.000458701, 178.38, 41.4104, 0.0318393, 487.168, -174.736, 0.470682, 0.00101423, 0.00360963, 0.00254053, 219.218, -68.117, 0, 0.00101145, 0.00227873, 0.00162471, 137.914, -43.6, 0, 0.00101105, -18.37, 16.7195, 206.002, -13.0556, 18.8073, 125.048, -0.00145937, -0.000903366, 0.00346792, -0.000960997, -0.000960997, -0.000960997
2356, 1,0.00309773, 0.000683112, 0.000469237, 189.403, 42.53, 0.0306219, 486.071, -172.835, 0.447432, 0.000980155, 0.00377612, 0.00260431, 231.059, -73.1561, 5.42101E-20, 0.000977658, 0.00242209, 0.00168508, 148.283, -47.6203, 5.42101E-20, 0.000977253, -10.2684, 3.81415, 225.923, -7.83244, 9.75663, 140.937, -0.0013604, -0.00119561, 0.00374294, -0.000906888, -0.000906888, -0.000906888
2357, 1,0.00255408, 0.000664098, 0.000457424, 152.941, 41.3324, 0.0275015, 492.501, -185.33, 0.389754, 0.00108219, 0.00321583, 0.00220927, 193.703, -58.7711, 0, 0.00107907, 0.00189399, 0.00130657, 112.609, -33.7643, 0, 0.00107863, -7.18975, -5.82699, 189.33, -5.88537, 0.313237, 106.865, -0.00107857, -0.00115114, 0.00318333, -0.000657397, -0.000657397, -0.000657397
2358, 1,0.00247308, 0.000600621, 0.000408434, 144.041, 37.4623, 0.0263553, 507.234, -211.141, 0.370514, 0.00104864, 0.00307256, 0.00212707, 181.105, -53.5475, 0, 0.00104503, 0.00187432, 0.00131438, 107.26, -30.7975, 0, 0.00104464, -13.9575, 1.62806, 172.972, -11.3399, 4.50019, 99.2323, -0.00114136, -0.000977074, 0.00298726, -0.00072786, -0.00072786, -0.00072786
2359, 1,0.0024271, 0.000579586, 0.000393194, 140.909, 36.2042, 0.0246413, 498.761, -198.379, 0.337429, 0.00101425, 0.00300492, 0.00207349, 176.623, -51.8314, 0, 0.00101109, 0.00185038, 0.00129243, 105.533, -29.7377, 0, 0.00101073, -15.0783, 2.35764, 168.215, -12.4883, 4.89238, 96.8091, -0.00113268, -0.000940743, 0.00291438, -0.000730072, -0.000730072, -0.000730072
2360, 1,0.00244652, 0.00059061, 0.000407109, 146.766, 36.8934, 0.0229905, 481.123, -169.54, 0.303692, 0.000979629, 0.00303276, 0.00210145, 182.913, -55.7908, 0, 0.000977274, 0.00186304, 0.00129633, 111.114, -33.3445, 0, 0.000976918, -5.17146, -6.65167, 179.196, -4.19743, -1.22623, 105.457, -0.000980045, -0.00112481, 0.00301004, -0.000606156, -0.000606156, -0.000606156
2361, 1,0.00214326, 0.000598771, 0.00041352, 127.536, 37.2464, 0.015816, 466.133, -149.915, 0.164282, 0.00108095, 0.0027397, 0.00192359, 164.419, -48.8825, 0, 0.00107891, 0.00154859, 0.00110268, 90.9382, -25.8727, 0, 0.00107851, -3.02995, -12.4696, 162.147, -2.77886, -7.32399, 87.7209, -0.00083705, -0.00108886, 0.00271912, -0.00046948, -0.00046948, -0.00046948
2362, 1,0.00208048, 0.000553345, 0.000375095, 119.07, 34.5914, 0.0141481, 456.206, -135.028, 0.131006, 0.00104656, 0.00263083, 0.00182783, 153.292, -42.6787, 0, 0.00104481, 0.00153219, 0.00108567, 85.121, -20.8782, 0, 0.00104444, -11.238, -8.54874, 147.823, -10.5168, -6.11851, 79.2698, -0.000912304, -0.000951246, 0.00255606, -0.00055377, -0.00055377, -0.00055377
2363, 1,0.00203451, 0.000533605, 0.000361019, 116.331, 33.4047, 0.0130249, 450.885, -127.783, 0.109077, 0.00101244, 0.00256492, 0.00176791, 149.345, -41.3044, 0, 0.00101089, 0.00150626, 0.00105357, 83.6023, -20.194, 0, 0.00101054, -13.2692, -6.85832, 144.041, -12.442, -4.77589, 77.8, -0.000928998, -0.000895003, 0.00249419, -0.000579097, -0.000579097, -0.000579097
2364, 1,0.0019942, 0.000534788, 0.000369186, 118.369, 33.3396, 0.0125386, 455.908, -136.118, 0.100014, 0.000978674, 0.00252538, 0.00179433, 151.208, -44.0543, 0, 0.000977085, 0.00146552, 0.00106531, 85.8897, -23.4853, 0, 0.000976759, -3.01071, -13.7975, 148.971, -2.68372, -9.1732, 82.3128, -0.000753383, -0.00104001, 0.00250817, -0.000422625, -0.000422625, -0.000422625
2365, 1,0.00176962, 0.000553244, 0.000383823, 105.359, 34.2037, 0.00698826, 404.872, -100.269, 0, 0.00107991, 0.00232108, 0.00165342, 139.375, -40.7787, 0, 0.00107887, 0.0012197, 0.000890974, 71.5095, -19.6375, 0, 0.0010785, -1.38509, -14.6586, 138.38, -1.30883, -9.78137, 70.0026, -0.00067335, -0.000974481, 0.00230956, -0.000338856, -0.000338856, -0.000338856
2366, 1,0.00163787, 0.000514975, 0.000351682, 95.1526, 32.0541, 0.00641571, 354.44, -68.9214, 0, 0.00104536, 0.00214942, 0.00149163, 126.91, -35.8565, 0, 0.00104479, 0.00112933, 0.000799968, 63.6678, -15.5882, 0, 0.00104445, -8.08861, -7.46933, 123.128, -7.89112, -4.86553, 59.5212, -0.000737126, -0.000769702, 0.00208865, -0.000413755, -0.000413755, -0.000413755
2367, 1,0.00164297, 0.000493768, 0.000336608, 97.1684, 30.7945, 0.00634787, 358.014, -77.69, 0, 0.00101157, 0.0021336, 0.0014726, 127.656, -37.8356, 0, 0.00101091, 0.00115496, 0.000808766, 66.949, -18.3469, 0, 0.00101059, -6.0501, -4.28946, 123.846, -5.73136, -1.93873, 62.7107, -0.000722924, -0.000739234, 0.00207606, -0.000409267, -0.000409267, -0.000409267
2368, 1,0.00181182, 0.000486482, 0.000336466, 109.975, 30.2621, 0.00669557, 397.215, -108.26, 0, 0.000978164, 0.00229693, 0.00160477, 140.021, -43.157, 0, 0.000977131, 0.00132771, 0.000935866, 80.0909, -24.4101, 0, 0.000976834, -0.941731, -8.68983, 139.102, -0.788457, -4.56506, 78.5837, -0.000697921, -0.000892037, 0.00229018, -0.000399423, -0.000399423, -0.000399423
2369, 1,0.00161304, 0.000512035, 0.000357461, 98.8889, 31.5272, 0.00513923, 319.063, -102.369, 0, 0.00108008, 0.00212427, 0.00148668, 130.329, -40.84, 0, 0.001079, 0.00110257, 0.000774017, 67.5316, -21.5239, 0, 0.00107866, 1.44066, -8.88389, 129.963, 1.47163, -3.82167, 66.9218, -0.000613683, -0.000844179, 0.0021206, -0.000308891, -0.000308891, -0.000308891
2370, 1,0.0014957, 0.000474221, 0.000324678, 91.8193, 29.4818, 0.00445485, 269.822, -79.7107, 0, 0.00104569, 0.00196882, 0.00134725, 121.19, -39.0966, 0, 0.001045, 0.00102361, 0.00070136, 62.5558, -20.4707, 0, 0.00104469, 0.342605, -2.42973, 119.377, 0.425544, 0.237118, 60.7494, -0.000609128, -0.000697296, 0.00194084, -0.000314047, -0.000314047, -0.000314047
2371, 1,0.0015121, 0.0004528, 0.000309572, 92.4984, 28.2181, 0.00442157, 266.858, -77.6366, 0, 0.00101171, 0.00196381, 0.00134211, 120.585, -38.7105, 0, 0.00101107, 0.00106131, 0.000728113, 64.5294, -20.8586, 0, 0.00101078, -0.978408, -1.41523, 118.525, -0.811204, 1.00404, 62.3831, -0.000630049, -0.00067581, 0.00193397, -0.000345357, -0.000345357, -0.000345357
2372, 1,0.0016606, 0.0004463, 0.000311108, 101.897, 27.6463, 0.00497529, 304.937, -93.7144, 0, 0.000978071, 0.00210554, 0.00146639, 129.35, -40.8768, 0, 0.000977233, 0.00121665, 0.000847849, 74.5908, -23.9674, 0, 0.000976965, 1.1888, -7.27918, 128.721, 1.28362, -2.81287, 73.4315, -0.000617747, -0.00082031, 0.00210128, -0.000349382, -0.000349382, -0.000349382
2373, 1,0.00147376, 0.000479237, 0.000337979, 89.1769, 29.3347, 0.00383626, 230.676, -66.3076, 0, 0.00107967, 0.00195187, 0.00138256, 118.415, -35.5703, 0, 0.00107913, 0.000996728, 0.000709991, 60.033, -17.8901, 0, 0.00107882, -0.127634, -11.3466, 118.185, -0.129465, -5.72739, 59.5273, -0.000563608, -0.000808613, 0.00194946, -0.000285277, -0.000285277, -0.000285277
2374, 1,0.00140623, 0.000440014, 0.000303594, 86.2889, 27.2474, 0.00327792, 196.685, -56.1326, 0, 0.00104551, 0.00184497, 0.00127368, 113.422, -36.0632, 0, 0.00104517, 0.000968646, 0.00067012, 59.2626, -19.0446, 0, 0.00104489, 0.522021, -4.42591, 112.093, 0.560699, -1.20483, 57.778, -0.000557257, -0.000681893, 0.00182435, -0.000288432, -0.000288432, -0.000288432
2375, 1,0.00142038, 0.000417628, 0.000287884, 87.0844, 25.9137, 0.00321356, 191.897, -53.6831, 0, 0.00101151, 0.00183649, 0.00126465, 112.845, -35.9541, 0, 0.00101122, 0.00100552, 0.000693254, 61.4553, -19.78, 0, 0.00101095, 0.155764, -3.54836, 111.255, 0.270933, -0.502393, 59.5714, -0.000562778, -0.000667565, 0.00181373, -0.000305601, -0.000305601, -0.000305601
2376, 1,0.00152675, 0.000410923, 0.000289982, 92.9806, 25.2856, 0.00369397, 219.855, -60.8403, 0, 0.000977707, 0.00193544, 0.00135943, 118.019, -36.3111, 0, 0.000977317, 0.00111971, 0.000785549, 68.13, -21.185, 0, 0.000977078, 0.284251, -8.85898, 117.508, 0.357355, -3.76329, 66.9608, -0.000565293, -0.000777727, 0.00193216, -0.000325444, -0.000325444, -0.000325444
2377, 1,0.00134837, 0.000447022, 0.000318948, 81.5305, 27.1691, 0.00291188, 172.516, -46.751, 0, 0.00107951, 0.00179417, 0.00128212, 108.608, -32.0742, 0, 0.00107926, 0.000903774, 0.000647875, 54.5446, -16.0529, 0, 0.00107898, 0.0166915, -12.3173, 108.523, 0.0369363, -6.10532, 54.2272, -0.000505313, -0.000767604, 0.00179343, -0.000252648, -0.000252648, -0.000252648
2378, 1,0.00129655, 0.00040533, 0.000282538, 79.5145, 24.9579, 0.00255022, 151.791, -41.9627, 0, 0.00104545, 0.00170039, 0.00118266, 104.349, -32.6024, 0, 0.00104529, 0.000894061, 0.000621954, 54.795, -17.2997, 0, 0.00104503, 0.352049, -5.95052, 103.406, 0.414468, -2.08523, 53.5698, -0.000506276, -0.000650711, 0.00168603, -0.000263982, -0.000263982, -0.000263982
2379, 1,0.0013092, 0.000381806, 0.000265987, 80.2228, 23.5617, 0.00254831, 152.027, -42.4503, 0, 0.00101146, 0.00168914, 0.00117106, 103.611, -32.514, 0, 0.0010113, 0.000930783, 0.000644396, 56.9821, -18.0897, 0, 0.00101106, 0.0758192, -4.99642, 102.462, 0.192534, -1.31063, 55.3872, -0.00051039, -0.000635704, 0.00167366, -0.000280735, -0.000280735, -0.000280735
2380, 1,0.00139715, 0.000376498, 0.000269442, 84.6536, 22.9958, 0.00291657, 172.921, -47.3185, 0, 0.000977594, 0.00177091, 0.00125705, 107.373, -32.332, 0, 0.000977356, 0.00102543, 0.000725672, 62.1437, -18.9477, 0, 0.000977144, 0.147382, -10.2402, 107.089, 0.220846, -4.56813, 61.1905, -0.000505684, -0.000739565, 0.00176981, -0.000293242, -0.000293242, -0.000293242
2381, 1,0.00124, 0.000414934, 0.000300117, 74.619, 25.0209, 0.00248343, 148.272, -41.2162, 0, 0.00107963, 0.00165373, 0.00119964, 99.555, -28.5088, 0, 0.0010794, 0.000827475, 0.000603, 49.7675, -14.1489, 0, 0.00107915, 0.0974904, -14.1145, 99.5433, 0.127876, -7.30803, 49.6269, -0.000447404, -0.000743496, 0.00165357, -0.0002207, -0.0002207, -0.0002207
2382, 1,0.00118323, 0.000370093, 0.000261049, 72.2132, 22.6494, 0.00224083, 135.617, -39.8269, 0, 0.00104558, 0.0015518, 0.00109201, 94.7385, -28.8303, 0, 0.00104539, 0.00081604, 0.00057436, 49.8018, -15.2433, 0, 0.00104516, 0.121899, -7.84294, 94.2121, 0.183382, -3.39311, 48.9397, -0.000451757, -0.00062497, 0.00154456, -0.000236514, -0.000236514, -0.000236514
2383, 1,0.00119361, 0.00034604, 0.00024415, 72.7746, 21.2233, 0.00226502, 137.224, -40.6568, 0, 0.00101158, 0.0015376, 0.0010783, 93.8114, -28.7885, 0, 0.00101139, 0.000851301, 0.000595809, 51.8937, -16.0987, 0, 0.00101118, 0.00851143, -6.76567, 93.1227, 0.112739, -2.49586, 50.6791, -0.000453256, -0.000609292, 0.00152966, -0.00025118, -0.00025118, -0.00025118
2384, 1,0.00128213, 0.000343224, 0.000249921, 76.9471, 20.7771, 0.00256191, 153.013, -43.2511, 0, 0.00097767, 0.0016222, 0.00116828, 97.4226, -28.4238, 0, 0.000977435, 0.000944383, 0.000677059, 56.6991, -16.7591, 0, 0.00097725, -0.097469, -11.9654, 97.3344, -0.0250557, -5.7195, 56.0218, -0.000449382, -0.000711596, 0.00162212, -0.000264033, -0.000264033, -0.000264033
2385, 1,0.00113302, 0.000383367, 0.000281856, 67.5632, 22.9015, 0.0022239, 132.463, -36.2928, 0, 0.00107974, 0.0015153, 0.00112021, 90.3896, -24.7523, 0, 0.00107954, 0.000751832, 0.000559758, 44.8116, -12.0564, 0, 0.00107931, -0.0145637, -16.038, 90.3094, 0.0213295, -8.63876, 44.7867, -0.000390674, -0.000720571, 0.00151296, -0.000190068, -0.000190068, -0.000190068
2386, 1,0.00106771, 0.000335291, 0.000240053, 64.6228, 20.3615, 0.00204995, 124.327, -36.7441, 0, 0.0010457, 0.00140154, 0.00100222, 84.8651, -24.9782, 0, 0.0010455, 0.000735221, 0.000526406, 44.49, -13.1078, 0, 0.0010453, 0.00761436, -9.74305, 84.6701, 0.0590249, -4.72216, 43.9865, -0.000393592, -0.00060059, 0.00139951, -0.000205604, -0.000205604, -0.000205604
2387, 1,0.00107694, 0.00031089, 0.000222954, 65.018, 18.9125, 0.00207472, 125.884, -37.5668, 0, 0.00101168, 0.0013857, 0.000986997, 83.7394, -24.8928, 0, 0.00101147, 0.000769914, 0.000547101, 46.4557, -13.9382, 0, 0.00101129, -0.158636, -8.61442, 83.4515, -0.0667283, -3.77826, 45.6595, -0.00039552, -0.00058415, 0.00138356, -0.000221035, -0.000221035, -0.000221035
2388, 1,0.00117447, 0.000311126, 0.000231554, 69.6339, 18.6156, 0.0023241, 138.479, -38.9293, 0, 0.000977712, 0.00148208, 0.00108748, 87.9268, -24.7178, 0, 0.000977486, 0.000869406, 0.000633941, 51.5826, -14.769, 0, 0.000977329, -0.108371, -13.6642, 87.9259, -0.0342273, -6.85351, 51.1948, -0.000391282, -0.000687637, 0.00147992, -0.000232921, -0.000232921, -0.000232921
2389, 1,0.00103044, 0.000352523, 0.000264365, 60.7344, 20.8156, 0.00199053, 117.125, -30.3576, 0, 0.00107983, 0.00138206, 0.00104596, 81.4881, -21.0615, 0, 0.00107967, 0.000679739, 0.000519936, 40.0426, -10.0347, 0, 0.00107948, -0.0305925, -17.9119, 81.1269, 0.008631, -9.93166, 40.027, -0.000332943, -0.000698492, 0.00137326, -0.00015856, -0.00015856, -0.00015856
2390, 1,0.000955272, 0.000301329, 0.000219888, 57.1685, 18.1123, 0.00185076, 111.036, -31.4983, 0, 0.0010458, 0.00125527, 0.000916432, 75.1726, -21.1815, 0, 0.00104562, 0.000656491, 0.000480548, 39.2642, -11.0254, 0, 0.00104545, -0.0237841, -11.5816, 75.1499, 0.0154911, -6.00948, 39.0703, -0.000334574, -0.000576604, 0.0012549, -0.000173849, -0.000173849, -0.000173849
2391, 1,0.000963575, 0.000276876, 0.00020287, 57.4324, 16.6544, 0.00188329, 113.187, -32.7063, 0, 0.00101174, 0.00123828, 0.000900325, 73.8953, -21.0902, 0, 0.00101155, 0.000690627, 0.000500692, 41.1283, -11.8664, 0, 0.0010114, -0.172793, -10.4147, 73.858, -0.0939322, -5.0268, 40.72, -0.000336024, -0.000560049, 0.00123826, -0.000189078, -0.000189078, -0.000189078
2392, 1,0.00107174, 0.000280655, 0.000214836, 62.5047, 16.5278, 0.00211831, 124.971, -33.9409, 0, 0.000977747, 0.00134842, 0.00101313, 78.6841, -20.9945, 0, 0.000977541, 0.000797907, 0.000594243, 46.5849, -12.7645, 0, 0.000977411, -0.144793, -15.448, 78.5762, -0.0676622, -8.06777, 46.4288, -0.000333469, -0.000665381, 0.00133943, -0.000202113, -0.000202113, -0.000202113
2393, 1,0.000932858, 0.000322775, 0.000248007, 54.1494, 18.7822, 0.00178284, 102.999, -24.4015, 0, 0.00107993, 0.00125494, 0.000977934, 72.8832, -17.3591, 0, 0.00107981, 0.000611487, 0.000484001, 35.464, -8.00578, 0, 0.00107964, -0.0539598, -19.8135, 71.9447, -0.0115511, -11.2614, 35.2903, -0.000275173, -0.00067673, 0.00123366, -0.000127086, -0.000127086, -0.000127086
2394, 1,0.000847714, 0.000268738, 0.000201076, 49.9577, 15.9282, 0.0016492, 97.3734, -25.8979, 0, 0.00104586, 0.00111528, 0.000837013, 65.7898, -17.402, 0, 0.00104572, 0.000581235, 0.000438306, 34.2142, -8.95903, 0, 0.00104558, -0.0211591, -13.444, 65.6711, 0.00760249, -7.32717, 34.1967, -0.000275108, -0.000553332, 0.00111084, -0.000141591, -0.000141591, -0.000141591
2395, 1,0.000855609, 0.000244547, 0.000184447, 50.1033, 14.4743, 0.0016905, 100.143, -27.4712, 0, 0.00101182, 0.00109793, 0.000820558, 64.3863, -17.3084, 0, 0.00101165, 0.000615079, 0.000457908, 35.9788, -9.81432, 0, 0.00101153, -0.171831, -12.2441, 64.3411, -0.102911, -6.3098, 35.8557, -0.000276556, -0.000536752, 0.00109413, -0.000157065, -0.000157065, -0.000157065
2396, 1,0.000974076, 0.000252199, 0.000200168, 55.6065, 14.531, 0.00193651, 112.645, -29.0409, 0, 0.000977802, 0.00122175, 0.000945787, 69.7593, -17.2814, 0, 0.000977616, 0.00072963, 0.000557729, 41.7348, -10.7746, 0, 0.000977512, -0.162407, -17.2547, 69.2614, -0.0817912, -9.3089, 41.7145, -0.000275437, -0.000643476, 0.00119924, -0.000171146, -0.000171146, -0.000171146
2397, 1,0.00084152, 0.000294472, 0.000233123, 47.8771, 16.8183, 0.00159477, 89.7053, -18.2973, 0, 0.00108, 0.00113551, 0.000917705, 64.66, -13.6558, 0, 0.00107992, 0.000548028, 0.000452899, 31.1296, -5.97972, 0, 0.00107979, -0.0684484, -21.714, 62.7499, -0.023198, -12.6033, 30.5657, -0.000217198, -0.000654774, 0.00109364, -9.54723E-05, -9.54723E-05, -9.54723E-05
2398, 1,0.000747168, 0.000238025, 0.000184123, 43.0977, 13.8338, 0.00145451, 83.9517, -20.1766, 0, 0.00104594, 0.000984181, 0.000766259, 56.8479, -13.6401, 0, 0.00104583, 0.000511094, 0.000400984, 29.4245, -6.90985, 0, 0.00104572, -0.0141063, -15.3072, 56.2417, 0.00720681, -8.65277, 29.3751, -0.000215827, -0.000530211, 0.000967392, -0.000109447, -0.000109447, -0.000109447
2399, 1,0.00075457, 0.000214539, 0.000168324, 43.1035, 12.4025, 0.00150205, 87.2108, -22.1195, 0, 0.00101189, 0.000966787, 0.000749835, 55.3137, -13.5395, 0, 0.00101175, 0.000544211, 0.000419684, 31.0528, -7.77482, 0, 0.00101165, -0.166928, -14.0876, 54.8732, -0.104479, -7.6117, 31.0406, -0.00021722, -0.000513771, 0.000950658, -0.000125106, -0.000125106, -0.000125106
2400, 1,0.0008828, 0.000226361, 0.00018815, 48.991, 12.6525, 0.00176817, 100.942, -24.1484, 0, 0.000977861, 0.00110394, 0.000887401, 61.2311, -13.5626, 0, 0.000977693, 0.000665357, 0.000525232, 37.0585, -8.78387, 0, 0.000977617, -0.181121, -19.083, 59.9521, -0.0962085, -10.5778, 37.0257, -0.000217349, -0.000621684, 0.00105902, -0.000140185, -0.000140185, -0.000140185
2401, 1,0.000758229, 0.000268018, 0.000220118, 41.9934, 14.9438, 0.00142921, 77.5463, -12.2743, 0, 0.00108009, 0.00102595, 0.000867442, 56.9129, -9.94578, 0, 0.00108005, 0.000490818, 0.000428087, 27.0979, -3.95086, 0, 0.00107994, -0.0833728, -23.6056, 53.5264, -0.035055, -13.9531, 25.8407, -0.000159126, -0.000632376, 0.000952967, -6.38206E-05, -6.38206E-05, -6.38206E-05
2402, 1,0.000655868, 0.000209827, 0.000169665, 36.6848, 11.8601, 0.00127545, 71.2911, -14.4782, 0, 0.00104601, 0.000864837, 0.000707103, 48.4729, -9.88448, 0, 0.00104593, 0.000447697, 0.000370288, 24.963, -4.86643, 0, 0.00104585, -0.0119248, -17.1708, 46.8362, 0.00473754, -9.98832, 24.5829, -0.00015675, -0.00050707, 0.000824234, -7.74397E-05, -7.74397E-05, -7.74397E-05
2403, 1,0.0006628, 0.000187629, 0.00015528, 36.5435, 10.4762, 0.00132534, 74.8457, -16.7921, 0, 0.00101194, 0.000847965, 0.000691235, 46.8247, -9.78068, 0, 0.00101183, 0.000479605, 0.000387563, 26.4245, -5.74481, 0, 0.00101176, -0.165283, -15.9327, 45.44, -0.106605, -8.92354, 26.2646, -0.000158119, -0.000490823, 0.000807615, -9.33159E-05, -9.33159E-05, -9.33159E-05
2404, 1,0.000799531, 0.000203788, 0.000179426, 42.7396, 10.9233, 0.00161117, 89.7665, -19.2622, 0, 0.000977925, 0.000997289, 0.000840229, 53.2138, -9.84042, 0, 0.000977775, 0.000606067, 0.000497727, 32.605, -6.79345, 0, 0.000977727, -0.198146, -20.9151, 50.6345, -0.109068, -11.8608, 32.3503, -0.000159178, -0.000599719, 0.000918482, -0.000109201, -0.000109201, -0.000109201
2405, 1,0.000684962, 0.000243866, 0.000209445, 36.5804, 13.1809, 0.00128974, 66.6499, -6.29267, 0, 0.00108016, 0.000928665, 0.00082955, 49.7455, -6.22969, 0, 0.00108016, 0.000441439, 0.000411142, 23.4307, -1.91996, 0, 0.00108009, -0.0973029, -25.4729, 44.2593, -0.0459637, -15.2988, 21.1046, -0.000100942, -0.000609275, 0.000811384, -3.21206E-05, -3.21206E-05, -3.21206E-05
2406, 1,0.000576592, 0.000184897, 0.000158461, 30.8464, 10.0437, 0.00111937, 59.7476, -8.81784, 0, 0.00104609, 0.000760764, 0.000663047, 40.8274, -6.1363, 0, 0.00104605, 0.000393099, 0.000348253, 20.9229, -2.8303, 0, 0.00104599, -0.0140226, -19.018, 37.4409, 0.000567491, -11.3203, 19.8106, -9.78853E-05, -0.000483613, 0.000681092, -4.55877E-05, -4.55877E-05, -4.55877E-05
2407, 1,0.000582982, 0.000164717, 0.000146218, 30.553, 8.73831, 0.00116628, 63.3124, -11.4654, 0, 0.00101203, 0.000745045, 0.000648366, 39.0925, -6.02923, 0, 0.00101194, 0.000423049, 0.000363355, 22.1807, -3.72185, 0, 0.0010119, -0.16776, -17.7676, 36.023, -0.110615, -10.2364, 21.5126, -9.92268E-05, -0.000467664, 0.00066469, -6.16822E-05, -6.16822E-05, -6.16822E-05
2408, 1,0.000726082, 0.00018509, 0.000174603, 36.9473, 9.37275, 0.00146633, 79.1201, -14.3299, 0, 0.000978, 0.000904253, 0.000806723, 45.8351, -6.11529, 0, 0.00097787, 0.000552908, 0.000476349, 28.4345, -4.80354, 0, 0.000977849, -0.214008, -22.7368, 41.2967, -0.121055, -13.1469, 27.6786, -0.00010094, -0.000577342, 0.00077742, -7.82108E-05, -7.82108E-05, -7.82108E-05
2409, 1,0.00062359, 0.000222496, 0.000201587, 31.7109, 11.5527, 0.00117915, 57.1452, -0.36606, 0, 0.00108025, 0.000845987, 0.000806376, 43.2533, -2.50675, 0, 0.00108028, 0.000401312, 0.000403491, 20.1783, 0.113513, 0, 0.00108024, -0.110627, -27.3008, 34.9317, -0.056244, -16.629, 16.3447, -4.26422E-05, -0.000585187, 0.000668587, -3.71277E-07, -3.71277E-07, -3.71277E-07
2410, 1,0.000512065, 0.00016404, 0.000151315, 25.7028, 8.42315, 0.000992229, 49.5915, -3.18802, 0, 0.00104616, 0.000675472, 0.000637628, 34.069, -2.39351, 0, 0.00104615, 0.000349254, 0.000336854, 17.3882, -0.799604, 0, 0.00104612, -0.0209074, -20.8362, 28.0376, -0.00590509, -12.6392, 15.0439, -3.92116E-05, -0.000459574, 0.000537648, -1.38744E-05, -1.38744E-05, -1.38744E-05
2411, 1,0.000517835, 0.000146641, 0.000141978, 25.2691, 7.22942, 0.00103047, 52.8752, -6.13382, 0, 0.0010121, 0.000661607, 0.000624815, 32.2954, -2.28488, 0, 0.00101203, 0.000376395, 0.000348914, 18.4163, -1.70589, 0, 0.00101202, -0.173861, -19.5777, 26.6062, -0.116066, -11.5387, 16.7725, -4.05281E-05, -0.00044401, 0.000521579, -3.01937E-05, -3.01937E-05, -3.01937E-05
2412, 1,0.000664115, -0.000177519, 0.000174105, 31.7066, -8.66282, 0.00133605, 69.11, -9.33361, 0, 0.000978066, 0.000827024, 0.000789078, 39.2154, -2.38676, 0, 0.000977956, 0.000506972, 0.000462194, 24.6092, -2.8137, 0, 0.000977963, -0.22877, -24.5346, 31.9237, -0.132201, -14.4254, 22.9987, -4.26284E-05, -0.000554293, 0.000635557, -4.72077E-05, -4.72077E-05, -4.72077E-05
2413, 1,0.000575526, 0.000204357, 0.000196994, 27.4357, 10.0805, 0.00109858, 49.0743, 5.50328, 0, 0.00108032, 0.00077979, 0.0007998, 37.5087, 1.22338, 0, 0.0010804, 0.000371378, 0.000406083, 17.3698, 2.14981, 0, 0.00108038, -0.122933, -29.0729, 25.5256, -0.0656241, -17.931, 11.5472, 1.57881E-05, -0.000559794, 0.000524237, 3.14365E-05, 3.14365E-05, 3.14365E-05
2414, 1,0.00046427, -0.000149863, 0.000148889, 21.3398, -7.20883, 0.000897951, 41.0023, 2.41097, 0, 0.00104625, 0.000611594, 0.000633484, 28.3141, 1.34368, 0, 0.00104627, 0.000317504, 0.000337437, 14.4151, 1.22547, 0, 0.00104627, -0.0317092, -22.6083, 18.609, -0.0139961, -13.932, 10.2696, 1.92865E-05, -0.000434632, 0.000393567, 1.77113E-05, 1.77113E-05, 1.77113E-05
2415, 1,0.000469337, -0.000152212, 0.000143055, 20.7948, -7.69531, 0.000922722, 43.7636, -0.789931, 0, 0.00101219, 0.000600158, 0.000623098, 26.5625, 1.45254, 0, 0.00101215, 0.000341058, 0.000345665, 15.2071, 0.303464, 0, 0.00101217, -0.183103, -21.3465, 17.172, -0.122674, -12.8182, 12.0305, 1.799E-05, -0.00041954, 0.000377945, 1.1614E-06, 1.1614E-06, 1.1614E-06
2416, 1,0.000614879, -0.000195405, 0.000178063, 27.094, -10.1344, 0.00122336, 59.8811, -4.26397, 0, 0.000978162, 0.000767107, 0.000788802, 33.4444, 1.34519, 0, 0.000978073, 0.000469171, 0.000456178, 21.1862, -0.823925, 0, 0.000978108, -0.242062, -26.2924, 22.4989, -0.1422, -15.684, 18.298, 1.57646E-05, -0.000530259, 0.000492573, -1.61845E-05, -1.61845E-05, -1.61845E-05
2417, 1,0.000541412, -0.000202231, 0.000196013, 23.7728, -9.94077, 0.00104695, 42.385, 11.3097, 0, 0.00108037, 0.000731092, 0.000810849, 32.5457, 4.9614, 0, 0.00108048, 0.000351871, 0.000419157, 15.0063, 4.18938, 0, 0.00108049, -0.134455, -30.7727, 16.023, -0.0742167, -19.192, 6.6981, 7.43563E-05, -0.000532777, 0.000377998, 6.33095E-05, 6.33095E-05, 6.33095E-05
2418, 1,0.000433709, -0.000166147, 0.000151486, 17.7754, -8.62458, 0.000837297, 34.0125, 7.97796, 0, 0.0010463, 0.000569933, 0.000651428, 23.5941, 5.07595, 0, 0.00104635, 0.00029805, 0.000350211, 12.0086, 3.24549, 0, 0.00104638, -0.0464744, -24.3183, 9.13692, -0.0237322, -15.1861, 5.47331, 7.76176E-05, -0.000408472, 0.000248514, 4.91774E-05, 4.91774E-05, 4.91774E-05
2419, 1,0.000438014, -0.000172362, 0.000149398, 17.1606, -9.28403, 0.000846, 36.122, 4.56779, 0, 0.00101223, 0.00056121, 0.000643732, 21.9235, 5.18352, 0, 0.00101222, 0.00031755, 0.000354125, 12.583, 2.30656, 0, 0.00101227, -0.195606, -23.0581, 7.70313, -0.130418, -14.0623, 7.27308, 7.63328E-05, -0.00039394, 0.000233462, 3.2389E-05, 3.2389E-05, 3.2389E-05
2420, 1,0.000578939, -0.000217581, 0.000186284, 23.1497, -11.8125, 0.00113118, 51.5779, 0.885361, 0, 0.000978206, 0.000724963, 0.000806367, 28.5578, 5.0815, 0, 0.00097814, 0.00044007, 0.000458875, 18.2058, 1.16649, 0, 0.000978202, -0.254252, -27.9948, 13.0045, -0.151253, -16.9109, 13.5627, 7.42462E-05, -0.00050493, 0.000348134, 1.48651E-05, 1.48651E-05, 1.48651E-05
2421, 1,0.000520961, -0.000218647, 0.000198812, 20.7038, -11.3729, 0.0010214, 36.9438, 17.0496, 0, 0.00108044, 0.000699808, 0.000839444, 28.3526, 8.70778, 0, 0.00108058, 0.000342272, 0.000442202, 13.0624, 6.23264, 0, 0.00108063, -0.144992, -32.3834, 6.40503, -0.081887, -20.3986, 1.78262, 0.00013307, -0.000503804, 0.000229521, 9.5253E-05, 9.5253E-05, 9.5253E-05
2422, 1,0.000419214, -0.000187263, 0.000158928, 14.9545, -10.2709, 0.000807578, 28.4976, 13.5092, 0, 0.00104637, 0.000549148, 0.000690124, 19.8446, 8.80388, 0, 0.00104645, 0.000289894, 0.000374184, 10.1221, 5.26094, 0, 0.00104651, -0.0655095, -25.9494, -0.39674, -0.0353629, -16.3883, 0.640895, 0.000135785, -0.000380767, 0.00010215, 8.05259E-05, 8.05259E-05, 8.05259E-05
2423, 1,0.000422726, -0.000197197, 0.000160441, 14.3109, -11.0977, 0.000800221, 29.95, 9.93818, 0, 0.00101231, 0.000543061, 0.000685019, 18.2961, 8.90861, 0, 0.00101233, 0.000305272, 0.000373699, 10.5155, 4.30384, 0, 0.0010124, -0.211606, -24.6958, -1.81846, -0.139493, -15.2583, 2.48624, 0.000134504, -0.000366885, 8.77908E-05, 6.34919E-05, 6.34919E-05, 6.34919E-05
2424, 1,0.000556032, -0.000243601, 0.000198318, 19.8681, -13.6777, 0.00106166, 44.3085, 6.1187, 0, 0.000978286, 0.000699908, 0.0008411, 24.5279, 8.82285, 0, 0.000978243, 0.000419762, 0.000470384, 15.6814, 3.15801, 0, 0.000978333, -0.265188, -29.625, 3.4216, -0.159231, -18.0932, 8.77837, 0.00013283, -0.000477967, 0.000201878, 4.59513E-05, 4.59513E-05, 4.59513E-05
2425, 1,0.0005131, -0.000238838, 0.00020535, 18.1806, -12.9864, 0.00101804, 32.5729, 22.7223, 0, 0.00108051, 0.000684832, 0.000884487, 24.8775, 12.463, 0, 0.00108069, 0.000341526, 0.000474168, 11.494, 8.28, 0, 0.00108076, -0.154783, -33.8868, -3.34729, -0.0888596, -21.5365, -3.21459, 0.000191934, -0.000472525, 7.84446E-05, 0.000127271, 0.000127271, 0.000127271
2426, 1,0.000418492, -0.000212642, 0.000170645, 12.7727, -12.1196, 0.000803786, 24.2304, 18.9962, 0, 0.00104645, 0.000546381, 0.000746713, 16.9341, 12.5275, 0, 0.00104656, 0.000291298, 0.00040762, 8.6779, 7.27185, 0, 0.00104665, -0.0887857, -27.4836, -10.01, -0.0489582, -17.5248, -4.24183, 0.000193789, -0.000351175, -4.58659E-05, 0.000111756, 0.000111756, 0.000111756
2427, 1,0.000421193, -0.00022588, 0.000175345, 12.1317, -13.0965, 0.000782329, 25.1063, 15.3145, 0, 0.0010124, 0.000542579, 0.000743835, 15.5252, 12.6283, 0, 0.00101244, 0.000302794, 0.000402962, 8.93165, 6.29573, 0, 0.00101254, -0.23126, -26.2424, -11.4112, -0.150071, -16.3928, -2.34434, 0.000192507, -0.00033804, -5.94148E-05, 9.44735E-05, 9.44735E-05, 9.44735E-05
2428, 1,0.000545196, -0.000272899, 0.000213599, 17.2008, -15.7037, 0.00101565, 38.1189, 11.4391, 0, 0.000978357, 0.000690366, 0.00089144, 21.2751, 12.5703, 0, 0.000978339, 0.000407871, 0.000490343, 13.5971, 5.15149, 0, 0.000978457, -0.274902, -31.166, -6.27002, -0.166155, -19.2178, 3.92948, 0.000191532, -0.000449024, 5.34245E-05, 7.70874E-05, 7.70874E-05, 7.70874E-05
2429, 1,0.000516278, -0.000262566, 0.000215388, 16.1373, -14.7684, 0.0010331, 29.1092, 28.3171, 0, 0.00108057, 0.000684371, 0.000944197, 22.0412, 16.2279, 0, 0.00108078, 0.000348332, 0.000513766, 10.2484, 10.3323, 0, 0.00108088, -0.163657, -35.265, -13.2549, -0.0949992, -22.5913, -8.31058, 0.000250964, -0.000438582, -7.5619E-05, 0.000159378, 0.000159378, 0.000159378
2430, 1,0.000428888, -0.000241529, 0.000185881, 11.1105, -14.1343, 0.000820175, 20.9596, 24.4164, 0, 0.00104651, 0.000558232, 0.000817803, 14.7075, 16.2473, 0, 0.00104665, 0.000300347, 0.000448604, 7.59078, 9.27863, 0, 0.00104677, -0.116365, -28.9039, -19.7217, -0.064505, -18.5817, -9.18967, 0.000251637, -0.000319371, -0.000195878, 0.000142875, 0.000142875, 0.000142875
2431, 1,0.000430777, -0.000257562, 0.000193262, 10.4917, -15.2399, 0.000787536, 21.3779, 20.673, 0, 0.00101246, 0.00055626, 0.000816679, 13.4381, 16.3428, 0, 0.00101253, 0.000308357, 0.000440157, 7.74246, 8.2823, 0, 0.00101266, -0.253953, -27.6815, -21.0928, -0.161602, -17.4529, -7.2324, 0.000250361, -0.000307089, -0.000208493, 0.000125348, 0.000125348, 0.000125348
2432, 1,0.000545031, -0.000304902, 0.000231553, 15.0724, -17.8633, 0.000992918, 33.0048, 16.8384, 0, 0.00097842, 0.000694293, 0.000955365, 18.6918, 16.3252, 0, 0.000978428, 0.000403667, 0.000518039, 11.9129, 7.1481, 0, 0.000978573, -0.283156, -32.6018, -16.0906, -0.171837, -20.2724, -1.00008, 0.000250381, -0.000417765, -9.76124E-05, 0.000108297, 0.000108297, 0.000108297
2433, 1,0.00052881, -0.000289465, 0.000228561, 14.5038, -16.7004, 0.00106284, 26.3754, 33.8443, 0, 0.00108063, 0.000696357, 0.00101652, 19.7551, 20.0023, 0, 0.00108087, 0.000361404, 0.000559723, 9.27414, 12.3894, 0, 0.001081, -0.170167, -36.4976, -23.3393, -0.0989166, -23.5462, -13.523, 0.000310188, -0.000401583, -0.000233089, 0.000191599, 0.000191599, 0.000191599
2434, 1,0.000447978, -0.00027318, 0.000203892, 9.86124, -16.2792, 0.000850889, 18.4276, 29.7485, 0, 0.00104657, 0.000581543, 0.000900237, 13.0237, 19.9607, 0, 0.00104674, 0.000315337, 0.000495437, 6.78795, 11.2787, 0, 0.00104689, -0.143403, -30.1905, -29.5483, -0.0773822, -19.5437, -14.2152, 0.000309392, -0.000285023, -0.000348238, 0.000173942, 0.000173942, 0.000173942
2435, 1,0.00044905, -0.000291525, 0.00021347, 9.27341, -17.4928, 0.000810222, 18.5121, 25.9895, 0, 0.00101253, 0.000580943, 0.000900412, 11.8824, 20.0507, 0, 0.00101263, 0.000320276, 0.000483619, 6.86555, 10.2622, 0, 0.00101279, -0.275449, -28.9963, -30.8804, -0.170081, -18.4257, -12.1908, 0.00030814, -0.000273743, -0.000359785, 0.000156185, 0.000156185, 0.000156185
2436, 1,0.000554002, -0.000339106, 0.000251674, 13.3991, -20.1323, 0.000992269, 28.9184, 22.3022, 0, 0.000978504, 0.000709578, 0.0010308, 16.6661, 20.0886, 0, 0.000978539, 0.000406236, 0.000552585, 10.5768, 9.14872, 0, 0.000978713, -0.288343, -33.9163, -26.0612, -0.174938, -21.2445, -6.02676, 0.00030943, -0.000383856, -0.000251637, 0.000139626, 0.000139626, 0.000139626
2437, 1,0.000549046, -0.000319112, 0.000244443, 13.207, -18.7616, 0.00110574, 24.3288, 39.2786, 0, 0.00108069, 0.0007187, 0.00109942, 17.9257, 23.7878, 0, 0.00108097, 0.000379542, 0.000610892, 8.51828, 14.4525, 0, 0.00108113, -0.169926, -37.5687, -33.6248, -0.0962727, -24.3887, -18.8726, 0.000369724, -0.000361183, -0.000394451, 0.000224052, 0.000224052, 0.000224052
2438, 1,0.00047367, -0.000306955, 0.000224038, 8.93384, -18.5235, 0.000890888, 16.4021, 34.9891, 0, 0.00104665, 0.000613594, 0.000991376, 11.7621, 23.6646, 0, 0.00104684, 0.000334795, 0.000546724, 6.20683, 13.2693, 0, 0.00104702, -0.156899, -31.3273, -39.5096, -0.0750569, -20.3984, -19.3344, 0.000367282, -0.000247874, -0.000503378, 0.000205177, 0.000205177, 0.000205177
2439, 1,0.000473993, -0.000327213, 0.000235415, 8.38373, -19.8285, 0.000845817, 16.3014, 31.2481, 0, 0.0010126, 0.00061405, 0.000992519, 10.7382, 23.7484, 0, 0.00101272, 0.000337096, 0.000531953, 6.23424, 12.2319, 0, 0.00101291, -0.282697, -30.1691, -40.7934, -0.163571, -19.2973, -17.2348, 0.000366067, -0.000237736, -0.00051372, 0.000187186, 0.000187186, 0.000187186
2440, 1,0.000570713, -0.000375114, 0.000273558, 12.1039, -22.4912, 0.00101415, 25.9091, 27.7895, 0, 0.000978578, 0.000734372, 0.00111593, 15.0993, 23.8603, 0, 0.000978641, 0.00041468, 0.000593124, 9.53618, 11.1525, 0, 0.000978842, -0.285218, -35.0932, -36.2025, -0.170694, -22.1205, -11.1664, 0.000368791, -0.00034696, -0.000409096, 0.000171166, 0.000171166, 0.000171166
2441, 1,0.000575609, -0.000351104, 0.000262631, 12.1861, -20.9321, 0.0011504, 22.1778, 44.9841, 0, 0.00108075, 0.00074962, 0.00119113, 16.4728, 27.5746, 0, 0.00108106, 0.000401768, 0.000666307, 7.93849, 16.5122, 0, 0.00108125, -0.148355, -38.4619, -44.1136, -0.072637, -25.1056, -24.3583, 0.000429723, -0.000317247, -0.000559833, 0.000256884, 0.000256884, 0.000256884
2442, 1,0.000504771, -0.000342344, 0.000245809, 8.28991, -20.8421, 0.000926463, 13.9416, 40.5437, 0, 0.00104671, 0.000652693, 0.00108967, 10.861, 27.3372, 0, 0.00104694, 0.000358023, 0.000601907, 5.83134, 15.2298, 0, 0.00104714, -0.108226, -32.2719, -49.6315, -0.0113761, -21.1119, -24.5661, 0.000425994, -0.000207525, -0.000662032, 0.000237237, 0.000237237, 0.000237237
2443, 1,0.000504419, -0.000364232, 0.000258694, 7.78024, -22.227, 0.000884352, 14.0131, 36.7993, 0, 0.00101267, 0.00065398, 0.00109152, 9.94372, 27.4168, 0, 0.00101283, 0.000358051, 0.000584497, 5.82544, 14.1728, 0, 0.00101305, -0.234104, -31.1666, -50.8496, -0.103586, -20.0391, -22.3756, 0.000424727, -0.000198794, -0.000670847, 0.000218879, 0.000218879, 0.000218879
2444, 1,0.00059404, -0.000412644, 0.000296911, 11.1195, -24.9264, 0.00105569, 23.6615, 33.5425, 0, 0.000978653, 0.000767216, 0.00120937, 13.9082, 27.639, 0, 0.000978747, 0.000428241, 0.000638921, 8.74117, 13.1572, 0, 0.000978977, -0.267134, -36.1179, -46.532, -0.15396, -22.8855, -16.4323, 0.000428593, -0.000306794, -0.00057038, 0.000202999, 0.000202999, 0.000202999
2445, 1,0.000608073, -0.000385125, 0.000282814, 11.4042, -23.1949, 0.00118701, 19.5843, 50.8403, 0, 0.0010808, 0.000788382, 0.00129078, 15.3446, 31.3368, 0, 0.00108115, 0.000427959, 0.000725732, 7.51301, 18.5447, 0, 0.00108137, -0.079405, -39.1852, -54.7459, -0.00428999, -25.7087, -29.9212, 0.00049033, -0.000270424, -0.000728311, 0.000290222, 0.000290222, 0.000290222
2446, 1,0.00054009, -0.000378922, 0.000268769, 7.8382, -23.2121, 0.000935226, 9.91377, 46.5613, 0, 0.00104677, 0.000697229, 0.00119423, 10.2098, 30.9985, 0, 0.00104704, 0.000384216, 0.000660882, 5.58704, 17.1826, 0, 0.00104727, 0.0407327, -32.9938, -60.0426, 0.145735, -21.6586, -30.035, 0.000486645, -0.000163428, -0.000826191, 0.000271146, 0.000271146, 0.000271146
2447, 1,0.000540246, -0.000402288, 0.000282997, 7.44216, -24.672, 0.000907503, 10.5604, 42.9629, 0, 0.00101274, 0.000700335, 0.00119748, 9.46334, 31.0546, 0, 0.00101293, 0.000383356, 0.000641888, 5.63079, 16.0849, 0, 0.00101318, -0.0757093, -31.9251, -61.1629, 0.0560262, -20.5932, -27.7175, 0.000485235, -0.000155986, -0.000833192, 0.000252234, 0.000252234, 0.000252234
2448, 1,0.000623907, -0.000451574, 0.000321589, 10.4242, -27.4307, 0.0011091, 21.5441, 39.9204, 0, 0.000978719, 0.000807823, 0.00131073, 13.0601, 31.3956, 0, 0.000978854, 0.000447104, 0.000690037, 8.18221, 15.1322, 0, 0.000979113, -0.194999, -36.9695, -57.0224, -0.0891294, -23.5136, -21.7938, 0.000489202, -0.000263457, -0.000735282, 0.000235391, 0.000235391, 0.000235391
2449, 1,0.000648, -0.000420686, 0.000304478, 10.924, -25.529, 0.00131323, 23.0183, 54.3596, 0, 0.0010809, 0.000836023, 0.00139864, 14.5797, 35.0023, 0, 0.00108124, 0.00046019, 0.000790433, 7.32787, 20.4752, 0, 0.00108149, 0.0696305, -39.6038, -65.4727, 0.140724, -26.0608, -35.5056, 0.00055112, -0.000217927, -0.000901076, 0.000323583, 0.000323583, 0.000323583
2450, 1,0.000578435, -0.000416271, 0.000292457, 7.50889, -25.6118, 0.000975554, 8.56742, 51.0111, 0, 0.00104685, 0.000745608, 0.00130388, 9.72084, 34.6036, 0, 0.00104712, 0.000412493, 0.000723162, 5.41685, 19.0851, 0, 0.00104739, 0.394786, -33.3476, -70.8579, 0.488837, -21.8895, -35.8547, 0.000550751, -0.000112999, -0.000999224, 0.000308196, 0.000308196, 0.000308196
2451, 1,0.000578989, -0.00044101, 0.000307921, 7.16615, -27.1435, 0.000956699, 9.23591, 48.0238, 0, 0.00101282, 0.000750309, 0.00130881, 9.07915, 34.7074, 0, 0.00101304, 0.000410756, 0.00070297, 5.45555, 18.0154, 0, 0.00101331, 0.268722, -32.378, -72.0129, 0.37744, -20.8744, -33.5492, 0.000549919, -0.000107137, -0.001006, 0.000289305, 0.000289305, 0.000289305
2452, 1,0.000662195, -0.000491919, 0.000347575, 10.03, -30.0043, 0.00123785, 23.6264, 45.4364, 0, 0.000978808, 0.000858001, 0.0014216, 12.562, 35.1252, 0, 0.000978972, 0.000473245, 0.000748158, 7.87744, 17.0703, 0, 0.000979259, -0.0682567, -37.6483, -67.659, 0.0180208, -23.9981, -27.2308, 0.000550547, -0.000216355, -0.000904246, 0.000268106, 0.000268106, 0.000268106
2453, 1,0.000704344, -0.000457076, 0.000326983, 11.202, -27.8999, 0.00167429, 41.0609, 53.1083, 0, 0.00108109, 0.000900898, 0.00152299, 14.617, 38.5957, 0, 0.00108134, 0.000508049, 0.000870032, 7.85778, 22.3441, 0, 0.00108163, 0.264567, -39.6228, -76.4287, 0.318333, -26.1002, -41.2505, 0.000611773, -0.000155762, -0.0010822, 0.000356685, 0.000356685, 0.000356685
2454, 1,0.000627404, -0.000454208, 0.000316603, 7.70608, -28.0358, 0.00112023, 15.8618, 50.3766, 0, 0.00104702, 0.000804937, 0.00142689, 9.77305, 38.2213, 0, 0.00104723, 0.000451013, 0.000797848, 5.75853, 21.0099, 0, 0.00104752, 0.923359, -33.2769, -82.3102, 0.964725, -21.8032, -42.1912, 0.000618779, -5.32272E-05, -0.00118573, 0.000348435, 0.000348435, 0.000348435
2455, 1,0.000629185, -0.000480785, 0.000333805, 7.48053, -29.6613, 0.00111181, 16.4495, 48.2124, 0, 0.00101298, 0.000812301, 0.00143282, 9.31115, 38.2848, 0, 0.00101314, 0.000449227, 0.000775344, 5.85622, 19.8798, 0, 0.00101345, 0.950797, -32.5934, -83.2119, 0.983313, -21.0034, -39.6193, 0.000620608, -5.4262E-05, -0.00118761, 0.000331404, 0.000331404, 0.000331404
2456, 1,0.000712356, -0.000533867, 0.000375021, 10.048, -32.659, 0.00158293, 38.5698, 47.2629, 0, 0.00097897, 0.000921322, 0.00154512, 12.533, 38.8556, 0, 0.000979104, 0.000509977, 0.000816086, 7.93115, 19.0008, 0, 0.000979419, 0.0248384, -38.1422, -78.4496, 0.0674712, -24.3404, -32.7295, 0.000611225, -0.00016289, -0.00107892, 0.000299513, 0.000299513, 0.000299513
2457, 1,0.000756007, -0.000495068, 0.000351419, 10.8421, -30.3201, 0.00209388, 61.3979, 52.4026, 0, 0.0010812, 0.000963137, 0.00165158, 14.1277, 42.937, 0, 0.00108137, 0.000549348, 0.000950478, 7.6571, 25.0328, 0, 0.00108168, 0.0452454, -41.1916, -87.6646, 0.0410617, -27.7538, -47.3857, 0.000675379, -0.000113836, -0.00125819, 0.00039302, 0.00039302, 0.00039302
2458, 1,0.000657005, -0.000492018, 0.000340504, 6.3227, -30.4355, 0.00124594, 19.7652, 52.9927, 0, 0.00104705, 0.000843987, 0.00154226, 8.22444, 42.9824, 0, 0.00104722, 0.00047161, 0.000865751, 4.5601, 24.1291, 0, 0.00104754, 0.953004, -33.9408, -95.9595, 0.84058, -22.466, -50.762, 0.000694339, 6.99651E-06, -0.00139877, 0.000394875, 0.000394875, 0.000394875
2459, 1,0.000670059, -0.000520437, 0.000359382, 6.73232, -32.1677, 0.00123539, 20.2604, 50.9803, 0, 0.00101303, 0.000865194, 0.00155239, 8.50512, 42.8845, 0, 0.00101317, 0.000477456, 0.000841565, 5.13037, 22.7877, 0, 0.0010135, 0.76673, -32.7801, -96.6401, 0.635463, -21.1158, -47.8829, 0.000689155, 1.38911E-05, -0.00139895, 0.000369844, 0.000369844, 0.000369844
2460, 1,0.000767263, -0.000577728, 0.000404189, 10.2393, -35.4136, 0.00205828, 61.8318, 46.174, 0, 0.000979137, 0.000990958, 0.00167774, 12.7396, 42.7509, 0, 0.000979192, 0.000549835, 0.000889482, 8.10203, 21.0858, 0, 0.000979536, 0.28746, -38.7559, -89.7842, 0.242358, -24.8387, -38.661, 0.000678165, -0.000107595, -0.00126437, 0.000336089, 0.000336089, 0.000336089
2461, 1,0.000843027, -0.000537396, 0.000380233, 13.8219, -32.9474, 0.00232714, 62.1416, 66.2464, 0, 0.00108116, 0.00106349, 0.00179198, 17.0502, 45.2765, 0, 0.00108153, 0.000624445, 0.00103833, 10.8111, 25.7017, 0, 0.00108188, 0.412693, -42.9562, -93.2859, 0.377744, -29.5668, -47.916, 0.000720076, -0.000107206, -0.00134748, 0.000410744, 0.000410744, 0.000410744
2462, 1,0.000688797, -0.000535229, 0.000369077, 6.05862, -33.1043, 0.00122186, 5.74052, 70.2059, 0, 0.00104682, 0.000887256, 0.00164423, 7.85783, 46.5542, 0, 0.00104722, 0.000493304, 0.000916448, 4.45403, 26.0063, 0, 0.00104757, 1.006, -36.0336, -104.635, 0.678401, -24.6296, -54.0678, 0.000751832, 1.62836E-05, -0.0015235, 0.000421119, 0.000421119, 0.000421119
2463, 1,0.000707229, -0.000565601, 0.000389704, 7.43657, -34.9491, 0.00105784, 1.29721, 65.3135, 0, 0.00101287, 0.000916963, 0.00165556, 9.24295, 45.4906, 0, 0.00101319, 0.00050062, 0.000886914, 5.82686, 23.6475, 0, 0.00101355, 2.02469, -33.5914, -104.905, 1.67382, -21.9729, -50.6435, 0.000756702, 3.47859E-05, -0.00152967, 0.00040523, 0.00040523, 0.00040523
2464, 1,0.000851964, -0.000625744, 0.000437182, 11.1876, -38.3714, 0.00232669, 68.7853, 53.8072, 0, 0.000979155, 0.0010926, 0.00184603, 13.7979, 47.6895, 0, 0.000979252, 0.000618243, 0.00099446, 8.97516, 24.187, 0, 0.000979626, -0.495097, -40.637, -101.937, -0.685987, -26.7814, -45.0938, 0.000739426, -6.45738E-05, -0.00144878, 0.00036532, 0.00036532, 0.00036532
2465, 1,0.000910154, -0.000576401, 0.000407165, 13.8959, -35.3952, 0.00290691, 77.9075, 81.7082, 0, 0.00108152, 0.0011428, 0.00191522, 17.0379, 50.2297, 0, 0.00108208, 0.000681345, 0.00111502, 11.1247, 29.0738, 0, 0.00108245, -2.33553, -49.1008, -99.2527, -2.35118, -35.0717, -49.7986, 0.000740784, -0.000145468, -0.00141029, 0.000406947, 0.000406947, 0.000406947
2466, 1,0.000724141, -0.000573925, 0.000392296, 3.72803, -35.6013, 0.00127761, 3.85852, 76.2426, 0, 0.00104723, 0.000931914, 0.00175578, 5.30119, 52.5671, 0, 0.00104763, 0.00051778, 0.00098105, 2.28301, 30.2212, 0, 0.00104801, -1.89058, -38.3959, -117.415, -2.41242, -26.7027, -61.5486, 0.000785741, 6.43355E-05, -0.00170304, 0.000422592, 0.000422592, 0.000422592
2467, 1,0.000729109, -0.000609414, 0.000417786, 4.38635, -37.7255, 0.00126902, 6.10172, 72.1667, 0, 0.00101314, 0.000951364, 0.00178003, 6.06727, 51.8316, 0, 0.00101348, 0.000509904, 0.00095642, 2.89239, 28.0792, 0, 0.00101387, 0.961158, -37.4016, -119.054, 0.432608, -25.6798, -58.9903, 0.000833986, 5.513E-05, -0.00173019, 0.000448652, 0.000448652, 0.000448652
2468, 1,0.000941292, -0.000682504, 0.000478117, 9.69518, -41.8034, 0.00266413, 72.6811, 69.6634, 0, 0.000979257, 0.00119954, 0.00203925, 12.3728, 56.061, 0, 0.000979474, 0.000696047, 0.00112696, 7.73305, 30.541, 0, 0.000979879, -5.05014, -50.3842, -112.749, -5.36511, -36.4211, -49.8369, 0.000774948, -0.000133424, -0.00155129, 0.000366416, 0.000366416, 0.000366416
2469, 1,0.00106868, -0.000615446, 0.000438702, 19.3978, -37.6283, 0.0028017, 65.4038, 91.206, 0, 0.00108207, 0.00132286, 0.00213638, 23.1532, 54.3413, 0, 0.00108272, 0.00081974, 0.00127995, 16.0771, 32.147, 0, 0.00108311, -4.52719, -54.3537, -104.143, -4.60526, -39.7202, -52.1154, 0.000759917, -0.000191838, -0.00144978, 0.000408432, 0.000408432, 0.000408432
2470, 1,0.000764138, -0.000606033, 0.000412263, 5.47516, -37.7269, 0.00161067, 19.9332, 75.4683, 0, 0.00104792, 0.000980693, 0.00182762, 6.85964, 53.7018, 0, 0.00104829, 0.000549759, 0.00101371, 4.27622, 29.7169, 0, 0.0010487, -1.76163, -36.1251, -123.219, -2.33379, -23.6677, -63.1491, 0.000806818, 0.000129415, -0.00180762, 0.000416806, 0.000416806, 0.000416806
2471, 1,0.000744576, -0.000648136, 0.000441639, 5.55958, -40.2524, 0.00153208, 20.0633, 70.0006, 0, 0.00101389, 0.00097618, 0.00183892, 6.97221, 52.3333, 0, 0.00101418, 0.000515745, 0.000967732, 4.30849, 26.6945, 0, 0.0010146, 3.71884, -36.242, -124.477, 3.04446, -23.7965, -59.3314, 0.00090038, 8.59343E-05, -0.00183554, 0.000482233, 0.000482233, 0.000482233
2472, 1,0.0010702, -0.000738549, 0.000518661, 15.4756, -45.203, 0.00255635, 62.776, 75.8744, 0, 0.000979889, 0.00134666, 0.00222061, 18.2491, 57.7623, 0, 0.000980177, 0.000812069, 0.00124612, 13.6839, 30.2176, 0, 0.000980615, -3.86533, -53.3648, -116.057, -4.33706, -38.5923, -47.7234, 0.000826869, -0.000170503, -0.00159374, 0.000383109, 0.000383109, 0.000383109
2473, 1,0.0011851, -0.000656181, 0.000477214, 28.6482, -39.691, 0.00223266, 26.2317, 107.147, 0, 0.0010826, 0.00147638, 0.0022545, 33.9922, 50.6456, 0, 0.00108359, 0.000898861, 0.00131956, 23.7192, 28.0214, 0, 0.00108399, -1.5887, -49.4592, -100.889, -1.56915, -34.6085, -47.8866, 0.000763962, -0.000157594, -0.00142811, 0.000407806, 0.000407806, 0.000407806
2474, 1,0.000786854, -0.000627593, 0.00042903, 9.85819, -39.1438, 0.0016411, 9.38215, 91.6741, 0, 0.00104822, 0.00101169, 0.00185669, 11.2577, 50.0175, 0, 0.00104893, 0.000566924, 0.0010101, 8.73616, 24.9376, 0, 0.00104936, 3.70939, -27.1341, -126.628, 3.45052, -14.275, -63.9883, 0.000864718, 0.000255876, -0.0019322, 0.00046411, 0.00046411, 0.00046411
2475, 1,0.000879494, -0.000679365, 0.000462825, 12.4003, -42.2446, 0.00145346, 5.6871, 84.4731, 0, 0.00101427, 0.00112351, 0.00198132, 13.8863, 52.712, 0, 0.00101479, 0.000637138, 0.00106264, 11.0171, 25.6733, 0, 0.00101524, 5.70758, -30.7271, -133.116, 4.93773, -17.9974, -63.9602, 0.000948229, 0.000203772, -0.00200738, 0.000506027, 0.000506027, 0.000506027
2476, 1,0.00131585, -0.000799997, 0.000565672, 29.5755, -48.7574, 0.00204157, 33.7609, 82.3089, 0, 0.000980714, 0.00162311, 0.00249896, 33.1601, 56.1807, 0, 0.000981129, 0.00102737, 0.00143472, 26.9671, 26.8842, 0, 0.000981596, -0.0332507, -49.7597, -118.749, -0.853502, -34.2393, -45.5596, 0.000882472, -0.000128037, -0.00166615, 0.000403743, 0.000403743, 0.000403743
2477, 1,0.00148198, -0.000705301, 0.000527928, 45.3139, -41.8544, 0.00231991, 0.519677, 146.703, 0, 0.00108231, 0.00182503, 0.00258539, 53.2611, 47.4227, 0, 0.00108406, 0.00114413, 0.00155014, 37.7699, 25.1979, 0, 0.00108445, 2.29744, -38.0156, -106.55, 2.11909, -26.71, -51.0029, 0.000795339, 3.16288E-05, -0.00159641, 0.000441287, 0.000441287, 0.000441287
2478, 1,0.00094858, -0.000648569, 0.000449886, 14.0473, -40.1683, 0.00201, 2.65298, 124.251, 0, 0.00104791, 0.0011943, 0.00210426, 16.4643, 54.4932, 0, 0.0010491, 0.000706182, 0.00121245, 11.7867, 29.3326, 0, 0.00104952, 3.4673, -18.5314, -148.415, 3.59936, -8.75872, -82.8385, 0.000930101, 0.000509945, -0.00232426, 0.000536492, 0.000536492, 0.000536492
2479, 1,0.00110082, -0.000712643, 0.000491755, 21.7348, -44.1252, 0.00171079, -2.86988, 112.553, 0, 0.00101411, 0.00137021, 0.0022705, 24.143, 54.7081, 0, 0.00101506, 0.000832068, 0.00128933, 19.3716, 26.8675, 0, 0.00101552, 8.68919, -18.6079, -154.206, 8.12362, -8.05588, -80.6703, 0.00104235, 0.000494266, -0.00242434, 0.000591852, 0.000591852, 0.000591852
2480, 1,0.00162472, -0.000881523, 0.000632351, 44.1736, -53.3331, 0.00188984, 8.2102, 107.403, 0, 0.000980813, 0.00198488, 0.00289328, 49.5345, 57.8509, 0, 0.000981602, 0.00128143, 0.00169128, 39.6916, 26.6417, 0, 0.000982099, 3.14801, -45.19, -131.511, 2.12342, -30.184, -51.8646, 0.000974905, -5.27622E-06, -0.00190842, 0.000461728, 0.000461728, 0.000461728
2481, 1,0.00194625, -0.000780923, 0.000599551, 51.2188, -45.43, 0.00305634, 3.92314, 188.574, 0, 0.00108208, 0.00235799, 0.00335372, 62.481, 68.5297, 0, 0.00108419, 0.00153809, 0.00216997, 40.2369, 46.3322, 0, 0.00108458, -7.97577, -32.7252, -164.888, -8.74681, -29.9857, -100.264, 0.000910325, 0.000484291, -0.00250655, 0.000544155, 0.000544155, 0.000544155
2482, 1,0.00118213, -0.000689511, 0.000491198, 14.9957, -42.1242, 0.00279942, 18.3278, 153.223, 0, 0.00104758, 0.00147331, 0.0025147, 19.6, 67.4966, 0, 0.00104904, 0.000892047, 0.00153669, 10.4081, 42.3038, 0, 0.00104947, -3.49791, -10.7707, -188.221, -2.94854, -6.86792, -117.095, 0.000987689, 0.000885401, -0.0029683, 0.000602391, 0.000602391, 0.000602391
2483, 1,0.00120154, -0.000766716, 0.000539996, 14.2214, -46.9978, 0.00255359, 14.9467, 142.143, 0, 0.00101381, 0.00151305, 0.00263908, 18.3856, 71.4483, 0, 0.00101497, 0.000891381, 0.00156214, 10.1099, 42.7934, 0, 0.00101545, -1.6405, -15.0093, -197.695, -1.62976, -9.43656, -117.314, 0.00108785, 0.00083918, -0.00308637, 0.000636681, 0.000636681, 0.000636681
2484, 1,0.00191371, -0.000976518, 0.000715176, 48.7302, -58.2074, 0.00243469, 6.7675, 145.251, 0, 0.000980718, 0.00235704, 0.0034955, 57.6885, 71.0065, 0, 0.0009819, 0.00147756, 0.00209349, 40.1635, 38.7983, 0, 0.000982413, 3.23065, -30.9707, -185.28, 1.56079, -22.3876, -95.568, 0.00118296, 0.000503695, -0.00283886, 0.000640349, 0.000640349, 0.000640349
2485, 1,0.00219818, -0.00091795, 0.000696287, 41.7769, -53.935, 0.00511025, 15.3832, 222.126, 0.049565, 0.00108298, 0.00267072, 0.00420184, 53.9378, 99.6564, 0, 0.00108525, 0.00172667, 0.00281451, 29.7275, 71.9823, 0, 0.00108574, -5.86345, -27.8746, -265.231, -5.94114, -31.0526, -178.953, 0.00144514, 0.00106968, -0.00413185, 0.00100742, 0.00100742, 0.00100742
2486, 1,0.00155933, -0.000798734, 0.00057893, 19.4999, -48.725, 0.0040714, 54.0702, 184.177, 0.00101601, 0.00104948, 0.00191812, 0.00312877, 25.8105, 87.5773, 0, 0.00105113, 0.00120073, 0.00197149, 13.1961, 58.5208, 0, 0.00105163, -17.8847, -6.83369, -238.013, -15.5319, -7.83435, -152.196, 0.000999981, 0.00128678, -0.00370782, 0.000591995, 0.000591995, 0.000591995
2487, 1,0.00157716, -0.000864176, 0.000617669, 21.6452, -52.9294, 0.00364086, 47.1638, 167.816, 0, 0.00101562, 0.00194313, 0.00320333, 27.0826, 87.0368, 0, 0.00101695, 0.0012138, 0.00197576, 16.3176, 54.8347, 0, 0.00101748, -12.5205, -2.48829, -246.102, -10.332, -2.28109, -151.891, 0.00110391, 0.00135126, -0.00386749, 0.000642913, 0.000642913, 0.000642913
2488, 1,0.00190382, -0.00110329, 0.000807017, 26.0748, -65.9184, 0.00325934, 22.8435, 176.203, 0, 0.000981422, 0.00241336, 0.00398214, 36.4903, 103.415, 0, 0.000982582, 0.00139522, 0.00237227, 15.724, 66.5837, 0, 0.00098317, -8.53324, -25.9507, -275.762, -8.97259, -24.0225, -166.756, 0.00144443, 0.00111545, -0.004238, 0.000854985, 0.000854985, 0.000854985
2489, 1,0.00238157, -0.00109109, 0.000787263, 32.03, -66.6408, 0.00749614, -11.8408, 262.536, 0.137119, 0.00108325, 0.00285532, 0.00476346, 39.6648, 129.361, 0, 0.00108598, 0.00191276, 0.00320299, 24.6581, 89.3965, 0, 0.00108669, -5.43273, -28.983, -353.666, -3.5244, -27.4736, -237.191, 0.00192355, 0.00150249, -0.00552511, 0.00133432, 0.00133432, 0.00133432
2490, 1,0.00175282, -0.000962963, 0.000690419, 20.3015, -59.9002, 0.00588443, -17.0821, 266.575, 0.0783585, 0.00105007, 0.00216472, 0.00361584, 25.6043, 103.723, 0, 0.00105305, 0.00134449, 0.00224343, 15.1935, 65.4285, 0, 0.00105371, -13.3586, -15.3087, -282.502, -7.81673, -13.681, -174.788, 0.00135091, 0.00136039, -0.00439435, 0.000864892, 0.000864892, 0.000864892
2491, 1,0.00166121, -0.00102994, 0.000736064, 10.934, -63.8108, 0.00461388, -6.70863, 248.757, 0.0324377, 0.00101634, 0.0021031, 0.00351573, 16.8396, 111.147, 0, 0.00101869, 0.00121951, 0.00204515, 5.05457, 70.7195, 0, 0.00101936, -35.0581, -17.0513, -281.333, -29.3451, -16.4976, -166.316, 0.00100713, 0.00142333, -0.00423402, 0.000491131, 0.000491131, 0.000491131
2492, 1,0.0022289, -0.00130173, 0.000927518, 26.041, -79.5731, 0.00464494, 5.14373, 220.889, 0.040072, 0.000982214, 0.0027729, 0.00466906, 33.7868, 130.591, 0, 0.000983735, 0.00168956, 0.00282882, 18.5435, 82.2627, 0, 0.000984506, -18.0094, -22.5608, -351.204, -15.0326, -21.1088, -210.647, 0.00167235, 0.00161047, -0.00540192, 0.000974042, 0.000974042, 0.000974042
2493, 1,0.00255155, -0.00121016, 0.000850478, 34.8898, -76.7877, 0.00797055, -15.7273, 293.112, 0.129386, 0.0010797, 0.0030409, 0.00500758, 38.5617, 141.017, 0, 0.00108277, 0.00206277, 0.00330854, 31.244, 88.638, 0, 0.00108369, 3.21827, -18.9772, -407.291, 4.40326, -8.32785, -261.989, 0.00229029, 0.00187688, -0.00645544, 0.00149019, 0.00149019, 0.00149019
2494, 1,0.00232191, -0.00116762, 0.0008197, 46.2934, -74.1673, 0.00692968, -36.9408, 302.74, 0.108869, 0.00104677, 0.0027916, 0.00443843, 49.6037, 110.488, 0, 0.00105038, 0.00185333, 0.00280423, 43.0588, 59.6976, 0, 0.00105124, 4.50934, -13.003, -322.97, 11.5721, -2.28088, -188.384, 0.0018356, 0.0015179, -0.00514636, 0.00118491, 0.00118491, 0.00118491
2495, 1,0.00222716, -0.00124902, 0.000867351, 41.511, -79.2568, 0.00564192, -53.4099, 321.242, 0.0637109, 0.0010127, 0.00270654, 0.0042848, 43.9795, 112.65, 3.52225E-08, 0.00101633, 0.00175179, 0.00256777, 39.2881, 58.4603, 3.52225E-08, 0.00101722, -20.4362, -6.76082, -310.754, -11.4427, 2.51761, -166.456, 0.00134131, 0.00166978, -0.00483904, 0.000677932, 0.000677932, 0.000677932
2496, 1,0.00246286, -0.00145167, 0.00100528, 29.1318, -91.693, 0.00584856, -37.3033, 274.632, 0.0809118, 0.000978016, 0.00302141, 0.0050567, 32.5324, 147.996, 0, 0.000980234, 0.00190445, 0.00304688, 25.736, 86.0852, 0, 0.00098122, -15.3973, -9.04462, -419.546, -10.6344, -0.76174, -246.859, 0.00200721, 0.00215978, -0.00656848, 0.0011327, 0.0011327, 0.0011327
2497, 1,0.0024308, -0.00138756, 0.000953339, 20.9188, -88.8922, 0.00717393, -11.113, 294.918, 0.0948689, 0.00107476, 0.00294818, 0.00509804, 22.2221, 157.02, 0, 0.00107745, 0.00191419, 0.00319448, 19.6369, 94.5946, 0, 0.00107855, -17.8498, -18.5083, -434.701, -10.8799, -5.93688, -266.967, 0.00209578, 0.00212002, -0.00676376, 0.00126007, 0.00126007, 0.00126007
2498, 1,0.0021317, -0.00120556, 0.000833268, 35.1335, -77.0733, 0.00616144, -24.0019, 299.782, 0.0690883, 0.0010423, 0.00259071, 0.00418153, 36.8061, 115.062, 0, 0.00104563, 0.00167395, 0.0025222, 33.5567, 61.2487, 0, 0.00104655, -17.4421, -15.5356, -312.208, -7.75949, -3.7266, -172.26, 0.00144385, 0.00152507, -0.00483604, 0.000801149, 0.000801149, 0.000801149
2499, 1,0.00185797, -0.00113398, 0.000788437, 23.3989, -72.5573, 0.00506987, -19.4663, 292.265, 0.0312686, 0.00100873, 0.00229888, 0.00382081, 25.3332, 111.736, 0, 0.00101177, 0.00141845, 0.00224984, 21.5604, 60.932, 0, 0.00101261, -14.7067, -27.6542, -292.847, -6.63683, -14.5382, -161.621, 0.00144984, 0.00121075, -0.00447374, 0.000820436, 0.000820436, 0.000820436
2500, 1,0.00209839, -0.00119061, 0.000829459, 19.3811, -75.8443, 0.00452186, 0.246498, 278.271, 0.00456306, 0.00097379, 0.00256582, 0.00431576, 21.9694, 133.121, 0, 0.000976098, 0.00163134, 0.00265849, 16.814, 80.6487, 0, 0.000976929, -12.9835, -26.4485, -359.932, -9.3869, -15.7709, -216.788, 0.001824, 0.0015634, -0.00554759, 0.00107372, 0.00107372, 0.00107372
2501, 1,0.0023158, -0.00128232, 0.000911268, 29.1474, -78.9177, 0.00700338, -17.3848, 271.283, 0.116824, 0.00108338, 0.00285519, 0.00485594, 36.5919, 132.977, 0, 0.00108615, 0.00177689, 0.00303549, 21.7561, 84.1958, 0, 0.00108701, -15.2563, -16.8436, -366.831, -10.6699, -14.7396, -227.178, 0.00177232, 0.00179665, -0.00572675, 0.00110108, 0.00110108, 0.00110108
2502, 1,0.00183292, -0.00101927, 0.000727122, 28.2337, -63.3781, 0.00529694, -9.75693, 253.928, 0.0580445, 0.00105027, 0.00226172, 0.00362382, 33.548, 98.7275, 0, 0.00105306, 0.00140682, 0.00217885, 23.0363, 58.1802, 0, 0.00105375, -18.5121, 3.26728, -280.938, -12.1858, 4.36156, -166.716, 0.00116401, 0.00166439, -0.00443045, 0.000659237, 0.000659237, 0.000659237
2503, 1,0.00172441, -0.000970908, 0.000699085, 28.0698, -60.1866, 0.00437278, 7.33597, 232.546, 0.0213905, 0.00101668, 0.00215056, 0.00339704, 34.1002, 90.8737, -5.42101E-20, 0.00101906, 0.00129891, 0.00200087, 22.0611, 52.6946, -5.42101E-20, 0.0010197, -14.5115, -1.28183, -256.828, -9.38102, 0.63787, -149.341, 0.00112525, 0.00143882, -0.00403869, 0.000632522, 0.000632522, 0.000632522
2504, 1,0.00215642, -0.00112714, 0.000815894, 36.8336, -68.568, 0.00399266, -0.49353, 241.076, 0.00792418, 0.000982053, 0.00265799, 0.0042385, 45.3584, 107.687, 0, 0.000984198, 0.00165655, 0.00261397, 28.4213, 66.8199, 0, 0.00098485, -8.62188, -16.4899, -297.949, -6.70406, -15.1639, -178.592, 0.00151453, 0.00139095, -0.00465292, 0.000911536, 0.000911536, 0.000911536
2505, 1,0.00246001, -0.00108622, 0.000814747, 55.6512, -64.1873, 0.00458156, 18.5106, 216.452, 0.0302414, 0.00108292, 0.00298989, 0.0045048, 68.0232, 100.435, 0, 0.00108502, 0.00193764, 0.0029097, 43.7432, 66.4284, 0, 0.00108562, -10.3808, -26.0961, -264.83, -10.1187, -29.4466, -159.72, 0.0013624, 0.00109732, -0.00408941, 0.000832329, 0.000832329, 0.000832329
2506, 1,0.00159015, -0.000849294, 0.000618451, 21.1141, -51.545, 0.00379969, 42.9201, 183.436, 0, 0.00104954, 0.00197537, 0.00321194, 28.1884, 88.128, 0, 0.00105116, 0.00120628, 0.00197828, 14.1107, 57.8592, 0, 0.00105168, -16.5756, -6.27111, -241.537, -14.3196, -8.19136, -151.067, 0.00103806, 0.00129759, -0.00376567, 0.00060904, 0.00060904, 0.00060904
2507, 1,0.00152342, -0.000819129, 0.000596523, 20.8345, -49.7115, 0.00352949, 34.9451, 177.026, 0, 0.00101543, 0.00189662, 0.00307178, 27.6899, 83.5396, 0, 0.00101697, 0.00115063, 0.00187972, 14.0075, 54.2968, 0, 0.00101745, -14.2956, -8.32417, -227.999, -12.3118, -9.13466, -141.444, 0.00101447, 0.00117722, -0.00354727, 0.000595899, 0.000595899, 0.000595899
2508, 1,0.00202732, -0.000976011, 0.000731768, 40.2776, -57.5818, 0.00335244, 13.849, 193.487, 0, 0.000981094, 0.00250816, 0.00383785, 51.6839, 89.6165, 0, 0.000982749, 0.00155051, 0.00239181, 29.1252, 59.1631, 0, 0.000983235, -9.5241, -29.0978, -230.228, -9.70204, -29.5164, -138.271, 0.0012107, 0.000852801, -0.00351768, 0.000727354, 0.000727354, 0.000727354
2509, 1,0.0018688, -0.000899861, 0.000675519, 42.6082, -53.0383, 0.00290826, 4.99268, 177.742, 0, 0.00108241, 0.00231018, 0.0035013, 53.1712, 76.9467, 0, 0.00108418, 0.00143365, 0.00217566, 32.4407, 49.2402, 0, 0.00108467, -2.62089, -41.2486, -186.971, -3.81952, -36.4155, -107.485, 0.00115649, 0.000409449, -0.00281445, 0.000694709, 0.000694709, 0.000694709
2510, 1,0.00115082, -0.000733168, 0.000517561, 12.2859, -45.0973, 0.00270911, 15.2194, 151.419, 0, 0.00104766, 0.00145229, 0.00254278, 16.3704, 70.8286, 0, 0.00104903, 0.000849761, 0.00150897, 8.21562, 43.1367, 0, 0.0010495, -3.26291, -18.5648, -190.658, -2.24192, -13.1184, -114.05, 0.00104737, 0.000763397, -0.00296005, 0.000632796, 0.000632796, 0.000632796
2511, 1,0.00109438, -0.000717702, 0.000506931, 13.0519, -44.2238, 0.0025068, 12.8503, 141.757, 0, 0.00101379, 0.00138944, 0.00238903, 16.9402, 65.5406, 0, 0.00101505, 0.000800137, 0.00137771, 9.18172, 38.1524, 0, 0.0010155, -4.39494, -14.1156, -178.111, -2.86592, -8.0371, -103.554, 0.000940636, 0.000768128, -0.00277227, 0.000541643, 0.000541643, 0.000541643
2512, 1,0.00172418, -0.000855277, 0.000635842, 43.5887, -50.7001, 0.00246202, 3.7301, 150.197, 0, 0.00098062, 0.00213092, 0.00311878, 52.6526, 63.9973, 0, 0.000981993, 0.00132401, 0.00187331, 34.9236, 36.7141, 0, 0.000982428, -2.90695, -35.243, -153.842, -3.10333, -27.6017, -79.4372, 0.000947182, 0.000321781, -0.00230743, 0.000513363, 0.000513363, 0.000513363
2513, 1,0.00155717, -0.000799535, 0.000585377, 37.0786, -47.9873, 0.00222679, -0.314346, 141.886, 0, 0.00108241, 0.00192295, 0.00290427, 44.4215, 63.3914, 0, 0.00108379, 0.00119495, 0.00174701, 29.9759, 36.5069, 0, 0.00108426, 1.56153, -42.389, -149.347, 0.583896, -29.0713, -81.0332, 0.00103186, 0.000170904, -0.00223135, 0.000587689, 0.000587689, 0.000587689
2514, 1,0.00103208, -0.000686404, 0.000472403, 13.8373, -42.5717, 0.00199553, 2.52793, 123.332, 0, 0.00104793, 0.0012884, 0.00225096, 16.0789, 60.7365, 0, 0.00104899, 0.000776727, 0.00130957, 11.6317, 33.8739, 0, 0.00104945, 3.41168, -22.1969, -163.424, 3.08578, -11.5218, -93.1858, 0.00102975, 0.000523471, -0.00253875, 0.000599731, 0.000599731, 0.000599731
2515, 1,0.000978752, -0.000675512, 0.000467569, 14.3696, -41.931, 0.00165804, -5.86512, 113.243, 0, 0.00101411, 0.00123782, 0.00211705, 16.8127, 56.0689, 0, 0.00101505, 0.000720039, 0.00118325, 11.9333, 29.4615, 0, 0.00101549, 0.729081, -17.6128, -151.323, 1.12922, -7.2244, -82.2893, 0.000899911, 0.000540191, -0.00234992, 0.000489324, 0.000489324, 0.000489324
2516, 1,0.00149527, -0.000772783, 0.000563018, 40.772, -46.4811, 0.0019804, 8.29588, 113.326, 0, 0.0009807, 0.00183525, 0.00261814, 46.9689, 52.5395, 0, 0.000981668, 0.00116497, 0.0015284, 35.1429, 26.1049, 0, 0.000982089, -3.28882, -39.8229, -114.507, -3.16856, -26.39, -48.756, 0.000758975, 4.19153E-05, -0.00165348, 0.000345213, 0.000345213, 0.000345213
2517, 1,0.00131834, -0.000738031, 0.000527082, 30.2525, -44.9228, 0.00218247, 24.8153, 105.586, 0, 0.00108265, 0.00162947, 0.00252352, 35.1488, 56.8115, 0, 0.00108351, 0.00101067, 0.00148302, 25.615, 30.3535, 0, 0.00108398, 0.231997, -44.5047, -126.162, -0.510188, -28.2219, -62.3283, 0.000900378, 2.35862E-05, -0.00184581, 0.000467883, 0.000467883, 0.000467883
2518, 1,0.000886152, -0.000661223, 0.000450536, 12.1728, -41.1722, 0.00164352, 8.5568, 92.8421, 0, 0.0010482, 0.00112467, 0.0020113, 13.7108, 53.7141, 0, 0.00104886, 0.00064856, 0.00111417, 10.7165, 27.4048, 0, 0.00104931, 4.11944, -29.8969, -135.365, 3.43256, -16.8646, -68.7823, 0.00093409, 0.000249234, -0.00205493, 0.000505137, 0.000505137, 0.000505137
2519, 1,0.000852836, -0.000648154, 0.000443517, 12.5753, -40.3303, 0.00147323, 6.52748, 84.8007, 0, 0.00101426, 0.00109052, 0.00191485, 14.2497, 50.2066, 0, 0.00101482, 0.00061618, 0.00103189, 10.9897, 24.4207, 0, 0.00101525, 3.15058, -26.4331, -127.337, 2.87979, -14.2446, -61.8972, 0.000859179, 0.000261482, -0.00193538, 0.000447335, 0.000447335, 0.000447335
2520, 1,0.0012186, -0.000705169, 0.000503271, 29.3649, -42.8928, 0.00211441, 35.3239, 85.5206, 0, 0.000980624, 0.00150381, 0.00225419, 33.3424, 49.1266, 0, 0.000981203, 0.000945797, 0.0012922, 26.1195, 23.7505, 0, 0.000981607, -2.68706, -44.3204, -100.372, -2.68546, -29.7684, -38.7976, 0.000718812, -0.00010281, -0.00141323, 0.000319205, 0.000319205, 0.000319205
2521, 1,0.00108652, -0.000689208, 0.000484483, 17.181, -42.3202, 0.00272796, 63.0388, 89.1353, 0, 0.00108214, 0.00135917, 0.00225007, 20.5443, 58.4473, 0, 0.00108268, 0.000819025, 0.00130031, 14.1941, 32.8197, 0, 0.00108313, -3.87687, -51.5553, -119.91, -4.31191, -35.322, -58.8251, 0.000839249, -9.0222E-05, -0.00169741, 0.000426319, 0.000426319, 0.000426319
2522, 1,0.000780979, -0.000632332, 0.00042963, 6.88587, -39.3515, 0.00157956, 18.9934, 74.7353, 0, 0.00104794, 0.00100568, 0.00187374, 8.217, 53.2271, 0, 0.0010483, 0.000558501, 0.00102276, 5.73222, 28.1617, 0, 0.00104873, 2.20955, -36.2291, -125.662, 1.57451, -23.442, -62.6176, 0.000886139, 0.000113378, -0.00186322, 0.000477876, 0.000477876, 0.000477876
2523, 1,0.000742936, -0.000620666, 0.000423752, 6.37854, -38.5927, 0.00154277, 19.893, 71.032, 0, 0.00101385, 0.000966264, 0.00179425, 7.79554, 50.7065, 0, 0.00101418, 0.000523504, 0.000957922, 5.23184, 26.1127, 0, 0.00101459, 1.38621, -33.5337, -119.972, 1.07242, -21.5703, -57.8401, 0.000830195, 0.000124324, -0.00177735, 0.000436219, 0.000436219, 0.000436219
2524, 1,0.000984689, -0.000654233, 0.000461232, 13.5683, -40.0899, 0.00259586, 62.9483, 78.942, 0, 0.000979778, 0.00123825, 0.00202905, 16.4477, 53.9557, 0, 0.000980176, 0.000742796, 0.00114758, 11.4052, 29.6545, 0, 0.000980562, -6.25284, -50.7669, -104.847, -6.11038, -36.8332, -46.0198, 0.000719572, -0.00015392, -0.00144123, 0.000339863, 0.000339863, 0.000339863
2525, 1,0.000952804, -0.00064673, 0.000452948, 10.9773, -39.7919, 0.002887, 77.5048, 80.0381, 0, 0.00108161, 0.00120557, 0.00207999, 13.9335, 57.0178, 0, 0.00108201, 0.00070486, 0.00119153, 8.384, 32.7971, 0, 0.00108244, -3.44127, -51.5287, -116.084, -3.57324, -36.5012, -58.3168, 0.000825926, -0.000110691, -0.00164041, 0.000441569, 0.000441569, 0.000441569
2526, 1,0.00074486, -0.000598031, 0.000408592, 3.74058, -37.1069, 0.00126293, 2.53091, 76.9723, 0, 0.00104724, 0.000959554, 0.00181434, 5.24227, 54.1253, 0, 0.00104762, 0.000532635, 0.00100767, 2.40485, 30.7461, 0, 0.00104802, -0.251843, -40.022, -122.102, -0.626025, -28.0879, -63.5244, 0.000848594, 4.82823E-05, -0.00177514, 0.000472419, 0.000472419, 0.000472419
2527, 1,0.000715414, -0.000586163, 0.000402222, 4.64484, -36.3047, 0.0012684, 5.79931, 72.6528, 0, 0.00101311, 0.000930142, 0.0017335, 6.32112, 50.3183, 0, 0.00101348, 0.000504127, 0.00094037, 3.21304, 27.4956, 0, 0.00101385, -0.622392, -35.7085, -114.624, -0.895886, -24.4517, -57.1392, 0.000781583, 7.25857E-05, -0.00167069, 0.000416349, 0.000416349, 0.000416349
2528, 1,0.000878614, -0.00061008, 0.000429445, 10.5259, -37.3592, 0.00265829, 72.3945, 70.2794, 0, 0.000979191, 0.00111536, 0.00186005, 13.2612, 50.1192, 0, 0.000979512, 0.000651652, 0.00103488, 8.40507, 27.5298, 0, 0.000979871, -5.10562, -46.9579, -98.2941, -5.03645, -33.9363, -43.6165, 0.000682767, -0.000136287, -0.0013598, 0.000328467, 0.000328467, 0.000328467
2529, 1,0.00088675, -0.000600592, 0.00042208, 12.8618, -36.8669, 0.00231196, 60.7658, 65.868, 0, 0.00108121, 0.00112599, 0.00193082, 15.954, 49.7467, 0, 0.00108149, 0.000650826, 0.00109817, 10.0311, 27.5048, 0, 0.00108188, 0.62991, -44.7455, -105.124, 0.573675, -30.4799, -52.6081, 0.000797583, -9.31185E-05, -0.00151165, 0.000445998, 0.000445998, 0.000445998
2530, 1,0.000711161, -0.000557722, 0.000384281, 6.42229, -34.4897, 0.00122289, 6.04618, 69.5571, 0, 0.00104684, 0.000916453, 0.00169606, 8.20298, 47.687, 0, 0.00104722, 0.000509823, 0.000939838, 4.87559, 26.228, 0, 0.00104758, 1.85404, -37.4326, -107.483, 1.64208, -25.8313, -54.4947, 0.000792078, -1.21925E-06, -0.00156465, 0.000449585, 0.000449585, 0.000449585
2531, 1,0.000689501, -0.000544757, 0.000375793, 6.54702, -33.6581, 0.00107836, 2.3361, 64.9549, 0, 0.00101286, 0.000892486, 0.0016248, 8.38067, 45.2085, 0, 0.00101318, 0.000489292, 0.000883424, 4.90186, 24.2452, 0, 0.00101353, 0.812903, -33.8565, -102.582, 0.632975, -22.7359, -50.6327, 0.00073117, 3.02342E-05, -0.00149501, 0.000397197, 0.000397197, 0.000397197
2532, 1,0.000802452, -0.000562758, 0.000395607, 11.632, -34.4661, 0.00235278, 69.9631, 54.0852, 0, 0.00097912, 0.00102412, 0.00170639, 14.3524, 42.961, 0, 0.000979296, 0.000586447, 0.00093423, 9.28658, 22.1163, 0, 0.000979628, -0.560439, -38.8915, -89.4311, -0.52277, -26.0332, -39.793, 0.000665737, -8.60623E-05, -0.00127685, 0.000338256, 0.000338256, 0.000338256
2533, 1,0.000789807, -0.000550439, 0.00038748, 9.1547, -33.7816, 0.00206045, 58.803, 52.6323, 0, 0.00108122, 0.00101273, 0.00177297, 12.244, 47.8041, 0, 0.00108131, 0.000568183, 0.00100207, 6.19264, 27.4834, 0, 0.00108166, -0.768354, -43.2524, -99.3914, -0.72385, -28.9718, -52.7547, 0.000737261, -9.72478E-05, -0.00141567, 0.00041806, 0.00041806, 0.00041806
2534, 1,0.000675836, -0.000511234, 0.000352973, 6.16872, -31.6394, 0.0012391, 19.3719, 52.7282, 0, 0.00104706, 0.000868584, 0.00159241, 8.03105, 44.5473, 0, 0.0010472, 0.000484736, 0.000891005, 4.43457, 24.8557, 0, 0.00104753, 0.836797, -34.4222, -100.056, 0.818215, -22.7243, -52.661, 0.000721285, 1.6121E-05, -0.00146024, 0.000410716, 0.000410716, 0.000410716
2535, 1,0.000660981, -0.000501678, 0.000346701, 6.83591, -31.016, 0.00125056, 20.9716, 50.8028, 0, 0.00101302, 0.00084963, 0.00152589, 8.60822, 41.8408, 0, 0.00101316, 0.000474568, 0.00083956, 5.22077, 22.5092, 0, 0.00101348, 0.73652, -32.1626, -94.0963, 0.750308, -20.9051, -47.3728, 0.000676585, 1.56734E-05, -0.00137122, 0.000372402, 0.000372402, 0.000372402
2536, 1,0.000739765, -0.000521449, 0.000367208, 10.8405, -31.9123, 0.00209728, 63.3598, 46.6661, 0, 0.000979088, 0.000946785, 0.00157643, 13.4696, 39.3302, 0, 0.000979205, 0.000537709, 0.000858517, 8.5385, 20.0763, 0, 0.000979511, -0.149146, -37.6423, -80.1991, -0.0621901, -24.7122, -35.4544, 0.000617405, -0.000123541, -0.00113212, 0.000316027, 0.000316027, 0.000316027
2537, 1,0.00074626, -0.000506136, 0.000358532, 10.6214, -30.984, 0.00164557, 39.1941, 52.7854, 0, 0.00108112, 0.000956298, 0.00164329, 13.8089, 42.4728, 0, 0.0010813, 0.00053692, 0.000928681, 7.5237, 24.0305, 0, 0.00108163, 0.211669, -40.856, -86.7739, 0.345627, -26.6351, -45.8022, 0.000673885, -0.000135476, -0.00122755, 0.00038615, 0.00038615, 0.00038615
2538, 1,0.000643505, -0.000471436, 0.000327775, 7.33495, -29.1141, 0.00111147, 15.2045, 50.2798, 0, 0.00104703, 0.000825979, 0.0014756, 9.34988, 39.9174, 0, 0.00104721, 0.000462336, 0.000824597, 5.44027, 21.9558, 0, 0.00104751, 0.603006, -33.871, -86.484, 0.728362, -22.2128, -44.3831, 0.00064352, -4.40275E-05, -0.0012472, 0.000363237, 0.000363237, 0.000363237
2539, 1,0.000623394, -0.000464015, 0.000322552, 7.63823, -28.6278, 0.00112233, 16.7609, 48.2983, 0, 0.00101297, 0.000801391, 0.00141034, 9.50343, 37.4507, 0, 0.00101315, 0.000447866, 0.000773363, 5.94691, 19.7427, 0, 0.00101344, 0.747797, -31.9414, -81.1586, 0.869617, -20.6839, -39.4139, 0.000607944, -4.92219E-05, -0.00116644, 0.000331621, 0.000331621, 0.000331621
2540, 1,0.000686246, -0.000483416, 0.000341851, 10.77, -29.5224, 0.00161114, 39.6426, 47.6054, 0, 0.000978923, 0.000880963, 0.0014536, 13.4022, 35.529, 0, 0.000979114, 0.000496314, 0.000785675, 8.44437, 17.8348, 0, 0.000979396, 0.0929588, -36.6326, -70.0475, 0.211815, -23.6529, -30.0635, 0.000562851, -0.000170707, -0.000968727, 0.000286732, 0.000286732, 0.000286732
2541, 1,0.000684769, -0.000463526, 0.0003315, 10.1583, -28.2461, 0.00129019, 21.7937, 53.6547, 0, 0.00108095, 0.000883618, 0.00150644, 13.5401, 38.7207, 0, 0.00108121, 0.000486415, 0.000845201, 6.85248, 22.2139, 0, 0.0010815, -0.201673, -40.8334, -75.1271, -0.0400537, -26.6753, -39.9264, 0.000606039, -0.000198808, -0.00103548, 0.000349364, 0.000349364, 0.000349364
2542, 1,0.00059615, -0.00043152, 0.000302256, 7.41427, -26.5725, 0.000969068, 8.18304, 50.7082, 0, 0.00104686, 0.000767515, 0.00135051, 9.55967, 36.04, 0, 0.00104711, 0.000426094, 0.000750541, 5.39162, 19.841, 0, 0.00104739, 0.152189, -33.7496, -74.5225, 0.333105, -22.1392, -37.7169, 0.000572978, -0.000103314, -0.00105445, 0.000321628, 0.000321628, 0.000321628
2543, 1,0.000574499, -0.000426434, 0.000298306, 7.39981, -26.2402, 0.00097129, 9.77775, 48.0609, 0, 0.00101279, 0.000741642, 0.00128996, 9.35907, 33.9244, 0, 0.00101302, 0.000409901, 0.000701769, 5.62073, 17.8555, 0, 0.00101329, 0.258449, -32.0718, -69.9597, 0.4181, -20.8336, -33.1512, 0.000542196, -0.000109122, -0.000983577, 0.000292502, 0.000292502, 0.000292502
2544, 1,0.000638423, -0.00044766, 0.000318734, 10.6112, -27.2426, 0.00126916, 24.7651, 45.8306, 0, 0.000978748, 0.000822402, 0.00134122, 13.3157, 32.2678, 0, 0.000978964, 0.000459555, 0.000720422, 8.22667, 16.1405, 0, 0.00097922, -0.0782045, -36.5328, -60.1926, 0.0521714, -23.5893, -24.8844, 0.000507918, -0.000226559, -0.000805028, 0.000256744, 0.000256744, 0.000256744
2545, 1,0.000641955, -0.00042221, 0.000305762, 10.7345, -25.5695, 0.00115951, 18.4792, 49.9488, 0, 0.00108087, 0.000830801, 0.00138729, 14.3695, 34.67, 0, 0.00108114, 0.000453479, 0.00077708, 7.16597, 20.1053, 0, 0.00108139, -0.331021, -40.3371, -63.342, -0.159274, -26.3458, -33.8109, 0.000539517, -0.000254368, -0.000847663, 0.00031364, 0.00031364, 0.00031364
2546, 1,0.000554557, -0.0003923, 0.000277247, 7.63742, -24.063, 0.000926685, 9.66999, 46.1599, 0, 0.00104679, 0.000715156, 0.00123565, 9.93087, 32.3476, 0, 0.00104702, 0.000395248, 0.000685582, 5.46708, 17.9142, 0, 0.00104727, -0.153046, -33.4816, -63.4082, 0.0418953, -22.0162, -31.7682, 0.000508425, -0.000156389, -0.000876907, 0.000285179, 0.000285179, 0.000285179
2547, 1,0.000535456, -0.000389624, 0.000274672, 7.52918, -23.8888, 0.000919735, 11.1419, 42.9427, 0, 0.00101272, 0.000692084, 0.00118207, 9.59812, 30.4942, 0, 0.00101293, 0.000381455, 0.000641434, 5.64643, 16.0647, 0, 0.00101316, -0.0814931, -31.8275, -59.5736, 0.0842511, -20.7072, -27.5712, 0.000481092, -0.000159296, -0.000816638, 0.000257354, 0.000257354, 0.000257354
2548, 1,0.000604615, -0.000413175, 0.000296809, 11.0217, -25.0258, 0.00114005, 22.6873, 40.378, 0, 0.00097868, 0.000778968, 0.00124334, 13.8501, 28.9221, 0, 0.000978862, 0.000435637, 0.000667207, 8.52606, 14.3604, 0, 0.000979093, -0.162629, -36.0724, -50.5312, -0.0321269, -23.231, -19.818, 0.000453483, -0.000273614, -0.000649251, 0.000226985, 0.000226985, 0.000226985
2549, 1,0.000603237, -0.000382462, 0.000281553, 11.4279, -22.9636, 0.00111951, 21.1375, 43.968, 0, 0.0010808, 0.000783572, 0.00127359, 15.3863, 30.5333, 0, 0.00108104, 0.000423148, 0.000711353, 7.52466, 17.911, 0, 0.00108126, -0.349287, -39.5704, -51.6802, -0.178002, -25.7815, -27.7736, 0.000474004, -0.000304752, -0.000664638, 0.000278708, 0.000278708, 0.000278708
2550, 1,0.000517196, -0.000353867, 0.000252981, 8.04376, -21.5824, 0.000918092, 13.846, 40.0394, 0, 0.00104673, 0.000667858, 0.00112691, 10.5283, 28.5828, 0, 0.00104693, 0.000367697, 0.000624925, 5.67377, 15.9252, 0, 0.00104714, -0.250212, -32.7774, -52.7207, -0.0648015, -21.5188, -26.1919, 0.000447141, -0.000201985, -0.000708935, 0.000251663, 0.000251663, 0.000251663
2551, 1,0.000501473, -0.000353544, 0.000251731, 7.89824, -21.5648, 0.0008921, 14.4485, 36.7641, 0, 0.00101265, 0.000648314, 0.00108088, 10.115, 26.9697, 0, 0.00101281, 0.00035726, 0.00058611, 5.8662, 14.1886, 0, 0.00101302, -0.174591, -31.1351, -49.5995, -0.022328, -20.1928, -22.3506, 0.000423728, -0.000202179, -0.000659202, 0.000225671, 0.000225671, 0.000225671
2552, 1,0.000579302, -0.000379942, 0.000276053, 11.7324, -22.8691, 0.00108416, 24.709, 34.0696, 0, 0.000978599, 0.000745056, 0.00115463, 14.7309, 25.5347, 0, 0.000978734, 0.000419198, 0.000620928, 9.08026, 12.5325, 0, 0.000978941, -0.211117, -35.3793, -41.0136, -0.085382, -22.6817, -14.8305, 0.000399163, -0.000315864, -0.000497719, 0.000197137, 0.000197137, 0.000197137
2553, 1,0.000570581, -0.000344695, 0.000259282, 12.3409, -20.4479, 0.00107484, 23.4111, 38.1762, 0, 0.00108075, 0.000744281, 0.00116802, 16.7081, 26.4046, 0, 0.00108096, 0.000397017, 0.000649933, 8.01625, 15.7212, 0, 0.00108115, -0.358845, -38.5647, -40.2904, -0.191949, -25.0287, -21.9431, 0.000408819, -0.000350374, -0.000486833, 0.000243964, 0.000243964, 0.000243964
2554, 1,0.000483957, -0.000316596, 0.00022987, 8.64792, -19.152, 0.000882251, 16.3574, 34.4254, 0, 0.00104666, 0.000625871, 0.00102409, 11.3806, 24.7942, 0, 0.00104683, 0.000343045, 0.000567769, 6.01739, 13.9164, 0, 0.00104701, -0.259493, -31.8055, -42.3178, -0.0903611, -20.8089, -20.8498, 0.000387348, -0.000243116, -0.000546536, 0.000219557, 0.000219557, 0.000219557
2555, 1,0.000472282, -0.000318461, 0.000229776, 8.49297, -19.2851, 0.000851316, 16.6557, 31.205, 0, 0.00101257, 0.000610329, 0.000985972, 10.9052, 23.4269, 0, 0.0010127, 0.000336836, 0.000535023, 6.2613, 12.2964, 0, 0.00101289, -0.187979, -30.2131, -39.8795, -0.0541833, -19.5032, -17.3319, 0.000367747, -0.000241173, -0.00050674, 0.000195302, 0.000195302, 0.000195302
2556, 1,0.000560358, -0.000348007, 0.000256527, 12.7134, -20.776, 0.00103994, 26.8329, 28.3543, 0, 0.000978516, 0.000718634, 0.00107358, 15.9323, 22.1261, 0, 0.000978615, 0.000408018, 0.00057994, 9.85555, 10.677, 0, 0.000978797, -0.208835, -34.509, -31.6605, -0.0897928, -21.9983, -9.94287, 0.000345572, -0.000354808, -0.000349877, 0.00016787, 0.00016787, 0.00016787
2557, 1,0.000544755, -0.000309388, 0.000239431, 13.5715, -18.0474, 0.0010337, 25.6047, 32.6994, 0, 0.00108068, 0.000714162, 0.00107173, 18.4543, 22.2672, 0, 0.00108087, 0.000375406, 0.000593063, 8.71914, 13.5177, 0, 0.00108102, -0.343399, -37.3484, -29.1097, -0.182182, -24.1182, -16.2528, 0.000344037, -0.000391953, -0.000313333, 0.00020952, 0.00020952, 0.00020952
2558, 1,0.000456108, -0.000280915, 0.000208361, 9.53871, -16.7949, 0.000842565, 18.4275, 29.1628, 0, 0.00104659, 0.0005909, 0.000928206, 12.5966, 20.9738, 0, 0.00104673, 0.000322146, 0.000514302, 6.56927, 11.877, 0, 0.00104688, -0.229459, -30.6235, -32.0684, -0.0770629, -19.9387, -15.6152, 0.000327888, -0.000280701, -0.000387496, 0.000187796, 0.000187796, 0.000187796
2559, 1,0.000448439, -0.000284658, 0.000209109, 9.36456, -17.0658, 0.000814527, 18.836, 25.9214, 0, 0.00101251, 0.000578999, 0.000897709, 12.0346, 19.8548, 0, 0.00101261, 0.000320439, 0.000487962, 6.87018, 10.3761, 0, 0.00101277, -0.156661, -29.1037, -30.304, -0.0412912, -18.6732, -12.4137, 0.000312234, -0.000276951, -0.000357486, 0.000165418, 0.000165418, 0.000165418
2560, 1,0.000547627, -0.000317478, 0.000238353, 13.9743, -18.7536, 0.00101493, 29.7062, 22.8491, 0, 0.000978449, 0.000699727, 0.00100031, 17.4725, 18.7277, 0, 0.000978514, 0.000401709, 0.000543968, 10.8517, 8.82509, 0, 0.000978671, -0.196236, -33.4896, -22.4974, -0.0841337, -21.2077, -5.18346, 0.000292345, -0.000390468, -0.00020585, 0.000138858, 0.000138858, 0.000138858
2561, 1,0.000526797, -0.000277094, 0.000222555, 15.165, -15.7884, 0.00100735, 28.5208, 27.1791, 0, 0.00108063, 0.000694798, 0.00098634, 20.6957, 18.1378, 0, 0.00108079, 0.000358809, 0.000541277, 9.6543, 11.3175, 0, 0.00108091, -0.324995, -35.9648, -18.1236, -0.170255, -23.0898, -10.6926, 0.000279449, -0.000430027, -0.000143662, 0.000175179, 0.000175179, 0.000175179
2562, 1,0.000434637, -0.000247354, 0.000188985, 10.745, -14.5372, 0.00081243, 20.9873, 23.8495, 0, 0.00104652, 0.000564452, 0.000840774, 14.2293, 17.1452, 0, 0.00104663, 0.000305481, 0.000465025, 7.33504, 9.82985, 0, 0.00104676, -0.193661, -29.2865, -21.9554, -0.0563089, -18.9559, -10.4774, 0.00026842, -0.000315366, -0.000231236, 0.00015607, 0.00015607, 0.00015607
2563, 1,0.000430997, -0.000252512, 0.00019011, 10.5492, -14.9259, 0.000790884, 21.6862, 20.5682, 0, 0.00101243, 0.000555758, 0.000817427, 13.5571, 16.2726, 0, 0.0010125, 0.000308742, 0.000445514, 7.71202, 8.44566, 0, 0.00101263, -0.119674, -27.8503, -20.8479, -0.0204423, -17.7394, -7.57712, 0.000256669, -0.000310021, -0.000210726, 0.00013553, 0.00013553, 0.00013553
2564, 1,0.000541996, -0.000288577, 0.000221764, 15.5705, -16.8126, 0.0010115, 33.6242, 17.3227, 0, 0.000978374, 0.000689485, 0.000935888, 19.4197, 15.338, 0, 0.000978405, 0.000400878, 0.000513576, 12.1112, 6.97629, 0, 0.000978538, -0.178397, -32.3361, -13.4993, -0.073171, -20.3233, -0.532359, 0.000239354, -0.00042321, -6.51146E-05, 0.000109998, 0.000109998, 0.000109998
2565, 1,0.000518421, -0.000248413, 0.000209255, 17.1985, -13.6997, 0.000997168, 32.1942, 21.6528, 0, 0.00108055, 0.000688512, 0.000914185, 23.537, 14.0178, 0, 0.00108068, 0.000348339, 0.000495698, 10.8719, 9.12185, 0, 0.00108077, -0.304775, -34.4372, -7.31149, -0.156504, -21.9625, -5.24656, 0.000215047, -0.000465064, 2.26311E-05, 0.000140946, 0.000140946, 0.000140946
2566, 1,0.000421632, -0.000216598, 0.000172426, 12.3606, -12.4118, 0.000796986, 24.293, 18.4666, 0, 0.00104644, 0.00054928, 0.000764484, 16.4039, 13.3103, 0, 0.00104653, 0.000294489, 0.000421309, 8.37859, 7.77608, 0, 0.00104662, -0.159948, -27.8153, -11.9557, -0.0354284, -17.8763, -5.4165, 0.000208804, -0.000347474, -7.72853E-05, 0.000124237, 0.000124237, 0.000124237
2567, 1,0.000421741, -0.000222529, 0.000173288, 12.1275, -12.89, 0.000784548, 25.391, 15.1701, 0, 0.00101235, 0.000542903, 0.000747406, 15.5779, 12.685, 0, 0.00101239, 0.000303017, 0.000408941, 8.84334, 6.50976, 0, 0.0010125, -0.0855686, -26.4723, -11.497, -0.000113747, -16.717, -2.81213, 0.000200947, -0.00034068, -6.61299E-05, 0.000105536, 0.000105536, 0.000105536
2568, 1,0.000544505, -0.000261592, 0.000207054, 17.559, -14.9671, 0.00102942, 38.5538, 11.8206, 0, 0.000978298, 0.000689277, 0.000881633, 21.8466, 11.9567, 0, 0.000978296, 0.000406202, 0.0004894, 13.6734, 5.1311, 0, 0.000978405, -0.160421, -31.064, -4.64551, -0.0616437, -19.3572, 4.02555, 0.000186494, -0.000453379, 7.27793E-05, 8.12001E-05, 8.12001E-05, 8.12001E-05
2569, 1,0.000521696, -0.000223936, 0.000200124, 19.7612, -11.8097, 0.00100647, 36.7976, 16.093, 0, 0.00108048, 0.000697982, 0.000857925, 27.0959, 9.90685, 0, 0.00108058, 0.000345436, 0.000457756, 12.4332, 6.9306, 0, 0.00108064, -0.28369, -32.7828, 3.34596, -0.142192, -20.7508, 0.101215, 0.000150802, -0.000497399, 0.00018592, 0.000106793, 0.000106793, 0.000106793
2570, 1,0.00041954, -0.000189475, 0.00015951, 14.4948, -10.4582, 0.000801914, 28.595, 13.0359, 0, 0.00104638, 0.000548639, 0.000702613, 19.2673, 9.47255, 0, 0.00104644, 0.000290822, 0.00038483, 9.77215, 5.719, 0, 0.0010465, -0.131264, -26.2311, -2.05528, -0.0173061, -16.7174, -0.422283, 0.00014903, -0.000377368, 7.46575E-05, 9.22881E-05, 9.22881E-05, 9.22881E-05
2571, 1,0.000422881, -0.000195363, 0.000159292, 14.2068, -10.9902, 0.000801182, 30.2071, 9.75034, 0, 0.0010123, 0.000543294, 0.000690506, 18.235, 9.09267, 0, 0.00101231, 0.00030482, 0.000379791, 10.3407, 4.56877, 0, 0.00101239, -0.056024, -24.988, -2.23396, 0.0180741, -15.6198, 1.89542, 0.000145049, -0.000369261, 7.66398E-05, 7.5409E-05, 7.5409E-05, 7.5409E-05
2572, 1,0.000556279, -0.000236867, 0.000194574, 20.003, -13.2337, 0.00107039, 44.5663, 6.36586, 0, 0.000978249, 0.000700632, 0.000839036, 24.8364, 8.58094, 0, 0.000978214, 0.000418371, 0.000472103, 15.5797, 3.2878, 0, 0.000978298, -0.14153, -29.6877, 4.08644, -0.0493556, -18.3208, 8.5068, 0.000133738, -0.000481305, 0.000208235, 5.24454E-05, 5.24454E-05, 5.24454E-05
2573, 1,0.000538688, -0.000204117, 0.000195616, 22.9407, -10.141, 0.00103839, 42.4696, 10.5046, 0, 0.00108039, 0.000725761, 0.000820105, 31.483, 5.80443, 0, 0.00108047, 0.000351656, 0.000428998, 14.4023, 4.74328, 0, 0.00108049, -0.262167, -31.0209, 13.8698, -0.127397, -19.4696, 5.36714, 8.66961E-05, -0.000527418, 0.000346613, 7.27088E-05, 7.27088E-05, 7.27088E-05
2574, 1,0.000431201, -0.000166854, 0.000151109, 17.2779, -8.71808, 0.000832757, 34.1402, 7.57274, 0, 0.0010463, 0.000566223, 0.000658843, 22.9904, 5.63028, 0, 0.00104633, 0.000296475, 0.000357568, 11.607, 3.65719, 0, 0.00104637, -0.10661, -24.5502, 7.76598, -0.00114487, -15.4918, 4.5214, 8.90924E-05, -0.000405381, 0.000224955, 6.0217E-05, 6.0217E-05, 6.0217E-05
2575, 1,0.000436775, -0.000171758, 0.00014887, 16.905, -9.26227, 0.000845784, 36.3559, 4.3361, 0, 0.00101222, 0.000560044, 0.000649836, 21.6827, 5.49524, 0, 0.0010122, 0.000315747, 0.00035966, 12.2858, 2.62259, 0, 0.00101225, -0.0307197, -23.4134, 6.95836, 0.0341375, -14.4607, 6.55878, 8.89738E-05, -0.000396072, 0.000217899, 4.515E-05, 4.515E-05, 4.515E-05
2576, 1,0.000578311, -0.000214783, 0.000184706, 22.9578, -11.6306, 0.00113546, 51.7007, 0.976422, 0, 0.000978184, 0.000724977, 0.000809506, 28.4656, 5.2099, 0, 0.000978117, 0.000437913, 0.000462202, 17.8617, 1.44552, 0, 0.000978176, -0.122231, -28.2238, 12.7163, -0.0365934, -17.2268, 12.9268, 8.10621E-05, -0.000507322, 0.000341626, 2.37147E-05, 2.37147E-05, 2.37147E-05
2577, 1,0.000571077, 0.000202695, 0.000195918, 26.8082, 9.97615, 0.00109602, 49.3586, 4.87795, 0, 0.00108032, 0.000773739, 0.000802601, 36.781, 1.70935, 0, 0.00108038, 0.000368449, 0.000410866, 16.8385, 2.55904, 0, 0.00108036, -0.239998, -29.1683, 24.2802, -0.112049, -18.1323, 10.5672, 2.27163E-05, -0.000555463, 0.000505088, 3.86815E-05, 3.86815E-05, 3.86815E-05
2578, 1,0.000459222, -0.000149435, 0.00014792, 20.8278, -7.22508, 0.000894268, 41.1445, 2.08334, 0, 0.00104625, 0.000605335, 0.000636474, 27.7236, 1.7835, 0, 0.00104625, 0.000313368, 0.000341442, 13.969, 1.59072, 0, 0.00104625, -0.0863007, -22.7905, 17.5263, 0.0128157, -14.2138, 9.42877, 2.89854E-05, -0.000431855, 0.000373955, 2.80194E-05, 2.80194E-05, 2.80194E-05
2579, 1,0.000465511, -0.000152443, 0.000142748, 20.3281, -7.7409, 0.000921736, 43.9925, -1.06311, 0, 0.00101218, 0.000595975, 0.000628207, 26.0621, 1.89223, 0, 0.00101213, 0.000337155, 0.000349894, 14.7494, 0.670705, 0, 0.00101215, -0.00996409, -21.7647, 16.098, 0.0480411, -13.2524, 11.1923, 3.27086E-05, -0.000421428, 0.000357984, 1.475E-05, 1.475E-05, 1.475E-05
2580, 1,0.000611237, -0.000195707, 0.000177817, 26.4586, -10.1755, 0.00122441, 59.9372, -4.33774, 0, 0.000978155, 0.000763354, 0.00079409, 32.7896, 1.84421, 0, 0.000978057, 0.000465065, 0.00045993, 20.5328, -0.395491, 0, 0.000978092, -0.1034, -26.6885, 21.2593, -0.0238293, -16.088, 17.2983, 2.84584E-05, -0.000531731, 0.000473251, -4.99803E-06, -4.99803E-06, -4.99803E-06
2581, 1,0.000619656, 0.000222904, 0.000200881, 31.398, 11.6254, 0.00118147, 57.5672, -0.792627, 0, 0.00108023, 0.000842549, 0.00080604, 43.0194, -2.37877, 0, 0.00108025, 0.000396774, 0.00040431, 19.7804, 0.377526, 0, 0.0010802, -0.217643, -27.2433, 34.5973, -0.0964227, -16.7532, 15.717, -4.11542E-05, -0.000581895, 0.000661727, 4.69944E-06, 4.69944E-06, 4.69944E-06
2582, 1,0.000505185, 0.000162931, 0.000150203, 25.2151, 8.37682, 0.000988961, 49.7241, -3.43211, 0, 0.00104615, 0.000667818, 0.000637339, 33.5506, -2.06853, 0, 0.00104613, 0.000342824, 0.000337769, 16.9165, -0.480995, 0, 0.0010461, -0.0703846, -20.9689, 27.2449, 0.0245774, -12.8963, 14.3147, -3.13041E-05, -0.000457122, 0.000522017, -4.31391E-06, -4.31391E-06, -4.31391E-06
2583, 1,0.000510236, 0.000144939, 0.000141427, 24.5342, 7.1001, 0.00102938, 53.1266, -6.44221, 0, 0.00101208, 0.000652731, 0.000627256, 31.455, -1.71683, 0, 0.00101201, 0.000369707, 0.000351151, 17.7658, -1.2872, 0, 0.001012, 0.00600263, -20.0579, 25.2024, 0.0596462, -12.0076, 15.8095, -2.37592E-05, -0.000445636, 0.000497221, -1.57994E-05, -1.57994E-05, -1.57994E-05
2584, 1,0.000655191, -0.00017992, 0.000174184, 30.512, -8.88097, 0.00133549, 69.1792, -9.57028, 0, 0.000978069, 0.000816178, 0.000793201, 37.8296, -1.51626, 0, 0.000977942, 0.000499707, 0.000465166, 23.5856, -2.23546, 0, 0.000977953, -0.0851706, -25.0971, 29.731, -0.0111486, -14.9164, 21.6339, -2.40778E-05, -0.000554817, 0.0006034, -3.36981E-05, -3.36981E-05, -3.36981E-05
2585, 1,0.000684006, 0.000247291, 0.000210052, 36.6956, 13.4744, 0.00129527, 67.1273, -6.51137, 0, 0.00108014, 0.000931288, 0.000829501, 50.1633, -6.46105, 0, 0.00108014, 0.000436736, 0.000409427, 23.2344, -1.80197, 0, 0.00108006, -0.19502, -25.2627, 44.8409, -0.0805439, -15.3453, 20.8317, -0.000104931, -0.000607052, 0.000816901, -2.9249E-05, -2.9249E-05, -2.9249E-05
2586, 1,0.000568917, 0.000184633, 0.000157648, 30.4312, 10.0627, 0.00111609, 59.8457, -8.97518, 0, 0.00104608, 0.000753191, 0.000660944, 40.4488, -5.92643, 0, 0.00104603, 0.000384977, 0.000346671, 20.4546, -2.55843, 0, 0.00104597, -0.0592464, -19.1015, 36.94, 0.0338283, -11.552, 19.1934, -9.17947E-05, -0.000481505, 0.000669491, -3.67976E-05, -3.67976E-05, -3.67976E-05
2587, 1,0.000570682, 0.000161711, 0.000144979, 29.5079, 8.51893, 0.00116584, 63.6143, -11.7997, 0, 0.00101203, 0.000730095, 0.000646753, 37.8481, -5.33229, 0, 0.00101193, 0.000413102, 0.000363123, 21.3178, -3.25144, 0, 0.00101189, 0.0165643, -18.3084, 34.2887, 0.0684988, -10.7384, 20.4243, -8.04487E-05, -0.000468995, 0.000635936, -4.65132E-05, -4.65132E-05, -4.65132E-05
2588, 1,0.000709719, 0.000180315, 0.000173929, 35.091, 8.94705, 0.00146569, 79.2689, -14.7153, 0, 0.000978026, 0.000883077, 0.000806469, 43.5631, -4.87114, 0, 0.00097787, 0.000541356, 0.000477426, 26.9907, -4.07429, 0, 0.000977858, -0.0678957, -23.464, 38.1453, 0.00124318, -13.7236, 25.9452, -7.65485E-05, -0.000576843, 0.000732335, -6.23882E-05, -6.23882E-05, -6.23882E-05
2589, 1,0.000762575, 0.000275225, 0.000222798, 42.6392, 15.4936, 0.00143624, 77.9957, -12.2839, 0, 0.00108006, 0.00103773, 0.000870757, 58.1209, -10.5378, 0, 0.00108003, 0.000487485, 0.00042536, 27.1692, -3.97959, 0, 0.00107991, -0.17266, -23.2436, 55.0297, -0.0647931, -13.9216, 25.9252, -0.000168631, -0.000631264, 0.000970965, -6.3175E-05, -6.3175E-05, -6.3175E-05
2590, 1,0.000648537, 0.000210764, 0.000169506, 36.3905, 11.9607, 0.00127194, 71.3419, -14.5518, 0, 0.00104601, 0.000858831, 0.000704654, 48.2984, -9.79077, 0, 0.00104593, 0.000438681, 0.000366993, 24.5313, -4.64198, 0, 0.00104584, -0.0535259, -17.2046, 46.6305, 0.0400346, -10.1934, 24.0793, -0.000152509, -0.000505325, 0.000816731, -6.94495E-05, -6.94495E-05, -6.94495E-05
2591, 1,0.000645254, 0.000182971, 0.000153003, 35.1662, 10.1508, 0.00132612, 75.2163, -17.1403, 0, 0.00101198, 0.000826052, 0.000684668, 45.1382, -8.95493, 0, 0.00101184, 0.000466184, 0.000384638, 25.3432, -5.22266, 0, 0.00101178, 0.0213559, -16.5315, 43.3749, 0.0743412, -9.45672, 25.0504, -0.00013738, -0.000491805, 0.00077446, -7.74068E-05, -7.74068E-05, -7.74068E-05
2592, 1,0.000773884, 0.000195455, 0.000176981, 40.1423, 10.2456, 0.00161152, 90.0312, -19.7721, 0, 0.000977975, 0.000962977, 0.000832821, 49.9299, -8.22022, 0, 0.000977791, 0.000589272, 0.000495969, 30.7046, -5.91186, 0, 0.000977755, -0.0519048, -21.8042, 46.5168, 0.0130704, -12.5213, 30.2438, -0.000128957, -0.000598084, 0.000860327, -9.10723E-05, -9.10723E-05, -9.10723E-05
2593, 1,0.000853099, 0.000306023, 0.000238435, 49.1355, 17.6506, 0.00160185, 90.0633, -18.1107, 0, 0.00107996, 0.00115894, 0.000926849, 66.7665, -14.6098, 0, 0.0010799, 0.000547456, 0.000450544, 31.5245, -6.15587, 0, 0.00107975, -0.149935, -21.2008, 65.1801, -0.0486222, -12.4935, 31.0097, -0.000232253, -0.000654823, 0.00112422, -9.70757E-05, -9.70757E-05, -9.70757E-05
2594, 1,0.000741191, 0.000240411, 0.000184863, 42.9643, 14.0272, 0.00145088, 83.9558, -20.1692, 0, 0.00104592, 0.000980985, 0.000764696, 56.9282, -13.6632, 0, 0.00104581, 0.000501976, 0.00039676, 29.0593, -6.73314, 0, 0.00104569, -0.0522486, -15.2921, 56.334, 0.0441665, -8.83121, 28.9865, -0.000213454, -0.00052887, 0.000964057, -0.000102273, -0.000102273, -0.000102273
2595, 1,0.000731591, 0.000208007, 0.000164786, 41.3895, 11.9611, 0.00150439, 87.6566, -22.4712, 0, 0.0010119, 0.000937516, 0.000737909, 53.1706, -12.5855, 0, 0.00101174, 0.000527323, 0.000414062, 29.7577, -7.20167, 0, 0.00101165, 0.0207402, -14.7417, 52.4776, 0.077631, -8.17385, 29.7012, -0.000194558, -0.000514358, 0.000913102, -0.000108483, -0.000108483, -0.000108483
2596, 1,0.000846439, 0.00021362, 0.000183091, 45.5973, 11.6846, 0.00176988, 101.317, -24.7476, 0, 0.000977917, 0.00105431, 0.000870689, 56.8451, -11.5639, 0, 0.000977708, 0.00064257, 0.00051991, 34.6774, -7.74846, 0, 0.000977648, -0.03668, -20.1308, 54.8592, 0.0248158, -11.3198, 34.5404, -0.000181298, -0.000618783, 0.000987623, -0.000119744, -0.000119744, -0.000119744
2597, 1,0.000953065, 0.000339054, 0.000256331, 56.0762, 19.915, 0.00178942, 103.236, -24.0222, 0, 0.00107986, 0.00129177, 0.000994683, 75.9616, -18.6748, 0, 0.00107977, 0.000614738, 0.0004831, 36.2212, -8.32868, 0, 0.00107959, -0.126987, -19.1513, 75.3028, -0.0320313, -11.0743, 36.0924, -0.000295768, -0.000678006, 0.00127688, -0.000130919, -0.000130919, -0.000130919
2598, 1,0.000843906, 0.00027272, 0.000202863, 50.0174, 16.2211, 0.00164586, 97.3645, -25.8363, 0, 0.00104585, 0.00111584, 0.000837277, 66.1631, -17.5441, 0, 0.00104571, 0.000572708, 0.000433836, 33.942, -8.83246, 0, 0.00104556, -0.0533143, -13.3812, 66.0667, 0.048723, -7.47866, 33.9273, -0.00027459, -0.000552463, 0.00111176, -0.000135226, -0.000135226, -0.000135226
2599, 1,0.00082723, 0.00023603, 0.000179539, 48.0571, 13.9115, 0.00169427, 100.645, -27.8097, 0, 0.00101184, 0.00106123, 0.000803229, 61.7866, -16.226, 0, 0.00101165, 0.000594843, 0.000449729, 34.4784, -9.19033, 0, 0.00101154, 0.0181059, -12.955, 61.6149, 0.0819275, -6.902, 34.3911, -0.000251938, -0.000536976, 0.00105217, -0.000139694, -0.000139694, -0.000139694
2600, 1,0.000926014, 0.000234442, 0.00019189, 51.3834, 13.2458, 0.00193924, 113.084, -29.6878, 0, 0.000977875, 0.00115529, 0.000918294, 64.2149, -14.9022, 0, 0.000977641, 0.00070032, 0.000548334, 38.8595, -9.58407, 0, 0.000977556, -0.0211234, -18.4583, 63.1862, 0.0375925, -10.1305, 38.8451, -0.000233547, -0.000639204, 0.00111446, -0.000148377, -0.000148377, -0.000148377
2601, 1,0.00106017, 0.000373768, 0.000275939, 63.3609, 22.2599, 0.00199659, 117.321, -29.9025, 0, 0.00107978, 0.0014334, 0.00107147, 85.58, -22.7353, 0, 0.00107965, 0.00068752, 0.000521251, 41.1836, -10.5009, 0, 0.00107944, -0.0965826, -17.1064, 85.409, -0.00761245, -9.67149, 41.1818, -0.000359066, -0.00070107, 0.00142913, -0.000164599, -0.000164599, -0.000164599
2602, 1,0.000954065, 0.000306979, 0.000222793, 57.4357, 18.5081, 0.00184772, 111.016, -31.3912, 0, 0.00104577, 0.00126009, 0.000919106, 75.8562, -21.4434, 0, 0.00104561, 0.000648936, 0.000476305, 39.0969, -10.9496, 0, 0.00104543, -0.0390368, -11.4767, 75.8459, 0.0710603, -6.13932, 38.917, -0.000335705, -0.000576337, 0.00126002, -0.000168095, -0.000168095, -0.000168095
2603, 1,0.000929951, 0.000266322, 0.000196541, 55.0676, 15.9679, 0.00188794, 113.716, -33.025, 0, 0.00101177, 0.00119428, 0.00087773, 70.8512, -19.8864, 0, 0.00101155, 0.000667219, 0.000490145, 39.4369, -11.1984, 0, 0.00101141, 0.0303954, -11.1779, 70.8067, 0.103957, -5.6451, 39.1362, -0.000309317, -0.000559935, 0.00119191, -0.000170836, -0.000170836, -0.000170836
2604, 1,0.00101142, 0.000257513, 0.000202967, 57.4414, 14.9093, 0.00212104, 125.396, -34.5872, 0, 0.000977819, 0.00126429, 0.000974, 71.9585, -18.2383, 0, 0.00097756, 0.000761778, 0.000580486, 43.2141, -11.4216, 0, 0.000977451, -0.00231399, -16.8023, 71.5196, 0.054333, -8.96455, 43.175, -0.000285687, -0.000659679, 0.00124121, -0.00017695, -0.00017695, -0.00017695
2605, 1,0.00117238, 0.000409731, 0.000296831, 70.8877, 24.6645, 0.00222937, 132.707, -35.8926, 0, 0.00107968, 0.00158138, 0.00115499, 95.4996, -26.7839, 0, 0.00107952, 0.000764151, 0.00056356, 46.3296, -12.6651, 0, 0.00107927, -0.0458422, -15.0967, 95.4941, 0.0368812, -8.31121, 46.2695, -0.000421763, -0.000724599, 0.00158105, -0.000197747, -0.000197747, -0.000197747
2606, 1,0.00106939, 0.000342638, 0.000244107, 65.1092, 20.861, 0.0020471, 124.295, -36.6006, 0, 0.00104568, 0.00141092, 0.00100775, 85.8716, -25.3635, 0, 0.00104549, 0.000728905, 0.000522787, 44.4388, -13.0872, 0, 0.00104528, 0.0303071, -9.60752, 85.6679, 0.150516, -4.84002, 43.9511, -0.000396, -0.000601208, 0.0014088, -0.000200095, -0.000200095, -0.000200095
2607, 1,0.00103795, 0.000298312, 0.00021522, 62.3281, 18.1029, 0.00207922, 126.384, -37.8519, 0, 0.0010117, 0.00133429, 0.000959264, 80.2447, -23.5643, 0, 0.00101147, 0.000743195, 0.000534272, 44.566, -13.2229, 0, 0.0010113, 0.0724223, -9.43935, 80.06, 0.157566, -4.4284, 43.9397, -0.000366345, -0.000583868, 0.00133255, -0.00020157, -0.00020157, -0.00020157
2608, 1,0.00110169, 0.000282448, 0.000215932, 63.7316, 16.6575, 0.00232555, 138.806, -39.5361, 0, 0.000977773, 0.00137996, 0.00103639, 80.0176, -21.5873, 0, 0.000977488, 0.000826346, 0.000615714, 47.72, -13.2753, 0, 0.000977357, 0.0358833, -15.1658, 79.8919, 0.090528, -7.81979, 47.5551, -0.000337612, -0.000680497, 0.00136829, -0.000205359, -0.000205359, -0.000205359
2609, 1,0.00128996, 0.000446582, 0.000318678, 78.6577, 27.1094, 0.00248831, 148.546, -40.8581, 0, 0.00107957, 0.00173561, 0.00124504, 105.702, -30.8496, 0, 0.0010794, 0.000845264, 0.000610501, 51.6803, -14.8556, 0, 0.00107912, 0.0507719, -13.1337, 105.632, 0.129868, -6.99406, 51.4311, -0.00048379, -0.000750098, 0.00173455, -0.000230316, -0.000230316, -0.000230316
2610, 1,0.00118724, 0.000379156, 0.000266274, 72.8918, 23.2528, 0.00223881, 135.619, -39.675, 0, 0.00104557, 0.00156519, 0.00110062, 96.04, -29.3413, 0, 0.00104539, 0.000810416, 0.000571593, 49.8415, -15.2827, 0, 0.00104515, 0.26241, -7.71377, 95.4751, 0.393143, -3.53122, 48.9861, -0.000453781, -0.000627303, 0.00155722, -0.000229576, -0.000229576, -0.000229576
2611, 1,0.00114996, 0.000331453, 0.000235036, 69.7988, 20.2901, 0.00226868, 137.64, -40.8736, 0, 0.0010116, 0.00147952, 0.0010462, 89.9063, -27.3462, 0, 0.00101137, 0.000821911, 0.00058135, 49.8431, -15.3495, 0, 0.00101118, 0.28206, -7.66859, 89.4251, 0.377085, -3.18767, 48.859, -0.000421503, -0.000609372, 0.00147457, -0.000230438, -0.000230438, -0.000230438
2612, 1,0.00119745, 0.000309022, 0.000230541, 70.2461, 18.4805, 0.0025618, 153.188, -43.7536, 0, 0.000977708, 0.00150267, 0.00110562, 88.3721, -24.9307, 0, 0.00097741, 0.000894903, 0.000654722, 52.3822, -15.1245, 0, 0.000977254, 0.0427856, -13.6122, 88.3615, 0.0948307, -6.74735, 52.0261, -0.000390119, -0.000703206, 0.00149776, -0.000234379, -0.000234379, -0.000234379
2613, 1,0.00141796, 0.000483793, 0.000340955, 86.928, 29.5751, 0.00291765, 172.843, -46.4159, 0, 0.00107946, 0.00190071, 0.0013455, 116.427, -34.9938, 0, 0.00107926, 0.000936286, 0.000666745, 57.5063, -17.1291, 0, 0.00107895, 0.227794, -11.3889, 116.143, 0.297901, -5.90794, 56.9973, -0.000545317, -0.000782825, 0.00189605, -0.000262574, -0.000262574, -0.000262574
2614, 1,0.00130151, 0.000416128, 0.000288932, 80.3008, 25.6664, 0.00254954, 151.976, -41.9762, 0, 0.00104541, 0.00171641, 0.00119323, 105.861, -33.2086, 0, 0.00104526, 0.000887752, 0.000618929, 54.8406, -17.3676, 0, 0.001045, 0.590679, -5.80748, 104.843, 0.72255, -2.22405, 53.6044, -0.000507839, -0.000653772, 0.0017005, -0.000255536, -0.000255536, -0.000255536
2615, 1,0.00126087, 0.000365315, 0.000255564, 76.9804, 22.5107, 0.00255506, 152.585, -42.6644, 0, 0.00101148, 0.00162451, 0.00113458, 99.3212, -30.9898, 0, 0.00101129, 0.000898581, 0.000628119, 54.7825, -17.3352, 0, 0.00101107, 0.433946, -5.94701, 98.4825, 0.535419, -2.009, 53.4793, -0.000475826, -0.000635929, 0.00161458, -0.000258499, -0.000258499, -0.000258499
2616, 1,0.00130254, 0.000336992, 0.000246492, 77.2543, 20.3714, 0.00291968, 173.204, -47.7926, 0, 0.000977641, 0.00163614, 0.00118486, 97.2908, -28.4778, 0, 0.000977335, 0.000971308, 0.00070096, 57.4652, -17.172, 0, 0.000977156, 0.288247, -12.1179, 97.2631, 0.336068, -5.72707, 56.9071, -0.000440864, -0.000731664, 0.00163452, -0.000261582, -0.000261582, -0.000261582
2617, 1,0.00156337, 0.000520064, 0.00036256, 96.1993, 31.9949, 0.00385385, 231.674, -66.1398, 0, 0.00107962, 0.0020826, 0.00146338, 128.122, -39.377, 0, 0.00107915, 0.00104497, 0.0007407, 64.3471, -19.6762, 0, 0.00107881, 0.833288, -10.3088, 127.607, 0.902564, -5.52799, 63.6539, -0.000601501, -0.00083397, 0.0020745, -0.000289872, -0.000289872, -0.000289872
2618, 1,0.00141439, 0.000452622, 0.000311274, 87.1181, 28.0555, 0.00327478, 196.734, -56.1294, 0, 0.0010455, 0.00186588, 0.00128879, 115.072, -36.517, 0, 0.00104517, 0.000963941, 0.000669354, 59.2603, -18.9176, 0, 0.00104487, 0.525704, -4.56493, 113.59, 0.667801, -1.61472, 57.6997, -0.000561482, -0.000687965, 0.00184201, -0.000281271, -0.000281271, -0.000281271
2619, 1,0.00136427, 0.000399803, 0.000276733, 83.2364, 24.7667, 0.0032229, 192.802, -54.1923, 0, 0.00101154, 0.00176268, 0.00122293, 107.845, -34.053, 0, 0.00101121, 0.000967016, 0.000673406, 58.7634, -18.7382, 0, 0.00101096, 0.327738, -4.78172, 106.613, 0.43468, -1.37596, 57.1559, -0.000526547, -0.000668102, 0.00174717, -0.000282943, -0.000282943, -0.000282943
2620, 1,0.00142144, 0.000366278, 0.000263593, 84.7653, 22.3387, 0.00370412, 220.552, -61.5053, 0, 0.000977746, 0.0017849, 0.00127709, 106.795, -32.0125, 0, 0.000977279, 0.00105993, 0.000757443, 62.9614, -19.1883, 0, 0.000977075, 0.304786, -10.9576, 106.69, 0.349006, -5.0323, 62.2482, -0.000496398, -0.000768664, 0.00178441, -0.000293266, -0.000293266, -0.000293266
2621, 1,0.00169854, 0.000556737, 0.000384356, 105.446, 34.4341, 0.0051824, 322.025, -103.187, 0, 0.00108004, 0.00225495, 0.00156869, 139.834, -44.2576, 0, 0.00107901, 0.00114245, 0.000801133, 71.1025, -22.7396, 0, 0.00107863, 1.93722, -8.32689, 139.162, 2.07595, -4.25975, 70.4026, -0.000654914, -0.000872113, 0.00224524, -0.000313219, -0.000313219, -0.000313219
2622, 1,0.0015084, 0.000488685, 0.000333387, 93.3827, 30.4088, 0.00445741, 270.171, -79.7504, 0, 0.00104567, 0.00199624, 0.00136016, 123.706, -40.3059, 0, 0.001045, 0.00102136, 0.000696129, 63.1446, -21.0093, 0, 0.00104467, 0.577352, -1.44258, 121.783, 0.784612, 0.866928, 61.3763, -0.00062012, -0.000691331, 0.00196549, -0.000311805, -0.000311805, -0.000311805
2623, 1,0.00147076, 0.00043432, 0.000298081, 89.8639, 27.0388, 0.00443217, 267.631, -77.9013, 0, 0.00101173, 0.00190407, 0.00130771, 116.761, -37.5268, 0, 0.00101107, 0.00103829, 0.000715413, 63.0914, -20.5378, 0, 0.00101079, -0.167688, -2.43899, 115.187, -0.0716427, 0.401177, 61.2839, -0.000592073, -0.000683473, 0.00188443, -0.000322321, -0.000322321, -0.000322321
2624, 1,0.00154495, 0.000396337, 0.000281135, 92.9416, 24.3713, 0.00499074, 306.337, -95.1169, 0, 0.000978118, 0.00193953, 0.00137531, 117.068, -36.2926, 0, 0.000977185, 0.00115157, 0.000817674, 68.9945, -21.9011, 0, 0.000976956, 1.4685, -9.52556, 116.935, 1.49831, -4.13427, 68.3392, -0.000539548, -0.000810766, 0.0019391, -0.000312029, -0.000312029, -0.000312029
2625, 1,0.0019067, 0.000602393, 0.000412928, 114.879, 37.4175, 0.00704115, 407.357, -99.8334, 0, 0.00107984, 0.00250842, 0.00177076, 152.208, -45.0382, 0, 0.00107888, 0.00130555, 0.00094758, 77.6277, -21.4311, 0, 0.00107847, -2.71033, -13.0732, 150.898, -2.49099, -9.4651, 76.2493, -0.000764928, -0.000993953, 0.00248975, -0.000388671, -0.000388671, -0.000388671
2626, 1,0.00167143, 0.000532921, 0.000362742, 97.3236, 33.2038, 0.0064491, 355.704, -68.2412, 0, 0.00104532, 0.00220065, 0.00153284, 130.232, -36.6423, 0, 0.00104479, 0.00114546, 0.000818523, 64.6853, -15.5439, 0, 0.00104443, -8.08186, -8.08617, 126.095, -7.768, -5.87798, 60.2776, -0.000745452, -0.000791809, 0.00213184, -0.00040652, -0.00040652, -0.00040652
2627, 1,0.00155977, 0.000473546, 0.000323723, 92.2885, 29.5465, 0.00636296, 358.016, -76.7137, 0, 0.00101156, 0.00203073, 0.00141197, 121.549, -36.4195, 0, 0.0010109, 0.00109101, 0.000772058, 63.2832, -17.7558, 0, 0.00101059, -4.01815, -5.25224, 118.529, -3.8775, -2.58967, 59.7346, -0.000656909, -0.000741426, 0.00198924, -0.000359829, -0.000359829, -0.000359829
2628, 1,0.00168974, 0.000430612, 0.000302609, 100.143, 26.6215, 0.00672716, 397.823, -107.775, 0, 0.000978198, 0.00211875, 0.00150965, 126.506, -37.8933, 0, 0.00097709, 0.00126179, 0.000908713, 73.9638, -21.9016, 0, 0.000976837, -0.333778, -12.2635, 126.277, -0.314644, -7.1265, 73.1459, -0.000603599, -0.000900356, 0.00211871, -0.0003511, -0.0003511, -0.0003511
2629, 1,0.00219495, 0.000659255, 0.000450941, 132.766, 41.1069, 0.0158313, 465.604, -149.003, 0.164645, 0.00108086, 0.00285282, 0.00198164, 173.603, -52.4344, 0, 0.0010789, 0.00153825, 0.00108516, 92.1623, -26.6834, 0, 0.00107845, -4.63214, -8.26655, 170.202, -4.06561, -4.25507, 88.3709, -0.000919156, -0.00104336, 0.00281338, -0.000501955, -0.000501955, -0.000501955
2630, 1,0.00208544, 0.000570501, 0.000384961, 120.257, 35.6925, 0.0142453, 457.585, -137.224, 0.133117, 0.00104657, 0.00265458, 0.00184677, 155.72, -44.237, 0, 0.00104481, 0.00151727, 0.00108062, 84.9709, -21.6507, 0, 0.00104442, -10.1312, -7.90481, 150.747, -9.14429, -6.04728, 80.1436, -0.00090824, -0.000961098, 0.00258714, -0.0005317, -0.0005317, -0.0005317
2631, 1,0.00192724, 0.00051103, 0.000347962, 109.162, 31.9654, 0.0132471, 451.399, -128.365, 0.11339, 0.00101247, 0.00243435, 0.00169878, 140.656, -38.2216, 0, 0.00101085, 0.00142281, 0.00101207, 78.0176, -18.1583, 0, 0.00101052, -12.2282, -8.77776, 135.671, -11.6526, -5.99683, 72.1244, -0.000860435, -0.000891549, 0.00237213, -0.000532155, -0.000532155, -0.000532155
2632, 1,0.00181852, 0.000472504, 0.000331021, 105.977, 29.3183, 0.0127595, 457.544, -138.613, 0.104174, 0.000978765, 0.00228703, 0.00166025, 134.764, -39.3249, 0, 0.000977054, 0.00135268, 0.00100778, 77.566, -21.7025, 0, 0.000976774, 0.269298, -16.131, 133.836, 0.366544, -10.5438, 75.2847, -0.000614213, -0.00103205, 0.00228426, -0.00033441, -0.00033441, -0.00033441
2633, 1,0.00273597, 0.000742982, 0.00050714, 167.343, 46.3805, 0.0276466, 493.687, -187.193, 0.392764, 0.00108219, 0.0034764, 0.00237136, 213.17, -66.0545, 0, 0.00107914, 0.00199747, 0.00137681, 121.95, -37.4576, 0, 0.00107864, -9.10818, 0.582283, 206.689, -7.44307, 5.25481, 114.561, -0.00122548, -0.00111406, 0.00341138, -0.00074028, -0.00074028, -0.00074028
2634, 1,0.00248952, 0.000625927, 0.00042576, 146.091, 39.0759, 0.0265935, 508.216, -212.651, 0.375239, 0.00104867, 0.00311444, 0.00213186, 184.816, -55.4731, 0, 0.00104505, 0.00186528, 0.00128323, 107.622, -31.6158, 0, 0.00104464, -11.9781, 2.01274, 176.385, -8.98351, 4.20441, 99.6266, -0.00112463, -0.000998415, 0.00302312, -0.000685662, -0.000685662, -0.000685662
2635, 1,0.0022652, 0.000552988, 0.000376571, 130.232, 34.586, 0.0250559, 500.007, -200.265, 0.345483, 0.00101432, 0.00281616, 0.00196627, 164.241, -47.448, 0, 0.00101103, 0.00171554, 0.00121859, 96.6295, -26.3909, 0, 0.00101068, -13.8137, -0.278729, 156.436, -11.7437, 2.87886, 88.0376, -0.00103953, -0.000931685, 0.00274103, -0.000664091, -0.000664091, -0.000664091
2636, 1,0.00232164, 0.00052012, 0.00036333, 133.076, 32.3646, 0.0233959, 482.231, -171.138, 0.311252, 0.000979741, 0.00283636, 0.00201859, 164.67, -47.1123, 0, 0.000977201, 0.00180998, 0.00130254, 101.96, -27.8915, 0, 0.000976896, -6.21279, -15.4628, 163.013, -5.6335, -9.07067, 98.3786, -0.000872737, -0.00119342, 0.00283048, -0.000557675, -0.000557675, -0.000557675
2637, 1,0.00334635, 0.000878527, 0.000595593, 209.515, 55.1881, 0.0329787, 478.596, -159.279, 0.490245, 0.00108189, 0.00422303, 0.00291424, 264.14, -85.9221, 0, 0.00107955, 0.00247103, 0.0017278, 155.313, -51.0718, 0, 0.00107894, -10.2055, 11.9661, 256.006, -7.47255, 14.1456, 146.542, -0.00156131, -0.00118498, 0.00414048, -0.000954843, -0.000954843, -0.000954843
2638, 1,0.0029906, 0.000735174, 0.000506993, 182.952, 45.6946, 0.0325013, 482.092, -166.089, 0.482463, 0.00104802, 0.00372483, 0.00259996, 228.121, -71.0312, 0, 0.00104537, 0.002257, 0.00158971, 138.154, -43.6241, 0, 0.00104491, -16.8345, 16.769, 213.159, -11.142, 17.6447, 124.369, -0.0014731, -0.000925621, 0.00355124, -0.00092108, -0.00092108, -0.00092108
2639, 1,0.00282333, 0.000637477, 0.000438392, 170.893, 39.5537, 0.0321167, 487.198, -174.71, 0.475887, 0.00101425, 0.00345803, 0.00246811, 209.623, -64.1125, 0, 0.00101139, 0.00219031, 0.00159578, 132.688, -40.8777, 0, 0.00101101, -17.9944, 14.6896, 195.642, -13.1337, 17.6698, 118.097, -0.00138853, -0.000882692, 0.0033114, -0.000919771, -0.000919771, -0.000919771
2640, 1,0.00298562, 0.000594289, 0.000412779, 178.904, 36.8938, 0.0309644, 485.709, -172.027, 0.453489, 0.000980205, 0.00357537, 0.00247765, 215.032, -68.5519, 0, 0.000977635, 0.0023982, 0.00167321, 143.212, -46.8704, 0, 0.000977291, -6.05246, -1.48761, 213.196, -4.423, 5.53966, 139.495, -0.0012024, -0.00125425, 0.00356883, -0.000826457, -0.000826457, -0.000826457
2641, 1,0.00394797, 0.00106021, 0.00072398, 252.324, 66.6005, 0.0338554, 477.936, -157.836, 0.506128, 0.0010815, 0.00500535, 0.00346741, 318.328, -108.154, 0, 0.00107954, 0.00289278, 0.00202411, 186.781, -65.4811, 0, 0.00107879, -10.1906, 25.6837, 308.969, -5.33382, 24.8394, 176.938, -0.00191241, -0.00122662, 0.00489401, -0.00113764, -0.00113764, -0.00113764
2642, 1,0.00375947, 0.000920744, 0.0006472, 230.842, 56.8345, 0.0335963, 475.446, -153.601, 0.500694, 0.00104722, 0.00467885, 0.00340965, 287.16, -87.0312, 0, 0.00104508, 0.00284103, 0.00211712, 174.886, -53.0589, 0, 0.0010445, -36.3904, 30.4879, 266.996, -26.3634, 28.1463, 157.394, -0.00213925, -0.000853268, 0.00440467, -0.00139201, -0.00139201, -0.00139201
2643, 1,0.00377207, 0.00079945, 0.000560735, 231.309, 49.5677, 0.0335926, 474.648, -152.222, 0.500405, 0.00101338, 0.00456791, 0.00331401, 280.101, -85.3253, 0, 0.00101131, 0.00297824, 0.0021989, 182.958, -55.632, 0, 0.00101082, -31.3201, 26.6985, 260.597, -23.2527, 26.0843, 164.064, -0.00200355, -0.000929441, 0.00431738, -0.00136512, -0.00136512, -0.00136512
2644, 1,0.00391242, 0.000720949, 0.00049016, 238.539, 44.9406, 0.0329748, 478.927, -159.365, 0.489307, 0.000980012, 0.0046276, 0.00320391, 282.692, -91.4153, 0, 0.000977981, 0.00319994, 0.00223428, 194.779, -64.097, 0, 0.000977548, -10.7113, 4.44876, 280.508, -7.76258, 9.31766, 190.736, -0.00165916, -0.00147154, 0.00461383, -0.00116647, -0.00116647, -0.00116647
2645, 1,0.00594572, 0.0012795, 0.000883583, 307.933, 78.9101, 0.0341646, 479.619, -162.299, 0.512317, 0.00108139, 0.00722015, 0.00522656, 386.443, -123.263, 0.0204149, 0.00107959, 0.00467402, 0.0034712, 229.693, -70.1119, 0.0195583, 0.00107865, -32.5256, 22.3196, 379.994, -27.2499, 14.7296, 222.856, -0.00320788, -0.00189274, 0.0071236, -0.00223903, -0.00223903, -0.00223903
2646, 1,0.00529784, 0.00119043, 0.00084916, 290.957, 71.6016, 0.0337493, 482.428, -164.708, 0.503611, 0.00104702, 0.00647849, 0.00481661, 361.653, -103.476, 0.010228, 0.00104489, 0.00412297, 0.00313602, 220.836, -59.338, 0.00921824, 0.00104414, -57.5655, 32.1565, 335.836, -44.1906, 25.4917, 196.713, -0.00315376, -0.00119743, 0.0060397, -0.0021467, -0.0021467, -0.0021467
2647, 1,0.00500862, 0.00103425, 0.000741135, 298.566, 64.0237, 0.0337168, 477.394, -156.316, 0.502418, 0.00101308, 0.00603779, 0.0044869, 361.838, -100.839, 0, 0.00101117, 0.00398213, 0.00301152, 235.694, -61.8647, 0, 0.00101053, -62.3313, 25.5558, 339.292, -49.2423, 20.5935, 214.243, -0.00290319, -0.00116729, 0.00570656, -0.00201221, -0.00201221, -0.00201221
2648, 1,0.00494425, 0.000879397, 0.000606388, 305.698, 55.5408, 0.0327194, 476.312, -155.479, 0.484208, 0.000979955, 0.00581877, 0.00407642, 360.635, -120.042, 0, 0.000978478, 0.00407191, 0.00287488, 251.042, -84.0899, 0, 0.000977907, -17.2848, 18.2105, 359.2, -12.5969, 16.5096, 248.357, -0.00224892, -0.00160543, 0.00580201, -0.00158339, -0.00158339, -0.00158339
2649, 1,0.00932514, 0.00152862, 0.00105884, 347.817, 91.9409, 0.0317835, 467.447, -159.237, 0.473497, 0.00108131, 0.0108336, 0.00782612, 439.389, -153.305, 0.0799438, 0.00108033, 0.00782397, 0.00574913, 256.508, -90.1015, 0.0799438, 0.00107917, -3.87148, 29.5459, 434.24, 0.0430793, 19.377, 250.885, -0.00462536, -0.00347726, 0.0107062, -0.00346581, -0.00346581, -0.00346581
2650, 1,0.00922462, 0.00151823, 0.00107746, 344.343, 88.8784, 0.0329298, 484.017, -168.143, 0.488543, 0.00104743, 0.0107021, 0.00773964, 432.491, -145.896, 0.0780947, 0.0010461, 0.00776174, 0.0056376, 256.701, -87.7842, 0.0780947, 0.00104506, -14.987, 41.6727, 411.003, -4.30271, 30.7064, 236.949, -0.00474517, -0.00288256, 0.0101027, -0.00349589, -0.00349589, -0.00349589
2651, 1,0.00805682, 0.00134566, 0.000968007, 364.621, 80.652, 0.0332277, 483.553, -166.723, 0.493773, 0.00101386, 0.00937462, 0.00685064, 444.313, -136.686, 0.0432195, 0.00101238, 0.00674924, 0.00495846, 285.438, -85.4938, 0.0432195, 0.00101152, -41.768, 28.9594, 422.868, -27.1076, 19.7105, 263.878, -0.0042542, -0.00237778, 0.0089045, -0.00307765, -0.00307765, -0.00307765
2652, 1,0.00623267, 0.00108688, 0.000769886, 367.543, 68.3734, 0.0318489, 476.233, -157.561, 0.468833, 0.000980469, 0.00729993, 0.00516293, 434.485, -124.11, 0, 0.00097905, 0.00517337, 0.00365826, 301.186, -79.82, 0, 0.000978346, -47.6064, -10.4831, 430.419, -37.9447, -17.0419, 294.447, -0.00295318, -0.00226136, 0.0072282, -0.00205106, -0.00205106, -0.00205106
2653, 1,0.0135591, 0.00182814, 0.00125548, 373.417, 104.233, 0.0301589, 426.693, -131.157, 0.454286, 0.00108154, 0.0153497, 0.0111518, 477.396, -181.987, 0.161866, 0.00108197, 0.0117786, 0.00876315, 269.645, -108.469, 0.161866, 0.00108055, 34.5425, 39.0761, 472.343, 30.9926, 29.7367, 264.677, -0.00604982, -0.00586236, 0.0151583, -0.00471816, -0.00471816, -0.00471816
2654, 1,0.0145068, 0.00190047, 0.00131728, 380.527, 104.969, 0.0312514, 455.82, -143.721, 0.464048, 0.00104771, 0.0163393, 0.0118261, 485.134, -194.562, 0.18224, 0.00104809, 0.0126911, 0.00952286, 276.217, -119.924, 0.18224, 0.00104668, 63.6117, 48.15, 471.925, 55.2806, 39.5886, 264.901, -0.00568054, -0.00655356, 0.0157485, -0.00424619, -0.00424619, -0.00424619
2655, 1,0.0140675, 0.00175512, 0.00122055, 390.199, 97.0401, 0.0322346, 474.116, -155.553, 0.476281, 0.00101451, 0.0157474, 0.0112531, 486.766, -196.586, 0.170242, 0.0010146, 0.0124054, 0.00913998, 293.971, -128.082, 0.170242, 0.00101335, 59.2056, 56.1887, 474.363, 55.0256, 46.8826, 282.337, -0.00573695, -0.00596534, 0.0152269, -0.00437644, -0.00437644, -0.00437644
2656, 1,0.0127606, 0.00144912, 0.00101485, 403.503, 78.9572, 0.0320558, 476.78, -160.513, 0.474164, 0.000981706, 0.0140919, 0.0101183, 481.332, -187.917, 0.136433, 0.00098147, 0.0114553, 0.00835934, 326.254, -133.17, 0.136433, 0.000980526, 41.0138, 48.1656, 474.571, 41.3091, 41.3383, 316.863, -0.00538464, -0.00515693, 0.013842, -0.0042859, -0.0042859, -0.0042859
2657, 1,0.0151922, 0.00190905, 0.00130813, 373.867, 108.578, 0.0313344, 410.189, -122.269, 0.48479, 0.00111121, 0.0170848, 0.0126145, 482.364, -190.61, 0.196213, 0.00111205, 0.0133035, 0.0101087, 265.439, -111.911, 0.196213, 0.00111045, 58.7441, 39.3052, 473.78, 46.0768, 30.2732, 259.383, -0.00602623, -0.00716421, 0.0166637, -0.0047183, -0.0047183, -0.0047183
2658, 1,0.0172659, 0.00202067, 0.00137285, 378.688, 110.372, 0.0332148, 415.298, -115.434, 0.516013, 0.00107623, 0.0192526, 0.0146266, 488.947, -204.121, 0.241782, 0.00107752, 0.0152863, 0.0120921, 268.53, -121.476, 0.241782, 0.00107585, 95.2104, 33.3928, 483.759, 71.0361, 29.0383, 264.355, -0.00559111, -0.0095512, 0.0189711, -0.00421721, -0.00421721, -0.00421721
2659, 1,0.0171793, 0.00191452, 0.00130048, 408.149, 104.508, 0.0327969, 451.697, -138.122, 0.494417, 0.00104222, 0.0190341, 0.0139623, 512.471, -240.946, 0.238428, 0.0010437, 0.0153371, 0.0116057, 303.991, -161.811, 0.238428, 0.00104215, 126.225, 89.8785, 506.734, 106.07, 80.4161, 298.947, -0.00590173, -0.00830382, 0.0187154, -0.00460681, -0.00460681, -0.00460681
2660, 1,0.0145222, 0.00150935, 0.0010458, 400.122, 83.835, 0.0315314, 455.89, -132.228, 0.466454, 0.00100795, 0.0159518, 0.0117366, 483.424, -192.439, 0.17421, 0.00100851, 0.0131082, 0.00982001, 317.115, -131.045, 0.17421, 0.0010074, 49.8062, 53.4623, 474.048, 43.28, 42.6376, 307.218, -0.00608939, -0.0059952, 0.0155436, -0.0050199, -0.0050199, -0.0050199
2661, 1,0.0120278, -0.00457847, 0.00312202, -5.16061, -186.369, 0.0319264, -28.8784, 304.709, 0.941661, 0.00103603, 0.0136735, 0.0217099, -8.54207, 276.609, 0.334492, 0.00104112, 0.0103888, 0.015509, -1.64358, 141.963, 0.29467, 0.001044, -62.5657, -36.6644, -730.597, -37.6571, -19.7238, -368.509, 0.010545, 0.0121922, -0.0282559, 0.00748431, 0.00748431, 0.00748431
2662, 1,0.012495, -0.00419512, 0.00286237, -12.8375, -195.031, 0.0343035, -29.6766, 344.133, 0.904827, 0.00100508, 0.0140071, 0.0210467, -16.2909, 323.627, 0.294291, 0.00101011, 0.010989, 0.0153615, -9.25078, 175.093, 0.270015, 0.00101308, -134.644, -47.0507, -789.185, -85.6959, -29.0065, -410.577, 0.0077943, 0.0125431, -0.0266208, 0.0053976, 0.0053976, 0.0053976
2663, 1,0.0119858, -0.00398173, 0.00270104, -10.538, -195.673, 0.0326512, -26.6294, 344.109, 0.84952, 0.000972835, 0.0133887, 0.0201109, -14.3805, 323.294, 0.2723, 0.000977157, 0.0105893, 0.0147518, -6.55113, 173.335, 0.254623, 0.00098, -131.251, -51.7276, -786.903, -82.0893, -30.6864, -407.23, 0.00753827, 0.0116607, -0.025385, 0.00529383, 0.00529383, 0.00529383
2664, 1,0.0108546, -0.00396955, 0.00268499, -5.69917, -184.905, 0.0279602, -27.9127, 307.519, 0.808001, 0.000938912, 0.0122461, 0.0194245, -8.16451, 281.391, 0.277156, 0.000942381, 0.00946562, 0.0140734, -3.16899, 147.617, 0.254385, 0.000944842, -67.959, -36.4454, -739.769, -42.3574, -20.9844, -379.508, 0.00917061, 0.0109065, -0.0254787, 0.00664026, 0.00664026, 0.00664026
2665, 1,0.00966768, -0.00379654, 0.00260126, 0.406649, -171.404, 0.0283932, -1.09353, 255.629, 0.870994, 0.00108271, 0.010989, 0.0183879, 1.44782, 239.419, 0.27395, 0.00108649, 0.00836001, 0.0133131, -0.355458, 125.389, 0.252146, 0.00108891, -13.716, -31.5836, -672.959, -10.1824, -24.054, -341.93, 0.0102022, 0.00946479, -0.0242529, 0.00764148, 0.00764148, 0.00764148
2666, 1,0.00929872, -0.00344853, 0.00233821, 15.823, -173.636, 0.0266335, 4.92805, 263.873, 0.768541, 0.00104992, 0.0105063, 0.0163589, 19.8805, 254.469, 0.205583, 0.0010529, 0.00809562, 0.0117195, 11.9112, 136.322, 0.192394, 0.0010552, -60.3359, -6.06253, -697.009, -44.3092, -5.07239, -359.583, 0.00697225, 0.00952986, -0.0211663, 0.00469952, 0.00469952, 0.00469952
2667, 1,0.0087061, -0.00329763, 0.00222538, 11.7621, -172.935, 0.0247813, 2.17509, 266.077, 0.712257, 0.00101611, 0.00984452, 0.0155732, 15.3125, 256.098, 0.188227, 0.00101868, 0.00757114, 0.011151, 8.33445, 138.44, 0.179031, 0.00102087, -53.9378, -16.18, -698.175, -40.0581, -12.5389, -362.722, 0.00693502, 0.00868374, -0.0202621, 0.00479184, 0.00479184, 0.00479184
2668, 1,0.00837964, -0.00336269, 0.00228392, 2.37855, -168.628, 0.0234357, -1.12017, 255.298, 0.706461, 0.000981371, 0.00955399, 0.0161536, 4.60476, 235.228, 0.219687, 0.000983817, 0.00721256, 0.0116404, 0.33391, 124.002, 0.208369, 0.000985858, -8.05081, -31.4602, -666.174, -7.09823, -23.6924, -341.215, 0.00897356, 0.00806956, -0.0213934, 0.00673274, 0.00673274, 0.00673274
2669, 1,0.00606272, -0.00294429, 0.00200444, 12.6761, -164.316, 0.0233751, -2.36063, 253.515, 0.713322, 0.00108201, 0.00709282, 0.0121144, 17.7032, 226.698, 0.117803, 0.00108515, 0.00504045, 0.00815365, 7.95068, 121.009, 0.113078, 0.00108715, -13.768, -27.7856, -638.54, -14.6533, -20.5344, -327.84, 0.00602167, 0.00576086, -0.0157197, 0.00403456, 0.00403456, 0.00403456
2670, 1,0.0060189, -0.00276571, 0.00187915, 16.7998, -158.746, 0.0229868, 9.21396, 245.976, 0.680703, 0.00104838, 0.00691856, 0.0119298, 21.1362, 214.291, 0.118139, 0.00105123, 0.00512073, 0.00827128, 12.5713, 114.12, 0.117315, 0.00105306, 0.982998, -14.2885, -629.567, -6.22666, -9.67411, -326.461, 0.00621681, 0.00588637, -0.0158256, 0.0042452, 0.0042452, 0.0042452
2671, 1,0.00578014, -0.00270992, 0.001843, 13.3272, -155.383, 0.0220528, 7.65585, 249.109, 0.646034, 0.00101444, 0.00665925, 0.0115583, 17.2022, 216.585, 0.110585, 0.00101705, 0.00490263, 0.00797933, 9.56159, 118.211, 0.109201, 0.00101879, 1.09236, -25.4596, -625.389, -6.51803, -18.7351, -329.379, 0.00612299, 0.00541595, -0.0152844, 0.00419524, 0.00419524, 0.00419524
2672, 1,0.0057632, -0.0027352, 0.00185528, 24.5698, -158.151, 0.0208835, 5.78553, 244.927, 0.620917, 0.000980567, 0.00671187, 0.0112871, 30.1001, 212.923, 0.100069, 0.000982945, 0.00482172, 0.00762293, 19.3565, 111.535, 0.0987647, 0.00098466, -7.48017, -23.6769, -607.612, -8.17788, -15.9456, -310.481, 0.00548975, 0.00517538, -0.0143243, 0.00367354, 0.00367354, 0.00367354
2673, 1,0.00439669, -0.00254416, 0.00171466, 13.9217, -152.97, 0.0212585, -1.94707, 249.896, 0.647523, 0.00108115, 0.00526894, 0.00954297, 17.5294, 210.946, 0.0619844, 0.00108418, 0.00352925, 0.00613754, 10.5535, 112.966, 0.0619844, 0.00108597, 10.3341, -51.0677, -592.104, 6.05118, -35.1521, -309.797, 0.0050835, 0.00359421, -0.0122231, 0.00339328, 0.00339328, 0.00339328
2674, 1,0.00394645, -0.00240418, 0.00163662, 13.9087, -144.121, 0.0208416, 3.61954, 254.308, 0.604173, 0.00104696, 0.00481546, 0.00877631, 19.0844, 200.632, 0.0490745, 0.00104998, 0.00307759, 0.00550345, 8.74713, 109.389, 0.0480863, 0.00105158, 17.6128, -35.416, -584.094, 7.89035, -22.2148, -313.842, 0.00477885, 0.00356618, -0.0116921, 0.00305436, 0.00305436, 0.00305436
2675, 1,0.00390355, -0.00235879, 0.00160993, 18.9884, -140.901, 0.020267, 4.04902, 253.039, 0.585863, 0.00101306, 0.00476387, 0.00857657, 24.4233, 193.72, 0.0461612, 0.00101598, 0.00304424, 0.00535879, 13.5754, 104.466, 0.0447312, 0.00101749, 22.1553, -34.752, -568.562, 12.6241, -21.2698, -304.754, 0.00469509, 0.00338725, -0.0113087, 0.00300317, 0.00300317, 0.00300317
2676, 1,0.0039702, -0.00239324, 0.00161673, 17.8844, -142.926, 0.0192482, -1.64667, 247.495, 0.580207, 0.000979266, 0.00479256, 0.00861961, 20.7516, 200.033, 0.0463605, 0.000981823, 0.00315502, 0.0054226, 15.3672, 107.691, 0.0447063, 0.000983336, 15.2213, -59.2254, -556.093, 11.283, -41.0061, -293.349, 0.00464671, 0.00288596, -0.0108646, 0.00303779, 0.00303779, 0.00303779
2677, 1,0.00347007, -0.00225422, 0.00151457, 22.9573, -139.542, 0.0196608, -5.12536, 252.467, 0.59394, 0.00108055, 0.00424069, 0.00772655, 25.5623, 194.724, 0.0244483, 0.00108371, 0.00270069, 0.00470661, 20.4954, 104.19, 0.0244483, 0.00108533, 18.4169, -61.5564, -541.034, 15.7833, -41.1697, -287.183, 0.004079, 0.00241624, -0.00969855, 0.00258451, 0.00258451, 0.00258451
2678, 1,0.00312707, -0.0021519, 0.00146206, 23.6181, -131.918, 0.0198676, 2.22522, 265.086, 0.550399, 0.00104622, 0.00389619, 0.00711821, 27.6766, 186.815, 0.0139974, 0.00104953, 0.0023599, 0.00420156, 19.6448, 102.354, 0.0128693, 0.00105098, 24.3289, -48.891, -535.883, 16.6492, -31.572, -292.14, 0.00382192, 0.00237847, -0.00925553, 0.00229061, 0.00229061, 0.00229061
2679, 1,0.00298852, -0.00210669, 0.00143375, 28.2577, -128.857, 0.0191364, 1.03702, 266.338, 0.525983, 0.00101229, 0.00374375, 0.00680269, 32.2685, 178.628, 0.00932498, 0.00101554, 0.00223706, 0.00394966, 24.4825, 96.2851, 0.00788914, 0.00101691, 29.9383, -49.3826, -516.44, 22.5377, -32.8774, -278.516, 0.00369022, 0.00214783, -0.00875166, 0.00219535, 0.00219535, 0.00219535
2680, 1,0.00304632, -0.00210298, 0.00141896, 30.9113, -128.955, 0.0176125, -5.6902, 250.934, 0.523969, 0.000978854, 0.00377632, 0.00681704, 33.3476, 177.291, 0.0101723, 0.000981658, 0.00231796, 0.00398936, 28.6556, 93.6142, 0.00863721, 0.000983001, 24.976, -56.2558, -500.592, 22.531, -37.3266, -266.047, 0.00357908, 0.00199993, -0.00847225, 0.0021678, 0.0021678, 0.0021678
2681, 1,0.00248452, -0.00202262, 0.00135654, 4.9781, -127.573, 0.017452, -1.86728, 256.15, 0.495979, 0.00108062, 0.00316691, 0.00614373, 6.6001, 192.25, 0, 0.00108346, 0.00180492, 0.0034433, 3.78934, 109.099, 0, 0.00108492, -6.51663, -73.4509, -496.783, -8.4189, -52.2377, -266.641, 0.00289724, 0.00175707, -0.00777382, 0.00154758, 0.00154758, 0.00154758
2682, 1,0.00270303, -0.00194623, 0.00131726, 29.3198, -121.429, 0.0179027, -0.404653, 273.557, 0.473079, 0.00104612, 0.00339065, 0.00619573, 32.459, 169.78, 0.000980136, 0.00104955, 0.00201575, 0.00356375, 26.2036, 91.7046, 0.00050599, 0.00105088, 31.306, -54.8404, -485.807, 25.4902, -37.2561, -263.348, 0.00336732, 0.00177276, -0.0078965, 0.00200222, 0.00200222, 0.00200222
2683, 1,0.00255899, -0.00189611, 0.00128391, 26.8698, -118.652, 0.0173085, 1.4834, 273.36, 0.448717, 0.00101231, 0.00323025, 0.00595639, 30.2883, 163.712, 0.000116913, 0.00101561, 0.00188791, 0.00339214, 23.479, 87.8741, 1.81954E-05, 0.00101686, 29.216, -52.9896, -467.362, 22.9214, -36.5136, -250.03, 0.00320093, 0.00169714, -0.0075547, 0.00187098, 0.00187098, 0.00187098
2684, 1,0.00227541, -0.00186934, 0.00125739, 3.0397, -117.606, 0.0155672, -2.80273, 255.708, 0.430665, 0.000978865, 0.00291198, 0.00559871, 4.88073, 177.12, 0, 0.000981401, 0.00164355, 0.00310212, 1.79571, 100.845, 0, 0.000982617, -8.79805, -72.6359, -449.926, -11.2454, -53.4554, -237.834, 0.00260376, 0.00151396, -0.00699178, 0.00135089, 0.00135089, 0.00135089
2685, 1,0.00260378, -0.00185179, 0.00123888, 30.9015, -116.927, 0.0137997, -3.03304, 246.821, 0.382762, 0.00108119, 0.00322616, 0.00590713, 31.8558, 161.507, 0, 0.00108387, 0.00198165, 0.00343869, 29.9653, 85.08, 0, 0.00108521, 30.2583, -66.5459, -448.234, 29.0386, -46.4425, -237.836, 0.00319247, 0.00140209, -0.00721519, 0.0019631, 0.0019631, 0.0019631
2686, 1,0.00208911, -0.00178175, 0.00120016, 4.09975, -112.084, 0.0137778, 5.14402, 267.936, 0.328852, 0.00104694, 0.00270384, 0.00532612, 6.11691, 163.353, 0, 0.00104974, 0.00148273, 0.0029377, 2.65259, 90.8567, 0, 0.00105097, 3.70918, -60.5573, -433.212, -0.305925, -42.8171, -229.447, 0.00265782, 0.00150978, -0.00681823, 0.00143115, 0.00143115, 0.00143115
2687, 1,0.00208085, -0.0017379, 0.00117125, 6.76145, -109.222, 0.0130777, 3.89973, 266.88, 0.30855, 0.00101302, 0.00268148, 0.00520516, 8.91259, 157.406, 0, 0.00101573, 0.00148444, 0.00287555, 4.95844, 86.8643, 0, 0.0010169, 7.30855, -61.429, -418.096, 3.42881, -44.4968, -219.525, 0.00263426, 0.00139146, -0.00657986, 0.00144139, 0.00144139, 0.00144139
2688, 1,0.00237316, -0.00170736, 0.00114401, 30.7497, -107.631, 0.011807, -3.56301, 244.168, 0.312091, 0.000979489, 0.00294717, 0.0053194, 31.666, 143.901, 0, 0.000981904, 0.00179968, 0.00304481, 29.8657, 73.5845, 0, 0.000983025, 30.2779, -61.8596, -400.121, 28.9732, -43.1872, -206.539, 0.00290677, 0.00119362, -0.00643541, 0.00177192, 0.00177192, 0.00177192
2689, 1,0.00204937, -0.00170037, 0.00113497, 0.0101336, -107.286, 0.00870999, 9.78712, 236.621, 0.180389, 0.00108202, 0.00261486, 0.00506993, 0.797202, 163.557, 0, 0.00108377, 0.00148636, 0.00281035, -0.426953, 93.1517, 0, 0.00108501, -11.7335, -71.1816, -407.757, -12.3042, -51.3793, -215.771, 0.0023341, 0.00126368, -0.00625172, 0.00121316, 0.00121316, 0.00121316
2690, 1,0.00205686, -0.00164423, 0.00110145, 13.4216, -103.44, 0.00815106, 2.92985, 236.701, 0.169566, 0.00104779, 0.00261308, 0.00498254, 14.6628, 145.967, 0, 0.00104975, 0.00150117, 0.00278851, 12.2195, 78.6552, 0, 0.0010509, 12.5614, -57.1501, -393.314, 10.2969, -39.9975, -206.265, 0.00257127, 0.00125114, -0.00619093, 0.00146321, 0.00146321, 0.00146321
2691, 1,0.00192226, -0.00160175, 0.0010743, 11.7675, -100.666, 0.00750979, 2.804, 234.189, 0.147672, 0.00101367, 0.00246178, 0.00473772, 12.8288, 139.373, 0, 0.00101558, 0.0013844, 0.0026039, 10.7965, 73.9415, 0, 0.00101666, 12.2838, -55.7928, -374.61, 9.89649, -38.9514, -192.77, 0.00245613, 0.00116875, -0.00588642, 0.00137523, 0.00137523, 0.00137523
2692, 1,0.00183464, -0.00156871, 0.00104926, 0.565016, -98.7784, 0.00723925, 11.6936, 232.975, 0.125557, 0.000979771, 0.0023605, 0.00455138, 1.46547, 145.519, 0, 0.000981442, 0.00131199, 0.00246424, 0.0164935, 80.7449, 0, 0.000982474, -9.32025, -62.7894, -364.447, -10.0636, -44.3487, -187.822, 0.0020942, 0.00112536, -0.00558088, 0.00105846, 0.00105846, 0.00105846
2693, 1,0.00190968, -0.00156592, 0.00104566, 8.54177, -98.6693, 0.00524889, 30.5793, 213.722, 0.0458886, 0.00108233, 0.00242678, 0.00471235, 8.8377, 141.918, 0, 0.00108369, 0.00139281, 0.00263644, 8.25405, 77.0941, 0, 0.00108483, 7.55097, -63.494, -369.81, 7.39602, -44.5779, -194.1, 0.00239879, 0.00103039, -0.00573199, 0.00137447, 0.00137447, 0.00137447
2694, 1,0.00173555, -0.001513, 0.00101003, 2.06775, -95.1825, 0.0055743, 58.4181, 195.154, 0.0443575, 0.00104832, 0.00224081, 0.00442905, 2.79939, 138.288, 0, 0.00104937, 0.00123177, 0.00241721, 1.45586, 75.9854, 0, 0.00105043, 0.897709, -58.3045, -357.456, -0.288853, -41.0561, -186.611, 0.00220241, 0.00105862, -0.00550495, 0.00119601, 0.00119601, 0.00119601
2695, 1,0.00173011, -0.0014756, 0.000986533, 4.97337, -92.7492, 0.00542971, 65.3803, 189.441, 0.0368683, 0.00101435, 0.00222561, 0.00432403, 5.84577, 132.475, 0, 0.00101536, 0.00123599, 0.00236065, 4.20931, 71.8253, 0, 0.00101636, 3.83645, -56.6453, -344.616, 2.58697, -39.8574, -178.205, 0.00217025, 0.000997019, -0.0053169, 0.00118865, 0.00118865, 0.00118865
2696, 1,0.00165962, -0.00144826, 0.000968835, 6.41509, -91.0824, 0.00445783, 39.5975, 203.241, 0.0152589, 0.000980241, 0.00213829, 0.00417445, 6.70585, 126.242, 0, 0.000981494, 0.00118194, 0.00225631, 6.1562, 66.4334, 0, 0.000982447, 6.29257, -58.0345, -326.983, 5.98341, -40.1648, -165.119, 0.00212213, 0.000873972, -0.00504462, 0.00117371, 0.00117371, 0.00117371
2697, 1,0.00164917, -0.00143661, 0.000959998, -0.0523944, -90.5085, 0.00370308, 29.7053, 195.112, 0, 0.00108257, 0.00212733, 0.00421946, 0.547794, 134.011, 0, 0.00108365, 0.00117461, 0.00231406, -0.326392, 74.523, 0, 0.00108469, -4.37166, -63.4743, -334.187, -4.27125, -45.0932, -174.204, 0.00202057, 0.000886378, -0.00508145, 0.00108566, 0.00108566, 0.00108566
2698, 1,0.00161486, -0.00138995, 0.000927088, 4.62144, -87.4623, 0.0040746, 67.1859, 168.052, 0, 0.00104875, 0.00207492, 0.0040773, 5.01763, 124.558, 0, 0.00104949, 0.00115496, 0.002235, 4.23828, 67.1846, 0, 0.00105046, 3.99979, -55.3403, -322.334, 3.53036, -38.7109, -166.373, 0.00205122, 0.00089111, -0.00496347, 0.0011376, 0.0011376, 0.0011376
2699, 1,0.00154832, -0.00135471, 0.000905026, 3.93921, -85.1979, 0.00401074, 66.0413, 165.495, 0, 0.00101458, 0.00199836, 0.00392794, 4.38272, 120.304, 0, 0.00101532, 0.00109903, 0.00213149, 3.5328, 64.4214, 0, 0.00101624, 3.81741, -54.3062, -310.424, 3.23638, -37.9006, -158.6, 0.00197941, 0.000839433, -0.00477099, 0.00108699, 0.00108699, 0.00108699
2700, 1,0.00148607, -0.00133053, 0.000890348, 1.4295, -83.6694, 0.00350315, 28.1894, 184.048, 0, 0.000980158, 0.00192996, 0.00379319, 2.03394, 118.236, 0, 0.000981205, 0.00104689, 0.00203025, 1.18949, 63.2689, 0, 0.00098208, -1.90105, -56.0832, -296.724, -1.98588, -38.8331, -148.988, 0.00182375, 0.000773404, -0.00451578, 0.000956306, 0.000956306, 0.000956306
2701, 1,0.00150826, -0.00130702, 0.000873923, 2.18459, -82.364, 0.00309018, 13.3181, 178.226, 0, 0.00108247, 0.00194314, 0.0038754, 2.80182, 119.474, 0, 0.0010835, 0.00107892, 0.00214419, 2.02272, 65.3575, 0, 0.00108445, 0.87585, -57.7783, -301.519, 1.10622, -40.3822, -156.797, 0.00190222, 0.000770652, -0.00461148, 0.00105466, 0.00105466, 0.00105466
2702, 1,0.00143024, -0.00126629, 0.000845623, 1.56177, -79.727, 0.00318582, 29.3016, 162.547, 0, 0.00104842, 0.00184873, 0.00370196, 1.95653, 114.693, 0, 0.00104923, 0.00101582, 0.00202755, 1.41257, 62.3398, 0, 0.00105012, 0.905171, -53.2621, -291.723, 0.807223, -37.4537, -150.373, 0.0018303, 0.000775764, -0.00446713, 0.00100361, 0.00100361, 0.00100361
2703, 1,0.00139779, -0.0012354, 0.000825711, 2.41727, -77.7287, 0.00314671, 31.8224, 156.516, 0, 0.0010143, 0.00180779, 0.00357665, 2.86228, 109.959, 0, 0.00101506, 0.000990822, 0.00194141, 2.21744, 58.9169, 0, 0.0010159, 1.57058, -51.3404, -280.106, 1.33551, -35.6936, -142.392, 0.00176962, 0.00073248, -0.00428637, 0.000960768, 0.000960768, 0.000960768
2704, 1,0.00134513, -0.0012145, 0.00081326, 2.03293, -76.3585, 0.00289033, 16.9219, 160.241, 0, 0.000980056, 0.00175005, 0.00346158, 2.5573, 106.338, 0, 0.000980914, 0.000945252, 0.00185445, 1.86017, 56.1839, 0, 0.000981712, 1.11491, -52.9572, -267.171, 1.13307, -36.4784, -133.206, 0.00170084, 0.000639086, -0.00406549, 0.000911378, 0.000911378, 0.000911378
2705, 1,0.00135982, -0.00117705, 0.000787524, 1.15536, -74.1817, 0.00264016, 7.58974, 157.361, 0, 0.00108232, 0.00175233, 0.00349568, 1.75838, 109.023, 0, 0.00108317, 0.000971865, 0.00193629, 0.9522, 60.33, 0, 0.00108402, -0.992853, -56.2701, -269.805, -0.709207, -39.8218, -140.459, 0.00169799, 0.000629209, -0.00409621, 0.000936966, 0.000936966, 0.000936966
2706, 1,0.00129683, -0.00114261, 0.000763731, 1.08324, -71.9614, 0.00265835, 16.5218, 146.22, 0, 0.00104822, 0.0016738, 0.00334387, 1.52878, 103.765, 0, 0.00104894, 0.000923329, 0.00183454, 1.06423, 56.5093, 0, 0.00104975, 0.32732, -51.0301, -260.593, 0.40472, -36.0834, -133.849, 0.00164603, 0.000644258, -0.00397403, 0.000903354, 0.000903354, 0.000903354
2707, 1,0.00125072, -0.0011167, 0.000747025, 1.25819, -70.2686, 0.00259118, 17.7773, 140.073, 0, 0.00101408, 0.00162117, 0.00322222, 1.69067, 99.7811, 0, 0.00101474, 0.000884061, 0.00174598, 1.16361, 53.6351, 0, 0.0010155, 0.634371, -49.6297, -250.348, 0.56778, -34.797, -126.676, 0.00158997, 0.000600211, -0.00380931, 0.000861797, 0.000861797, 0.000861797
2708, 1,0.00120988, -0.00109944, 0.000736726, 1.27556, -69.1011, 0.0023964, 8.98496, 139.499, 0, 0.000979887, 0.00157683, 0.00311952, 1.82048, 96.5392, 0, 0.00098057, 0.000848426, 0.0016658, 1.13695, 51.1817, 0, 0.000981292, -0.173736, -50.8499, -238.594, -0.119547, -35.152, -118.274, 0.00151964, 0.0005172, -0.00360341, 0.00080649, 0.00080649, 0.00080649
2709, 1,0.00121534, -0.00104606, 0.000700293, 1.28589, -65.9372, 0.00228141, 4.28822, 139.037, 0, 0.00108213, 0.00156465, 0.00312071, 1.88063, 97.142, 0, 0.00108286, 0.000870448, 0.00173488, 1.07195, 53.9098, 0, 0.00108362, -0.7359, -52.7524, -237.938, -0.436752, -37.3506, -123.942, 0.00151633, 0.000508599, -0.00360115, 0.000841631, 0.000841631, 0.000841631
2710, 1,0.00115735, -0.00101831, 0.000681073, 0.894389, -64.1459, 0.0022521, 9.12156, 130.342, 0, 0.001048, 0.00149446, 0.0029834, 1.33998, 92.8404, 0, 0.00104864, 0.000824681, 0.0016384, 0.859895, 50.7343, 0, 0.00104936, -0.317439, -48.0313, -230.172, -0.162717, -34.0553, -117.985, 0.0014605, 0.00052868, -0.00349564, 0.000800575, 0.000800575, 0.000800575
2711, 1,0.00111555, -0.0009977, 0.000667825, 1.04692, -62.7828, 0.0021797, 9.80052, 124.599, 0, 0.00101387, 0.00144689, 0.00287459, 1.48452, 89.1239, 0, 0.00101445, 0.000788425, 0.0015564, 0.994461, 47.9054, 0, 0.00101513, 0.195601, -46.5627, -221.005, 0.198706, -32.6308, -111.284, 0.00141324, 0.000489505, -0.00334894, 0.000764154, 0.000764154, 0.000764154
2712, 1,0.0010804, -0.000984814, 0.000660467, 1.25493, -61.8724, 0.00204003, 5.23841, 121.799, 0, 0.000979708, 0.00140955, 0.00278576, 1.78691, 86.0741, 0, 0.000980276, 0.000756783, 0.00148434, 1.12294, 45.4995, 0, 0.000980922, -0.112804, -47.7917, -210.318, -0.0473405, -32.9669, -103.484, 0.00135641, 0.000407438, -0.00316061, 0.000718841, 0.000718841, 0.000718841
2713, 1,0.00107043, -0.000914846, 0.000612891, 1.25096, -57.674, 0.00197838, 2.62533, 122.338, 0, 0.0010819, 0.00137668, 0.00274329, 1.84286, 85.3811, 0, 0.00108255, 0.000768162, 0.00153072, 1.003, 47.6258, 0, 0.00108321, -0.82902, -49.0078, -206.307, -0.532495, -34.7323, -107.613, 0.00132922, 0.00039572, -0.00311032, 0.000740736, 0.000740736, 0.000740736
2714, 1,0.00101986, -0.000893687, 0.000598072, 0.826893, -56.3017, 0.00191433, 4.52874, 115.031, 0, 0.00104777, 0.00131598, 0.00262423, 1.25449, 81.6447, 0, 0.00104834, 0.000727987, 0.00144415, 0.778199, 44.7171, 0, 0.00104897, -0.432914, -44.4348, -200.066, -0.247011, -31.5265, -102.378, 0.00128197, 0.00042178, -0.00302853, 0.000704265, 0.000704265, 0.000704265
2715, 1,0.00098275, -0.000878689, 0.000588596, 0.919336, -55.2868, 0.00184703, 5.15733, 109.592, 0, 0.00101363, 0.00127497, 0.00252981, 1.34138, 78.4231, 0, 0.00101415, 0.000694722, 0.00136926, 0.8669, 42.1519, 0, 0.00101474, 0.0120781, -43.1327, -192.149, 0.0430218, -30.2013, -96.2974, 0.00124119, 0.00038623, -0.00289998, 0.000670622, 0.000670622, 0.000670622
2716, 1,0.000953466, -0.000870551, 0.000584451, 1.23305, -54.6606, 0.00175587, 3.49578, 105.937, 0, 0.000979487, 0.00124503, 0.00245416, 1.75579, 75.6657, 0, 0.000979968, 0.000667313, 0.0013042, 1.08886, 39.8689, 0, 0.000980538, -0.148076, -44.4298, -182.419, -0.0885115, -30.551, -88.9673, 0.00119199, 0.000306215, -0.00272608, 0.000629557, 0.000629557, 0.000629557
2717, 1,0.000926425, -0.000783668, 0.000525563, 1.3046, -49.4042, 0.0017151, 2.57969, 105.957, 0, 0.00108168, 0.00118988, 0.00236688, 1.90749, 73.5076, 0, 0.00108225, 0.000666436, 0.00132707, 1.0003, 41.2374, 0, 0.00108282, -0.771088, -44.7899, -174.962, -0.483934, -31.7253, -91.503, 0.0011436, 0.000290923, -0.00262723, 0.000641307, 0.000641307, 0.000641307
2718, 1,0.000882797, -0.000768873, 0.000514921, 0.802761, -48.437, 0.00161879, 1.94928, 99.6697, 0, 0.00104755, 0.00113795, 0.00226557, 1.21935, 70.4008, 0, 0.00104805, 0.000631598, 0.00125036, 0.724465, 38.6711, 0, 0.00104859, -0.478919, -40.4177, -170.306, -0.28222, -28.6665, -87.0646, 0.00110417, 0.000322517, -0.00256903, 0.000608574, 0.000608574, 0.000608574
2719, 1,0.000852162, -0.000759615, 0.000509329, 0.914767, -47.7784, 0.0015619, 2.85102, 94.4776, 0, 0.00101341, 0.00110529, 0.00218707, 1.32441, 67.6376, 0, 0.00101385, 0.000603014, 0.00118396, 0.842496, 36.3279, 0, 0.00101437, -0.0088455, -39.268, -163.636, 0.0306535, -27.4237, -81.5907, 0.00107121, 0.000290358, -0.00245912, 0.00057898, 0.00057898, 0.00057898
2720, 1,0.000828977, -0.000756578, 0.000508683, 1.30582, -47.4597, 0.00150313, 3.13456, 90.3171, 0, 0.00097928, 0.00108323, 0.00212544, 1.82869, 65.232, 0, 0.000979678, 0.00057999, 0.00112631, 1.13459, 34.2102, 0, 0.000980171, -0.112783, -40.7028, -154.88, -0.0642977, -27.8472, -74.7191, 0.00102863, 0.000212204, -0.0022994, 0.000541171, 0.000541171, 0.000541171
2721, 1,0.000783879, -0.000652782, 0.000438557, 1.42772, -41.1417, 0.00145821, 2.82336, 89.3736, 0, 0.00108145, 0.00100501, 0.0019922, 2.06399, 61.6329, 0, 0.00108194, 0.000565573, 0.00112416, 1.03777, 34.8526, 0, 0.00108241, -0.729667, -40.2155, -143.954, -0.455034, -28.4393, -75.6633, 0.000957632, 0.000192969, -0.00215062, 0.000541545, 0.000541545, 0.000541545
2722, 1,0.000746406, -0.000643987, 0.000431756, 0.848615, -40.5598, 0.0013584, 1.7758, 83.8292, 0, 0.00104732, 0.000960701, 0.00190758, 1.26478, 59.1064, 0, 0.00104774, 0.000535748, 0.00105705, 0.724947, 32.5879, 0, 0.0010482, -0.461308, -36.0342, -140.824, -0.262143, -25.5177, -71.9837, 0.000926943, 0.000229447, -0.00211545, 0.000513482, 0.000513482, 0.000513482
2723, 1,0.000722844, -0.000640527, 0.000430106, 0.980904, -40.2615, 0.0013035, 2.2914, 78.9013, 0, 0.0010132, 0.00093704, 0.00184563, 1.38821, 56.8256, 0, 0.00101356, 0.000512385, 0.000999706, 0.873639, 30.4886, 0, 0.001014, 0.00879443, -35.0752, -135.41, 0.0489792, -24.394, -67.1208, 0.000901611, 0.000200353, -0.00202407, 0.000487722, 0.000487722, 0.000487722
2724, 1,0.000706666, -0.000642931, 0.000433234, 1.45921, -40.2711, 0.00126006, 3.31359, 74.5856, 0, 0.000979083, 0.00092394, 0.00179934, 1.99731, 54.7992, 0, 0.000979398, 0.000494516, 0.00095034, 1.24343, 28.5524, 0, 0.000979815, -0.0616198, -36.6781, -127.658, -0.0268439, -24.9164, -60.714, 0.000865587, 0.000124013, -0.00187888, 0.000453054, 0.000453054, 0.000453054
2725, 1,0.000643472, -0.00052255, 0.000352232, 1.67271, -32.9049, 0.00120296, 3.27277, 72.6217, 0, 0.00108124, 0.000823099, 0.00162043, 2.38111, 49.75, 0, 0.00108164, 0.000465924, 0.000922513, 1.15236, 28.4625, 0, 0.00108201, -0.676537, -35.3385, -113.235, -0.415408, -24.9201, -60.052, 0.000771792, 0.000100653, -0.00167964, 0.000441937, 0.000441937, 0.000441937
2726, 1,0.000610986, -0.000519227, 0.000348774, 0.974905, -32.6812, 0.00110723, 2.00448, 67.6394, 0, 0.0010471, 0.000784775, 0.00155073, 1.40962, 47.7881, 0, 0.00104744, 0.000440522, 0.000864301, 0.782192, 26.4916, 0, 0.0010478, -0.435663, -31.3596, -111.569, -0.238001, -22.1444, -57.0925, 0.000749511, 0.000141522, -0.00166644, 0.000418275, 0.000418275, 0.000418275
2727, 1,0.0005952, -0.00052157, 0.000351083, 1.13994, -32.7443, 0.00105633, 2.4598, 63.0278, 0, 0.00101298, 0.000770771, 0.00150592, 1.56228, 45.9878, 0, 0.00101326, 0.000423133, 0.000816692, 0.978027, 24.6338, 0, 0.00101361, 0.04332, -30.6037, -107.403, 0.0803412, -21.151, -52.8307, 0.000731947, 0.000115292, -0.00159348, 0.000396481, 0.000396481, 0.000396481
2728, 1,0.000587574, -0.00052979, 0.000358299, 1.73693, -33.1041, 0.00102551, 3.92237, 58.774, 0, 0.000978875, 0.000768369, 0.00147703, 2.31481, 44.3684, 0, 0.000979104, 0.000411809, 0.000777204, 1.45266, 22.8975, 0, 0.000979445, -0.00889603, -32.3942, -100.702, 0.0115337, -21.7888, -46.9153, 0.000702599, 4.09029E-05, -0.00146353, 0.000364991, 0.000364991, 0.000364991
2729, 1,0.00050671, -0.000393711, 0.000267335, 2.11622, -24.7291, 0.000953725, 4.09895, 55.7712, 0, 0.001081, 0.000646356, 0.00125374, 2.9716, 37.8642, 0, 0.00108132, 0.000368311, 0.000722915, 1.38553, 22.0735, 0, 0.0010816, -0.623975, -30.2151, -82.7535, -0.377441, -21.2138, -44.6292, 0.000585896, 1.3015E-05, -0.00121324, 0.000342312, 0.000342312, 0.000342312
2730, 1,0.000477489, -0.000394966, 0.000266349, 1.22881, -24.8198, 0.000859215, 2.50573, 51.2696, 0, 0.00104689, 0.00061152, 0.00119635, 1.71925, 36.4464, 0, 0.00104714, 0.000346458, 0.00067268, 0.925668, 20.3828, 0, 0.00104741, -0.403615, -26.445, -82.4907, -0.210624, -18.587, -42.3509, 0.000571842, 5.78159E-05, -0.00122103, 0.000322934, 0.000322934, 0.000322934
2731, 1,0.000470515, -0.000403057, 0.000272573, 1.44465, -25.2428, 0.000817326, 3.07863, 47.0062, 0, 0.00101278, 0.00060806, 0.00116952, 1.91361, 35.1291, 0, 0.00101297, 0.000336264, 0.00063593, 1.19642, 18.7678, 0, 0.00101324, 0.0797623, -25.9033, -79.5638, 0.111144, -17.7332, -38.6812, 0.000561982, 3.43147E-05, -0.00116634, 0.000305041, 0.000305041, 0.000305041
2732, 1,0.000474003, -0.000417583, 0.000284312, 2.22943, -25.9804, 0.000804255, 5.11466, 42.9605, 0, 0.000978663, 0.000619171, 0.00116109, 2.88962, 33.9372, 0, 0.000978806, 0.000333893, 0.000608889, 1.83861, 17.2434, 0, 0.000979071, 0.0429233, -27.8966, -73.9579, 0.0491392, -18.5002, -33.2792, 0.000539578, -3.80388E-05, -0.00105231, 0.000276918, 0.000276918, 0.000276918
2733, 1,0.000377425, -0.000268292, 0.000185898, 2.96514, -16.7095, 0.000718393, 5.66075, 38.866, 0, 0.00108077, 0.000480531, 0.000897866, 4.13648, 25.9732, 0, 0.001081, 0.000274783, 0.00052737, 1.85284, 15.6829, 0, 0.00108118, -0.570569, -24.8966, -52.4525, -0.339031, -17.3597, -29.3501, 0.000399933, -7.09566E-05, -0.000750356, 0.000242671, 0.000242671, 0.000242671
2734, 1,0.000348639, -0.00027221, 0.000185482, 1.74379, -17.0248, 0.000620898, 3.55023, 34.8097, 0, 0.00104667, 0.000444667, 0.000848122, 2.37455, 25.0823, 0, 0.00104683, 0.000255193, 0.00048385, 1.24238, 14.2618, 0, 0.00104702, -0.368973, -21.3406, -53.5372, -0.18308, -14.884, -27.7183, 0.000393866, -2.25988E-05, -0.000778235, 0.000227398, 0.000227398, 0.000227398
2735, 1,0.000352421, -0.000285814, 0.0001954, 2.0528, -17.7982, 0.000593602, 4.43899, 30.9254, 0, 0.00101256, 0.000453305, 0.000840818, 2.63704, 24.2485, 0, 0.00101267, 0.000254652, 0.000460309, 1.65263, 12.8895, 0, 0.00101286, 0.118404, -21.0208, -51.8431, 0.141863, -14.1769, -24.6336, 0.000391711, -4.34744E-05, -0.000741729, 0.0002134, 0.0002134, 0.0002134
2736, 1,0.000371736, -0.000307313, 0.000212284, 3.16936, -18.9503, 0.00061188, 7.57224, 27.1776, 0, 0.000978453, 0.000482947, 0.000858063, 3.99607, 23.5014, 0, 0.000978512, 0.000265878, 0.000450463, 2.60177, 11.587, 0, 0.000978701, 0.092934, -23.2284, -47.3686, 0.0850179, -15.0836, -19.7625, 0.000376445, -0.000113696, -0.000644183, 0.000188772, 0.000188772, 0.000188772
2737, 1,0.000268556, -0.000153931, 0.000115563, 4.8922, -9.19972, 0.00052239, 9.20825, 21.9008, 0, 0.00108054, 0.000345474, 0.000572614, 6.88031, 14.0752, 0, 0.00108067, 0.000191915, 0.000342397, 2.91347, 9.28965, 0, 0.00108076, -0.517412, -19.4333, -22.2748, -0.301317, -13.3975, -14.1702, 0.000213849, -0.000152247, -0.000289916, 0.00014297, 0.00014297, 0.00014297
2738, 1,0.000234139, -0.000154858, 0.00011009, 3.00165, -9.48277, 0.000415474, 6.24897, 18.2879, 0, 0.00104645, 0.000297706, 0.000519462, 4.04043, 13.6938, 0, 0.00104653, 0.000172583, 0.000303673, 2.03483, 8.12737, 0, 0.00104663, -0.330703, -16.0953, -24.6555, -0.154612, -11.074, -13.1535, 0.000215577, -0.000100672, -0.000337077, 0.000131663, 0.000131663, 0.000131663
2739, 1,0.000253318, -0.0001727, 0.000122413, 3.52323, -10.5517, 0.000418604, 8.10979, 14.8159, 0, 0.00101235, 0.00032167, 0.000534965, 4.4228, 13.3443, 0, 0.00101238, 0.000187918, 0.000299449, 2.78076, 6.99776, 0, 0.00101248, 0.159647, -16.0026, -24.19, 0.1727, -10.5183, -10.6477, 0.000221119, -0.000118977, -0.000318698, 0.000121543, 0.000121543, 0.000121543
2740, 1,0.000298174, -0.000201985, 0.000145223, 5.30802, -12.1655, 0.000504016, 13.9039, 11.4378, 0, 0.000978258, 0.000379687, 0.000587909, 6.50839, 13.0578, 0, 0.000978232, 0.000222738, 0.000316872, 4.39645, 5.92618, 0, 0.000978345, 0.142123, -18.4334, -20.8821, 0.119798, -11.5739, -6.32446, 0.000213171, -0.000186947, -0.000238198, 0.000100531, 0.000100531, 0.000100531
2741, 1,0.000240537, 9.43788E-05, 8.8672E-05, 10.7519, 4.76679, 0.000477079, 19.9914, 4.86791, 0, 0.00108033, 0.00033248, 0.000369247, 15.4575, 2.16731, 0, 0.00108038, 0.00015077, 0.000199028, 6.09723, 2.89167, 0, 0.00108036, -0.464521, -13.8773, 7.83993, -0.264222, -9.36752, 0.956726, 2.76025E-05, -0.000231901, 0.000169209, 4.31791E-05, 4.31791E-05, 4.31791E-05
2742, 1,0.000189547, -6.72238E-05, 6.45078E-05, 7.73025, -3.34497, 0.0003798, 17.1673, 1.71268, 0, 0.00104627, 0.000249508, 0.000289143, 10.5491, 2.27898, 0, 0.00104626, 0.000131569, 0.000164998, 4.96244, 1.97791, 0, 0.00104626, -0.28879, -10.7592, 4.21107, -0.125161, -7.19583, 1.38726, 3.69419E-05, -0.000177397, 0.000103506, 3.57055E-05, 3.57055E-05, 3.57055E-05
2743, 1,0.000231337, -7.92002E-05, 6.90911E-05, 8.71232, -4.26862, 0.000467403, 22.6254, -1.30756, 0, 0.00101218, 0.000287171, 0.000325942, 10.8782, 2.41465, 0, 0.00101212, 0.000177795, 0.000195068, 6.6843, 1.09107, 0, 0.00101214, 0.203717, -10.8965, 3.44882, 0.203892, -6.79507, 3.31796, 5.01791E-05, -0.000193135, 0.00010375, 2.94534E-05, 2.94534E-05, 2.94534E-05
2744, 1,0.000310128, -0.000112928, 9.44531E-05, 11.5298, -6.20243, 0.000658017, 33.014, -4.24725, 0, 0.000978098, 0.000378253, 0.000419476, 13.8413, 2.60669, 0, 0.00097799, 0.000247644, 0.000251277, 9.5625, 0.2605, 0, 0.000978027, 0.189212, -13.5588, 5.54947, 0.152793, -8.00763, 7.07333, 4.97355E-05, -0.000258686, 0.00016656, 1.21772E-05, 1.21772E-05, 1.21772E-05
2745, 1,0.000450286, 0.000184294, 0.000134466, 27.1927, 11.0275, 0.000858257, 50.477, -12.2398, 0, 0.00108008, 0.000634504, 0.000480694, 38.2153, -9.75198, 0, 0.00108003, 0.000266167, 0.000212067, 16.1763, -3.51222, 0, 0.00107992, -0.412404, -8.28105, 37.9494, -0.228202, -5.3107, 16.0756, -0.000158845, -0.000310949, 0.000628112, -5.67303E-05, -5.67303E-05, -5.67303E-05
2746, 1,0.00040332, 0.000142301, 0.000102854, 24.5628, 8.62761, 0.000854837, 52.0665, -14.9134, 0, 0.00104602, 0.000544627, 0.000401666, 33.1425, -9.16338, 0, 0.00104593, 0.00026314, 0.000198652, 16.036, -4.18753, 0, 0.00104584, -0.243652, -5.38314, 33.1169, -0.0950253, -3.28905, 15.9467, -0.000142067, -0.00025376, 0.000544547, -6.0497E-05, -6.0497E-05, -6.0497E-05
2747, 1,0.000430617, 0.000117364, 8.72585E-05, 24.9741, 7.02922, 0.000980226, 59.375, -17.4372, 0, 0.00101195, 0.000546048, 0.000409948, 31.8655, -8.54125, 0, 0.0010118, 0.000316664, 0.000239523, 18.1946, -4.83134, 0, 0.00101174, 0.249414, -5.75092, 31.1252, 0.234724, -3.04485, 17.3041, -0.000121146, -0.000266878, 0.000526593, -6.28976E-05, -6.28976E-05, -6.28976E-05
2748, 1,0.000494255, 0.000112364, 9.25376E-05, 26.8182, 6.33618, 0.00116471, 69.2646, -19.8699, 0, 0.000977886, 0.000602371, 0.000476476, 32.823, -7.85248, 0, 0.000977695, 0.000388695, 0.000301757, 21.0389, -5.41079, 0, 0.000977657, 0.233763, -8.65022, 31.9739, 0.183758, -4.42078, 20.4694, -0.000113881, -0.000329784, 0.000570989, -7.63074E-05, -7.63074E-05, -7.63074E-05
2749, 1,0.000823695, 0.000303764, 0.000209767, 51.2606, 18.7507, 0.0015483, 95.558, -29.4275, 0, 0.00107984, 0.00112676, 0.000782143, 69.9689, -21.6844, 0, 0.0010797, 0.000521438, 0.000364832, 32.5999, -9.92328, 0, 0.0010795, -0.361645, -2.69725, 68.1122, -0.193681, -1.26791, 31.2314, -0.000345532, -0.000390431, 0.0010879, -0.000156787, -0.000156787, -0.000156787
2750, 1,0.000778311, 0.000258947, 0.000177225, 48.8059, 16.142, 0.00157763, 98.5944, -31.5894, 0, 0.0010458, 0.00103588, 0.000709811, 64.8483, -20.635, 0, 0.00104561, 0.00052211, 0.000359309, 32.862, -10.3702, 0, 0.00104544, -0.196114, -0.0173063, 62.1184, -0.0649917, 0.607198, 30.5683, -0.000321494, -0.000330751, 0.000987109, -0.00015698, -0.00015698, -0.00015698
2751, 1,0.000776874, 0.00022388, 0.000153526, 47.9746, 13.9906, 0.00168022, 104.662, -33.5691, 0, 0.00101176, 0.000998846, 0.000687479, 61.8015, -19.5249, 0, 0.00101153, 0.000556451, 0.000384694, 34.2837, -10.7707, 0, 0.00101139, 0.296122, -0.614275, 58.8928, 0.264762, 0.694644, 31.3527, -0.000292893, -0.000341151, 0.000950838, -0.000155539, -0.000155539, -0.000155539
2752, 1,0.00080217, 0.000199589, 0.000141452, 48.0112, 12.335, 0.00182025, 112.207, -35.4232, 0, 0.000977722, 0.000999291, 0.000706139, 60.0855, -18.3199, 0, 0.00097745, 0.000606676, 0.000429078, 36.1202, -11.088, 0, 0.000977336, 0.274584, -3.75477, 58.4399, 0.211777, -0.850063, 33.9023, -0.000277706, -0.000401132, 0.00097601, -0.000164947, -0.000164947, -0.000164947
2753, 1,0.00123737, 0.000430807, 0.000292593, 77.4401, 26.8498, 0.00232281, 144.863, -46.6948, 0, 0.0010796, 0.00166626, 0.00113058, 104.17, -33.6319, 0, 0.00107937, 0.000810493, 0.000551221, 50.8365, -16.3427, 0, 0.00107907, -0.312956, 2.82285, 98.3857, -0.161383, 2.72083, 46.4686, -0.000532503, -0.000471358, 0.00154967, -0.000257026, -0.000257026, -0.000257026
2754, 1,0.00118407, 0.000382336, 0.000258232, 74.5266, 23.9876, 0.00234858, 147.458, -48.315, 0, 0.00104558, 0.00156427, 0.00105455, 98.3502, -32.1385, 0, 0.00104531, 0.00080589, 0.000544327, 50.8588, -16.5721, 0, 0.00104504, -0.146291, 5.28932, 91.2725, -0.0350002, 4.45491, 45.2964, -0.000501386, -0.000409346, 0.00143226, -0.000253778, -0.000253778, -0.000253778
2755, 1,0.00115964, 0.000340203, 0.000229547, 72.5034, 21.4143, 0.00242137, 151.779, -49.6991, 0, 0.00101156, 0.00149754, 0.00101045, 93.707, -30.5378, 0, 0.00101125, 0.000823663, 0.000557026, 51.4774, -16.7282, 0, 0.00101102, 0.342482, 4.46572, 86.8053, 0.292723, 4.386, 45.5059, -0.000465117, -0.000416885, 0.0013775, -0.000248517, -0.000248517, -0.000248517
2756, 1,0.00115379, 0.000304405, 0.000207951, 70.9686, 19.1298, 0.0025184, 156.92, -50.9049, 0, 0.000977544, 0.00145585, 0.000995281, 89.8296, -28.7976, 0, 0.000977194, 0.000853392, 0.000585019, 52.3067, -16.7728, 0, 0.000977003, 0.312766, 1.08297, 84.9971, 0.237819, 2.66941, 47.4112, -0.00044175, -0.000473599, 0.00138254, -0.000253748, -0.000253748, -0.000253748
2757, 1,0.00166297, 0.000560484, 0.000378, 104.283, 35.079, 0.0031255, 195.651, -64.0613, 0, 0.00107934, 0.00222048, 0.00149346, 139.166, -45.5958, 0, 0.00107902, 0.00110848, 0.000746376, 69.5961, -22.7715, 0, 0.00107862, -0.265814, 8.22721, 128.826, -0.130554, 6.6152, 61.8299, -0.000719773, -0.00055475, 0.00201446, -0.000357449, -0.000357449, -0.000357449
2758, 1,0.00159873, 0.000507812, 0.000341228, 100.696, 31.9374, 0.00313476, 197.088, -65.0874, 0, 0.00104534, 0.00210364, 0.00140971, 132.406, -43.6739, 0, 0.00104498, 0.00109649, 0.000735733, 69.1967, -22.7931, 0, 0.00104463, -0.0971734, 10.4851, 120.634, -0.00770666, 8.21373, 60.1734, -0.000681806, -0.000490533, 0.00188104, -0.000350945, -0.000350945, -0.000350945
2759, 1,0.00155389, 0.000459272, 0.000308236, 97.5211, 28.9699, 0.00317549, 199.472, -65.8324, 0, 0.00101135, 0.00201031, 0.00134702, 126.228, -41.5835, 0, 0.00101096, 0.00109984, 0.000737996, 69.0367, -22.707, 0, 0.00101065, 0.390713, 9.44143, 114.918, 0.321215, 7.99262, 59.8072, -0.000637826, -0.000495037, 0.00180759, -0.000341828, -0.000341828, -0.000341828
2760, 1,0.00152123, 0.000414511, 0.000279733, 94.5234, 26.1645, 0.0032309, 202.18, -66.3247, 0, 0.000977358, 0.00193312, 0.00130494, 120.387, -39.2848, 0, 0.000976929, 0.00111128, 0.000751987, 68.8906, -22.4643, 0, 0.000976663, 0.344359, 5.81467, 111.695, 0.258266, 6.09993, 61.0347, -0.000606083, -0.000548091, 0.00179153, -0.000342773, -0.000342773, -0.000342773
2761, 1,0.00209351, 0.000691332, 0.000464523, 131.409, 43.366, 0.00394384, 247.276, -81.514, 0, 0.00107909, 0.00278095, 0.00186231, 174.512, -57.5755, 0, 0.00107867, 0.00140989, 0.000944786, 88.5661, -29.2089, 0, 0.00107818, -0.22346, 13.4659, 159.484, -0.10422, 10.3761, 77.3549, -0.000907402, -0.000641563, 0.00248329, -0.00045811, -0.00045811, -0.00045811
2762, 1,0.00201746, 0.000634239, 0.000425079, 127.089, 39.9353, 0.00392769, 247.073, -81.9021, 0, 0.00104513, 0.00264809, 0.00176938, 166.738, -55.2505, 0, 0.00104468, 0.00139014, 0.000929751, 87.7024, -29.0423, 0, 0.00104423, -0.0376985, 15.5279, 150.261, 0.0284974, 11.8521, 75.2463, -0.00086267, -0.000575237, 0.00233446, -0.000448381, -0.000448381, -0.000448381
2763, 1,0.00195342, 0.000579503, 0.000387989, 122.778, 36.5821, 0.00393466, 247.369, -81.9409, 0, 0.00101116, 0.00252952, 0.00168946, 159.046, -52.6612, 0, 0.00101068, 0.00138018, 0.000922761, 86.7771, -28.7062, 0, 0.00101029, 0.435484, 14.2647, 143.283, 0.345572, 11.4765, 74.2965, -0.000811122, -0.000576507, 0.00224211, -0.000435557, -0.000435557, -0.000435557
2764, 1,0.0018957, 0.000526665, 0.000353551, 118.348, 33.2917, 0.00395069, 247.723, -81.717, 0, 0.00097719, 0.00241936, 0.00162337, 151.3, -49.79, 0, 0.000976684, 0.00137434, 0.000923992, 85.6623, -28.1705, 0, 0.000976342, 0.381863, 10.4015, 138.587, 0.285656, 9.41201, 74.814, -0.000770575, -0.000625468, 0.00220386, -0.000431883, -0.000431883, -0.000431883
2765, 1,0.00252651, 0.000822772, 0.000551585, 158.688, 51.6818, 0.00477461, 299.73, -99.2663, 0, 0.00107885, 0.00334461, 0.00223417, 210.046, -69.5738, 0, 0.00107833, 0.0017129, 0.00114474, 107.644, -35.6578, 0, 0.00107774, -0.171039, 18.4849, 190.408, -0.0673485, 13.9611, 93.0796, -0.00109512, -0.000732878, 0.00295702, -0.000558743, -0.000558743, -0.000558743
2766, 1,0.00243869, 0.000761216, 0.000509382, 153.618, 47.961, 0.00472212, 297.097, -98.6714, 0, 0.0010449, 0.00319564, 0.00213169, 201.239, -66.8542, 0, 0.00104436, 0.0016856, 0.00112528, 106.307, -35.3061, 0, 0.00104382, 0.0195306, 20.3504, 180.193, 0.0626226, 15.3133, 90.5422, -0.00104403, -0.000664536, 0.00279341, -0.000546111, -0.000546111, -0.000546111
2767, 1,0.00235606, 0.000700387, 0.000468283, 148.203, 44.2262, 0.00469474, 295.289, -98.0348, 0, 0.00101095, 0.0030525, 0.00203523, 192.067, -63.7935, 0, 0.00101039, 0.00166294, 0.00110965, 104.647, -34.7475, 0, 0.00100991, 0.517862, 18.8979, 171.965, 0.40736, 14.8102, 89.0248, -0.000984494, -0.000662331, 0.00268194, -0.000529168, -0.000529168, -0.000529168
2768, 1,0.00227427, 0.000639809, 0.000428336, 142.326, 40.4625, 0.00468013, 293.789, -97.234, 0, 0.000977018, 0.00291066, 0.00194655, 182.409, -60.2951, 0, 0.000976433, 0.00164054, 0.00109889, 102.544, -33.8729, 0, 0.000976014, 0.386509, 14.7809, 165.718, 0.282163, 12.5548, 88.7817, -0.00093576, -0.000706687, 0.00262072, -0.000521584, -0.000521584, -0.000521584
2769, 1,0.00296082, 0.000954493, 0.00063889, 186.052, 60.0098, 0.00562457, 352.825, -116.65, 0, 0.00107861, 0.00391, 0.00260759, 245.685, -81.5909, 0, 0.001078, 0.0020167, 0.00134538, 126.779, -42.1219, 0, 0.00107731, -0.110257, 23.2479, 221.635, -0.0185072, 17.3457, 109.039, -0.00128299, -0.000829567, 0.00343657, -0.000659387, -0.000659387, -0.000659387
2770, 1,0.00286109, 0.000888535, 0.000593927, 180.27, 56.0034, 0.00551173, 346.492, -114.9, 0, 0.00104467, 0.00374479, 0.00249523, 235.886, -78.5593, 0, 0.00104405, 0.00198173, 0.00132131, 125.005, -41.6591, 0, 0.00104343, 0.203759, 24.9711, 210.503, 0.224837, 18.6225, 106.13, -0.00122433, -0.000759176, 0.00325828, -0.000642566, -0.000642566, -0.000642566
2771, 1,0.00276084, 0.000821719, 0.000548895, 173.722, 51.8918, 0.00545517, 342.695, -113.42, 0, 0.00101074, 0.00357813, 0.0023831, 225.209, -74.9402, 0, 0.00101011, 0.00194729, 0.00129781, 122.58, -40.7909, 0, 0.00100955, 0.567517, 23.2762, 200.977, 0.438856, 17.9385, 103.995, -0.0011588, -0.000753229, 0.00312801, -0.000623466, -0.000623466, -0.000623466
2772, 1,0.00265525, 0.000753512, 0.000503628, 166.465, 47.6583, 0.00543382, 341.031, -112.809, 0, 0.000976844, 0.00340497, 0.00227253, 213.708, -70.898, 0, 0.000976179, 0.00190853, 0.00127549, 119.555, -39.6662, 0, 0.000975685, 0.510403, 18.9784, 193.205, 0.398732, 15.5615, 103.038, -0.00109997, -0.000792797, 0.00304309, -0.000610179, -0.000610179, -0.000610179
2773, 1,0.00339674, 0.00108635, 0.000726317, 213.516, 68.3415, 0.00644741, 405.639, -135.372, 0, 0.00107838, 0.00447718, 0.00298317, 281.433, -93.6373, 0, 0.00107765, 0.00232185, 0.00154782, 145.999, -48.6093, 0, 0.00107686, 0.0713193, 27.629, 253.211, 0.148568, 20.4171, 125.262, -0.00146878, -0.000934088, 0.00392236, -0.000757913, -0.000757913, -0.000757913
2774, 1,0.00328301, 0.00101609, 0.000678615, 206.832, 64.0531, 0.00627239, 392.939, -128.998, 0, 0.0010444, 0.00429376, 0.00285957, 270.458, -90.2048, 0, 0.00104375, 0.00227701, 0.00151771, 143.59, -47.9445, 0, 0.00104303, 0.426565, 29.1431, 241.045, 0.433296, 21.5399, 121.86, -0.00140288, -0.000861683, 0.0037283, -0.000736978, -0.000736978, -0.000736978
2775, 1,0.00316743, 0.000943452, 0.000629722, 199.457, 59.576, 0.00621096, 388.911, -127.504, 0, 0.00101051, 0.00410606, 0.00273368, 258.593, -86.2982, 0, 0.00100983, 0.00223287, 0.0014879, 140.696, -47.03, 0, 0.00100919, 0.955619, 27.4225, 230.516, 0.808791, 20.8955, 119.386, -0.00132933, -0.000851685, 0.0035813, -0.000713743, -0.000713743, -0.000713743
2776, 1,0.00304301, 0.00086778, 0.000579375, 190.778, 54.8802, 0.00620618, 389.704, -129.141, 0, 0.000976681, 0.00390662, 0.00260354, 245.209, -81.3304, 0, 0.000975924, 0.0021827, 0.00145617, 136.708, -45.2775, 0, 0.000975353, 0.163775, 22.7261, 221.101, 0.050535, 18.1868, 117.595, -0.00127146, -0.000885086, 0.00347616, -0.000705763, -0.000705763, -0.000705763
2777, 1,0.00383454, 0.00121813, 0.000813818, 241.147, 76.6564, 0.00727978, 449.116, -140.949, 0, 0.00107791, 0.00504618, 0.00336272, 317.334, -105.887, 0, 0.0010773, 0.00262891, 0.00175391, 165.397, -55.327, 0, 0.00107642, 0.555179, 31.8607, 285.247, 0.651715, 23.4368, 141.892, -0.00165129, -0.00104639, 0.00441594, -0.000852861, -0.000852861, -0.000852861
2778, 1,0.00369728, 0.0011435, 0.000763063, 233.214, 72.0921, 0.00705365, 432.865, -133.011, 0, 0.00104396, 0.0048352, 0.00321841, 304.855, -102.252, 0, 0.00104344, 0.00256434, 0.00170837, 161.978, -54.6259, 0, 0.00104263, 1.35626, 33.5182, 271.881, 1.34668, 24.69, 137.841, -0.00157284, -0.000967382, 0.00419945, -0.00082277, -0.00082277, -0.00082277
2779, 1,0.00358028, 0.00106539, 0.000710551, 225.231, 67.2666, 0.00699544, 429.787, -132.59, 0, 0.00101014, 0.00464064, 0.00308731, 292.039, -97.459, 0, 0.00100956, 0.00252416, 0.00168047, 158.816, -53.0634, 0, 0.00100884, 0.704354, 31.1006, 260.572, 0.563017, 23.4344, 135.193, -0.0015105, -0.000957521, 0.00404941, -0.000814014, -0.000814014, -0.000814014
2780, 1,0.00342869, 0.000982776, 0.00065557, 215.749, 62.1396, 0.00699385, 434.579, -139.395, 0, 0.00097643, 0.00440704, 0.00293741, 277.414, -92.8738, 0, 0.000975693, 0.00245388, 0.0016384, 154.471, -51.9778, 0, 0.000975046, 1.83135, 26.7761, 250.014, 1.7235, 21.1822, 133.028, -0.00141799, -0.000988766, 0.00391367, -0.000775867, -0.000775867, -0.000775867
2781, 1,0.00428822, 0.00134838, 0.000900016, 270.721, 84.949, 0.0094549, 464.846, -154.936, 0.0410711, 0.00107769, 0.00562984, 0.00373911, 355.15, -119.875, 0, 0.00107702, 0.00295282, 0.00195868, 186.774, -63.7411, 0, 0.00107604, 2.30271, 37.9288, 319.395, 2.33041, 28.3237, 160.569, -0.00183425, -0.00115625, 0.00493574, -0.00094951, -0.00094951, -0.00094951
2782, 1,0.00411036, 0.0012704, 0.00084691, 258.755, 80.1228, 0.00888619, 457.26, -143.608, 0.0295631, 0.00104371, 0.0053751, 0.00357662, 338.393, -113.494, 0, 0.00104316, 0.00285066, 0.00189838, 179.555, -60.531, 0, 0.00104226, 0.758404, 37.7689, 301.954, 0.770423, 27.8148, 153.008, -0.00176265, -0.00107276, 0.00467705, -0.000928063, -0.000928063, -0.000928063
2783, 1,0.00397139, 0.00118747, 0.0007911, 250.484, 74.9878, 0.00860027, 455.762, -141.742, 0.0239169, 0.00100989, 0.00515405, 0.00342678, 325.007, -109.612, 0, 0.00100933, 0.00279282, 0.00185756, 176.362, -60.0745, 0, 0.00100852, 2.54763, 35.5996, 290.688, 2.46921, 26.7882, 150.966, -0.00166327, -0.00106945, 0.0045113, -0.000884447, -0.000884447, -0.000884447
2784, 1,0.00385747, 0.00109852, 0.000731955, 242.084, 69.4734, 0.00868911, 459.67, -147.766, 0.0258261, 0.000976197, 0.00495165, 0.00329732, 311.063, -103.749, 0, 0.000975466, 0.00276673, 0.00184338, 173.504, -57.9601, 0, 0.000974741, 0.191076, 30.3226, 280.732, 0.109665, 23.7829, 149.988, -0.00162429, -0.00109913, 0.00440679, -0.000904541, -0.000904541, -0.000904541
2785, 1,0.00481489, 0.00147688, 0.000985193, 301.431, 93.0522, 0.0128728, 466.576, -153.523, 0.107532, 0.00107719, 0.00628577, 0.00419813, 393.952, -130.45, 0, 0.00107661, 0.00334934, 0.00224383, 209.386, -69.1279, 0, 0.00107554, -2.45953, 38.8056, 355.004, -2.04443, 28.5599, 180.868, -0.0021016, -0.00132752, 0.00554593, -0.00112701, -0.00112701, -0.00112701
2786, 1,0.00453836, 0.0013971, 0.000930994, 284.232, 88.1235, 0.0118843, 463.005, -148.846, 0.0882276, 0.00104334, 0.00592949, 0.00396006, 371.798, -123.754, 0, 0.00104279, 0.00315246, 0.00211528, 197.163, -65.6129, 0, 0.00104181, 0.544799, 39.2773, 331.44, 0.795318, 28.5315, 167.512, -0.00192884, -0.00123173, 0.00516869, -0.00100767, -0.00100767, -0.00100767
2787, 1,0.00441751, 0.00131151, 0.000873056, 276.098, 82.8607, 0.0116845, 461.723, -147.075, 0.0842629, 0.00100957, 0.00572433, 0.00381568, 358.444, -118.986, 0, 0.00100899, 0.00311464, 0.00207758, 194.193, -64.2778, 0, 0.0010081, -1.23587, 37.4498, 320.743, -1.18954, 27.8171, 166.206, -0.00189156, -0.001208, 0.00503024, -0.00102865, -0.00102865, -0.00102865
2788, 1,0.00431042, 0.00121481, 0.000808245, 270.17, 76.9203, 0.0117479, 466.196, -154.172, 0.0857107, 0.000975937, 0.00552177, 0.00367796, 346.613, -115.677, 0, 0.000975205, 0.00310178, 0.00206869, 194.108, -64.8949, 0, 0.000974402, 0.00780093, 32.897, 314.126, -0.00935898, 25.4634, 169.231, -0.00181673, -0.00125674, 0.00495039, -0.00101695, -0.00101695, -0.00101695
2789, 1,0.00530094, 0.00161987, 0.00107989, 325.003, 100.764, 0.0195715, 472.282, -157.388, 0.23731, 0.00107688, 0.00691632, 0.00464799, 425.234, -139.798, 0.00236415, 0.00107615, 0.0036895, 0.00249717, 225.25, -73.0869, 0.00138789, 0.00107499, -5.76551, 41.4206, 383.74, -5.75909, 29.9339, 195.086, -0.00237663, -0.00149688, 0.006145, -0.00130144, -0.00130144, -0.00130144
2790, 1,0.00508574, 0.00153313, 0.00102293, 312.898, 95.889, 0.0178818, 466.422, -148.66, 0.204292, 0.00104298, 0.0066121, 0.00446192, 408.075, -132.211, 0.000804821, 0.00104238, 0.00356522, 0.00243094, 218.347, -69.0876, 0.00025241, 0.00104132, -8.83034, 42.7034, 362.76, -8.44913, 31.5249, 184.187, -0.00228014, -0.00134934, 0.00577578, -0.00126404, -0.00126404, -0.00126404
2791, 1,0.00489308, 0.00143631, 0.000956437, 306.322, 90.8802, 0.0172854, 468.016, -151.876, 0.193003, 0.00100934, 0.00632584, 0.0042166, 396.695, -132.943, 0, 0.00100873, 0.00346326, 0.00230951, 216.382, -72.9034, 0, 0.00100775, -0.338992, 42.4043, 356.765, -0.146942, 31.8522, 187.005, -0.00209392, -0.0013638, 0.00561487, -0.00114394, -0.00114394, -0.00114394
2792, 1,0.0047847, 0.00133373, 0.000888489, 299.164, 84.6287, 0.0176039, 470.248, -155.231, 0.199176, 0.000975676, 0.00611626, 0.00407755, 383.34, -127.382, 0, 0.000974929, 0.0034548, 0.00230475, 215.346, -71.3962, 0, 0.000974043, -0.971488, 33.8859, 349.231, -0.941782, 25.6276, 189.503, -0.00202232, -0.00145271, 0.00554186, -0.00113961, -0.00113961, -0.00113961
2793, 1,0.00610572, 0.00176572, 0.00117864, 339.35, 108.15, 0.0380093, 479.43, -156.955, 0.580088, 0.00107704, 0.00786835, 0.0053218, 446.959, -147.597, 0.0145397, 0.00107558, 0.00434557, 0.00296937, 232.245, -75.9771, 0.0126625, 0.00107432, -4.58587, 43.8749, 403.502, -4.46892, 31.252, 201.148, -0.00277009, -0.00188364, 0.00706831, -0.00158932, -0.00158932, -0.00158932
2794, 1,0.00595497, 0.0016776, 0.0011214, 330.196, 102.693, 0.0354542, 480.806, -161.506, 0.535756, 0.00104342, 0.00762649, 0.00519197, 432.117, -138.859, 0.0124806, 0.00104189, 0.00428814, 0.00295765, 228.956, -71.1216, 0.0106871, 0.00104074, -12.3886, 44.9815, 383.983, -11.6404, 32.3734, 192.632, -0.00275357, -0.00171399, 0.00673653, -0.00162361, -0.00162361, -0.00162361
2795, 1,0.0055102, 0.00157335, 0.00105026, 334.577, 99.5822, 0.0328823, 478.883, -160.053, 0.488779, 0.0010096, 0.00707768, 0.0047817, 433.26, -138.031, 0.00075659, 0.00100826, 0.00394732, 0.00269291, 236.637, -72.854, 0.00075659, 0.00100719, -12.7378, 41.2699, 385.561, -11.624, 31.0166, 199.169, -0.00245775, -0.00158917, 0.00628757, -0.00140717, -0.00140717, -0.00140717
2796, 1,0.00521557, 0.00145746, 0.000972699, 325.718, 92.7618, 0.0307147, 479.272, -160.931, 0.447496, 0.000975753, 0.00667229, 0.00444748, 418.006, -139.077, 0, 0.000974559, 0.00375942, 0.00251618, 233.807, -77.752, 0, 0.00097359, -0.27832, 35.4256, 382.085, -0.0481054, 26.6147, 206.689, -0.00219074, -0.00167453, 0.00612189, -0.00121972, -0.00121972, -0.00121972
2797, 1,0.00740861, 0.00193603, 0.00130197, 349.049, 113.641, 0.0600919, 513.737, -197.241, 0.9483, 0.00107947, 0.00934146, 0.00641118, 462.203, -155.244, 0.0406079, 0.00107493, 0.00547797, 0.00381319, 236.38, -81.2831, 0.0368108, 0.0010736, -1.3036, 49.4483, 417.588, 1.48149, 36.718, 205.65, -0.00347057, -0.0024034, 0.00845145, -0.0021349, -0.0021349, -0.0021349
2798, 1,0.00698982, 0.00182661, 0.00123255, 345.688, 109.884, 0.0583381, 523.559, -216.79, 0.926672, 0.0010465, 0.00880841, 0.00598877, 454.728, -151.689, 0.0314017, 0.00104151, 0.0051767, 0.00356051, 237.447, -81.193, 0.0297385, 0.00104029, -0.711643, 53.5049, 402.272, 3.7752, 41.2039, 198.6, -0.00316547, -0.00213821, 0.00780891, -0.00188924, -0.00188924, -0.00188924
2799, 1,0.00655773, 0.00172308, 0.00115807, 342.555, 106.407, 0.0550365, 515.58, -206.695, 0.874911, 0.00101203, 0.00827253, 0.00564314, 448.003, -148.921, 0.0224166, 0.00100788, 0.00484866, 0.00334254, 237.98, -79.9567, 0.0219848, 0.00100674, -3.96896, 53.2597, 397.472, -0.640447, 41.3882, 199.122, -0.00298202, -0.00195024, 0.00737926, -0.00179915, -0.00179915, -0.00179915
2800, 1,0.00603322, 0.001605, 0.00107279, 347.437, 101.713, 0.0501266, 493.897, -172.604, 0.789585, 0.000976622, 0.0076361, 0.00518758, 448.379, -141.104, 0.00710591, 0.000973981, 0.00443185, 0.00304573, 247.109, -74.3478, 0.00710591, 0.000972922, -15.409, 32.0416, 406.679, -14.3562, 23.4271, 213.973, -0.00271776, -0.00200311, 0.00701946, -0.00164094, -0.00164094, -0.00164094
2801, 1,0.00856424, 0.0022545, 0.00153676, 348.268, 116.023, 0.0679266, 608.557, -201.784, 1, 0.00107953, 0.0108176, 0.0075214, 463.985, -156.188, 0.0700232, 0.00107439, 0.00631171, 0.00445343, 232.861, -78.9922, 0.0552873, 0.00107298, -0.943854, 46.8458, 422.662, 0.0593975, 30.9566, 205.961, -0.00421369, -0.00300011, 0.00985122, -0.00257591, -0.00257591, -0.00257591
2802, 1,0.00801675, 0.00206199, 0.00140953, 344.902, 114.207, 0.0675109, 606.059, -208.2, 1, 0.0010466, 0.0100739, 0.00697093, 458.53, -148.189, 0.0549925, 0.00104121, 0.00596287, 0.00418377, 231.842, -75.1202, 0.0475612, 0.00103993, -8.20229, 46.3196, 406.449, -2.36299, 31.9584, 195.765, -0.0038566, -0.00261534, 0.00895257, -0.00234354, -0.00234354, -0.00234354
2803, 1,0.00794644, 0.00190615, 0.00129918, 345.346, 111.978, 0.0670309, 599.971, -213.176, 1, 0.00101297, 0.00984322, 0.00682291, 456.614, -146.641, 0.0504997, 0.00100754, 0.00605529, 0.00424186, 234.758, -76.0289, 0.0483798, 0.00100635, -10.051, 44.8383, 405.136, -2.61734, 33.0587, 197.645, -0.00376042, -0.00257099, 0.0087797, -0.0023813, -0.0023813, -0.0023813
2804, 1,0.00799863, 0.00178659, 0.00120002, 349.65, 108.788, 0.0649425, 536.217, -188.518, 1, 0.000977783, 0.00977724, 0.00675461, 457.899, -154.968, 0.0506995, 0.000973555, 0.00622442, 0.00436895, 241.905, -84.4828, 0.0505556, 0.000972409, 0.562505, 45.6565, 418.685, 4.09367, 35.8834, 213.471, -0.00367499, -0.00273658, 0.00899915, -0.00245432, -0.00245432, -0.00245432
2805, 1,0.0106377, 0.00267576, 0.0018499, 349.487, 116.704, 0.0714237, 710.485, -240.558, 1, 0.00108045, 0.0133117, 0.00941615, 465.983, -157.738, 0.119123, 0.00107389, 0.00796502, 0.00573391, 233.201, -79.8441, 0.0898697, 0.00107241, 0.704819, 42.9233, 429.585, 1.75362, 27.5265, 210.252, -0.00542387, -0.00403384, 0.0121994, -0.00337647, -0.00337647, -0.00337647
2806, 1,0.0103036, 0.00250796, 0.00173363, 345.193, 115.72, 0.0710461, 698.314, -234.341, 1, 0.00104712, 0.0128011, 0.00901974, 460.431, -149.201, 0.10925, 0.00104083, 0.00781237, 0.00559218, 230.431, -74.1469, 0.0871408, 0.00103947, -7.32587, 46.8567, 408.071, -3.07437, 30.2424, 195.273, -0.00518979, -0.00345765, 0.0112255, -0.00327135, -0.00327135, -0.00327135
2807, 1,0.0104978, 0.00227685, 0.00157015, 349.081, 114.291, 0.070663, 684.428, -226.575, 1, 0.00101298, 0.0127683, 0.00902022, 463.073, -154.708, 0.108558, 0.00100727, 0.00823063, 0.00589267, 235.386, -80.3424, 0.0945459, 0.00100597, -2.86684, 49.4395, 417.552, 1.90304, 33.0866, 206.038, -0.00519791, -0.00356225, 0.0114322, -0.00348184, -0.00348184, -0.00348184
2808, 1,0.00985493, 0.00206487, 0.00140431, 347.046, 113.41, 0.0682653, 617.925, -205.219, 1, 0.000977881, 0.0119128, 0.00835051, 460.188, -151.137, 0.0907971, 0.00097305, 0.00780052, 0.00559067, 234.158, -76.65, 0.0837431, 0.000971807, -3.43732, 31.7728, 425.075, -1.37109, 20.4291, 210.892, -0.00465504, -0.00376579, 0.0110038, -0.00318687, -0.00318687, -0.00318687
2809, 1,0.0170204, 0.00326524, 0.00227765, 353.288, 116.771, 0.075041, 811.135, -274.773, 1, 0.00108052, 0.0202723, 0.0147388, 469.888, -162.415, 0.255026, 0.00107296, 0.0137744, 0.0102173, 236.86, -82.7618, 0.209227, 0.0010713, 4.5852, 43.4931, 439.168, 3.64376, 27.1668, 217.475, -0.00887654, -0.00674808, 0.018697, -0.00631361, -0.00631361, -0.00631361
2810, 1,0.0155671, 0.00313904, 0.00218074, 350.758, 116.477, 0.0745372, 795.545, -268.17, 1, 0.00104643, 0.0186849, 0.0134512, 466.929, -157.768, 0.22441, 0.00103921, 0.0124595, 0.00918031, 234.888, -79.8454, 0.182909, 0.00103767, 9.8647, 42.0379, 421.402, 7.9829, 26.1564, 205.397, -0.00753458, -0.00604792, 0.0165088, -0.00510446, -0.00510446, -0.00510446
2811, 1,0.0145812, 0.0028725, 0.00199937, 349.625, 115.985, 0.073792, 773.891, -259.492, 1, 0.00101239, 0.0174446, 0.0125384, 465.434, -156.231, 0.199791, 0.00100566, 0.0117219, 0.00864329, 233.986, -78.2681, 0.166524, 0.0010042, 7.25629, 36.4364, 425.001, 5.76151, 20.2431, 208.8, -0.00700811, -0.00582157, 0.0156826, -0.00477301, -0.00477301, -0.00477301
2812, 1,0.0139569, 0.00254179, 0.00175725, 351.606, 115.145, 0.0714695, 705.599, -232.87, 1, 0.000977882, 0.0164899, 0.011823, 466.636, -159.633, 0.180685, 0.000972354, 0.0114274, 0.00836888, 236.686, -81.7432, 0.158903, 0.000970969, 4.40418, 35.6026, 438.892, 4.18243, 21.3859, 219.661, -0.00686981, -0.00563719, 0.0153874, -0.00494858, -0.00494858, -0.00494858
2813, 1,0.0266395, 0.00406383, 0.0028499, 360.297, 117.407, 0.0777522, 887.135, -300.491, 1, 0.00107986, 0.0306859, 0.0224314, 477.622, -172.005, 0.453122, 0.001072, 0.022599, 0.0167776, 243.054, -90.0489, 0.388578, 0.00107, 20.0628, 38.8547, 457.097, 14.5443, 25.0823, 230.52, -0.0134131, -0.0118594, 0.0290076, -0.0102305, -0.0102305, -0.0102305
2814, 1,0.0260505, 0.00405149, 0.00283737, 360.541, 118.127, 0.0782193, 901.981, -307.471, 1, 0.0010451, 0.0300627, 0.022597, 478.499, -175.237, 0.444169, 0.00103729, 0.0220514, 0.0170147, 242.749, -90.8251, 0.380862, 0.00103531, 45.0939, 34.404, 446.213, 28.6005, 21.5549, 222.32, -0.0111386, -0.0124718, 0.0273906, -0.00818375, -0.00818375, -0.00818375
2815, 1,0.023843, 0.00376355, 0.00261463, 359.649, 117.911, 0.0767083, 863.197, -297.53, 1, 0.001011, 0.0275834, 0.0207772, 477.439, -174.81, 0.397297, 0.00100367, 0.0201103, 0.0156171, 241.977, -90.4163, 0.341149, 0.00100183, 46.103, 31.1589, 447.168, 29.779, 18.2419, 223.228, -0.0100095, -0.0116491, 0.0253028, -0.00719897, -0.00719897, -0.00719897
2816, 1,0.0210741, 0.00329872, 0.00231105, 353.463, 116.425, 0.0741161, 784.588, -264.66, 1, 0.000977483, 0.0243574, 0.0180264, 469.811, -162.511, 0.33283, 0.00097117, 0.0177962, 0.0135441, 237.187, -81.9898, 0.290012, 0.000969569, 14.1072, 23.9976, 449.43, 9.32102, 11.9162, 224.732, -0.010127, -0.00969341, 0.0230586, -0.00750019, -0.00750019, -0.00750019
2817, 1,0.0343937, 0.00512966, 0.00362253, 364.707, 119.488, 0.0802721, 955.635, -321.373, 1, 0.00107841, 0.0395066, 0.0291732, 484.141, -178.805, 0.614157, 0.00107048, 0.0292863, 0.0219856, 245.329, -92.334, 0.522623, 0.00106802, 33.598, 31.7759, 471.041, 20.5111, 19.2779, 237.213, -0.0166228, -0.0170475, 0.0380843, -0.012709, -0.012709, -0.012709
2818, 1,0.0360283, 0.0050834, 0.00361369, 372.285, 120.397, 0.0811713, 982.133, -330.67, 1, 0.00104311, 0.0410812, 0.0314968, 492.607, -195.433, 0.648041, 0.00103565, 0.0309845, 0.0243417, 252.037, -105.028, 0.562529, 0.00103308, 75.8225, 33.915, 476.562, 48.2307, 24.7918, 242.061, -0.0142273, -0.0200042, 0.0391991, -0.0108305, -0.0108305, -0.0108305
2819, 1,0.0344391, 0.00483245, 0.00340306, 377.063, 121.016, 0.0796781, 949.8, -328.939, 1, 0.00100942, 0.0392374, 0.0300958, 497.997, -205.833, 0.616499, 0.00100239, 0.0296507, 0.0233735, 256.212, -112.575, 0.537359, 0.00099991, 88.3911, 47.2184, 481.891, 57.798, 33.803, 246.125, -0.0133948, -0.0189283, 0.0374147, -0.010101, -0.010101, -0.010101
2820, 1,0.0309278, 0.00427723, 0.00298056, 364.4, 118.745, 0.0770363, 869.809, -296.552, 1, 0.000976369, 0.0351625, 0.0263638, 483.036, -181.044, 0.536945, 0.000969855, 0.0267054, 0.0205261, 245.87, -94.5546, 0.472344, 0.000967811, 39.5551, 34.8741, 468.702, 25.6544, 21.6461, 236.363, -0.0143807, -0.0151845, 0.0337597, -0.0110994, -0.0110994, -0.0110994
2821, 1,0.034597, 0.00573406, 0.0041134, 359.78, 120.822, 0.0803722, 958.614, -322.529, 1, 0.00111452, 0.0402946, 0.0298406, 480.491, -171.193, 0.626514, 0.00110611, 0.0289129, 0.0217073, 239.176, -82.054, 0.513796, 0.00110345, 25.8003, 17.2517, 470.528, 8.57584, 5.43163, 232.154, -0.0168296, -0.0180588, 0.0391596, -0.0125878, -0.0125878, -0.0125878
2822, 1,0.0368186, 0.00585945, 0.00427592, 365.156, 123.251, 0.0817494, 999.866, -337.555, 1, 0.00107777, 0.0426448, 0.0328998, 488.315, -186.232, 0.67373, 0.00106966, 0.0310041, 0.0244262, 242.085, -88.321, 0.560225, 0.00106672, 66.4278, 12.8085, 479.459, 28.5734, 0.494961, 235.895, -0.0146466, -0.0220788, 0.0415681, -0.0110694, -0.0110694, -0.0110694
2823, 1,0.0369698, 0.0055486, 0.00402401, 372.67, 122.973, 0.0802421, 958.284, -323.578, 1, 0.00104217, 0.0424909, 0.0327443, 495.575, -199.165, 0.672568, 0.0010352, 0.0314576, 0.0247694, 249.833, -101.239, 0.570633, 0.00103235, 81.251, 28.3261, 487.917, 43.6889, 15.3917, 244.636, -0.0144811, -0.0219093, 0.0415641, -0.0110548, -0.0110548, -0.0110548
2824, 1,0.0340261, 0.00487438, 0.00343915, 371.685, 119.772, 0.0776719, 892.041, -307.651, 1, 0.00100962, 0.0388609, 0.029216, 491.362, -192.818, 0.604874, 0.001003, 0.0292034, 0.0224236, 252.106, -104.303, 0.523441, 0.00100067, 56.1332, 39.78, 482.542, 38.1676, 28.7443, 245.999, -0.015479, -0.0176976, 0.0379, -0.0118958, -0.0118958, -0.0118958
2825, 1,0.0343578, 0.00513521, 0.00365217, 372.275, 119.672, 0.077307, 880.477, -303.476, 1, 0.00101079, 0.03946, 0.0294419, 491.864, -192.605, 0.614764, 0.00100436, 0.0292663, 0.0222322, 252.769, -105.026, 0.52375, 0.001002, 57.6879, 37.0481, 483.08, 39.8753, 28.3833, 246.821, -0.0154837, -0.0182314, 0.0384728, -0.011743, -0.011743, -0.011743
2826, 1,0.0373297, 0.00565231, 0.00411508, 373.613, 122.82, 0.0804484, 961.431, -322.641, 1, 0.00104353, 0.0429442, 0.0330226, 496.344, -200.11, 0.680435, 0.00103665, 0.0317277, 0.0248864, 250.971, -102.862, 0.575797, 0.00103378, 82.6487, 30.3309, 487.351, 45.2079, 18.5863, 244.792, -0.0145899, -0.0220014, 0.0418265, -0.0112105, -0.0112105, -0.0112105
2827, 1,0.0377943, 0.00579675, 0.00421564, 371.76, 122.879, 0.0813176, 985.229, -329.725, 1, 0.00107884, 0.0435576, 0.0336044, 494.558, -196.794, 0.691092, 0.00107141, 0.032042, 0.0252539, 249.041, -99.8244, 0.582219, 0.00106842, 78.7071, 25.7541, 485.922, 42.1769, 14.1518, 243.144, -0.0148481, -0.0224293, 0.0424757, -0.0112635, -0.0112635, -0.0112635
2828, 1,0.0358028, 0.00552449, 0.00391968, 368.64, 120.591, 0.0806213, 965.909, -324.991, 1, 0.00111612, 0.041296, 0.0308048, 489.148, -186.328, 0.646281, 0.00110811, 0.0303202, 0.0230308, 248.213, -97.1507, 0.543662, 0.00110538, 43.4099, 35.2333, 480.341, 26.7151, 22.508, 242.229, -0.0171537, -0.018386, 0.040269, -0.0130148, -0.0130148, -0.0130148
2829, 1,0.0314713, 0.00447789, 0.00314418, 358.102, 118.699, 0.0766054, 853.303, -286.863, 1, 0.000976088, 0.0359339, 0.0268415, 476.748, -169.633, 0.549711, 0.000969703, 0.0270133, 0.0206248, 239.505, -83.5393, 0.476927, 0.000967647, 26.7706, 18.5504, 463.578, 12.844, 6.45735, 231.317, -0.0147673, -0.0159172, 0.034655, -0.0113303, -0.0113303, -0.0113303
2830, 1,0.0344644, 0.00487799, 0.00345643, 373.805, 120.699, 0.0796008, 945.455, -325.722, 1, 0.0010092, 0.0393128, 0.0300862, 494.43, -199.56, 0.616802, 0.00100214, 0.0296249, 0.0232476, 253.255, -107.321, 0.535423, 0.000999682, 81.0272, 39.4961, 478.158, 51.1652, 27.6379, 243.161, -0.013513, -0.019031, 0.0374818, -0.0102641, -0.0102641, -0.0102641
2831, 1,0.0350784, 0.00503814, 0.0035791, 373.324, 120.68, 0.0807878, 977.725, -335.581, 1, 0.0010432, 0.0400817, 0.0307063, 493.917, -198.134, 0.630512, 0.00103555, 0.0300856, 0.0236285, 252.819, -106.521, 0.544811, 0.00103299, 78.3731, 39.0027, 477.025, 49.7308, 27.6394, 242.194, -0.0139264, -0.0192581, 0.0381448, -0.0105449, -0.0105449, -0.0105449
2832, 1,0.0337129, 0.00493358, 0.00346344, 362.506, 119.166, 0.080518, 962.485, -323.591, 1, 0.00107848, 0.0386268, 0.0286478, 481.608, -175.665, 0.598298, 0.00107031, 0.0288052, 0.0217792, 243.465, -89.4799, 0.512805, 0.00106791, 27.7067, 30.3993, 468.889, 16.0385, 16.9889, 235.412, -0.016559, -0.0164543, 0.0372924, -0.0127231, -0.0127231, -0.0127231
2833, 1,0.0226571, 0.0035044, 0.00244463, 356.654, 116.828, 0.0738075, 780.367, -267.85, 1, 0.000977355, 0.0261448, 0.0191352, 473.4, -167.151, 0.366992, 0.000971096, 0.0191751, 0.0143285, 239.991, -85.8469, 0.318151, 0.000969431, 18.1939, 30.2412, 453.017, 12.421, 17.5623, 227.557, -0.0110165, -0.0103247, 0.0247516, -0.00827338, -0.00827338, -0.00827338
2834, 1,0.0241302, 0.00389568, 0.0027313, 358.06, 118.118, 0.0766725, 860.113, -294.657, 1, 0.00101077, 0.0279835, 0.0209845, 475.977, -171.627, 0.40449, 0.00100349, 0.0202917, 0.0156223, 240.336, -87.239, 0.344416, 0.00100165, 40.0933, 31.6282, 443.158, 24.1326, 18.3405, 219.244, -0.0104097, -0.0114746, 0.0254807, -0.00756533, -0.00756533, -0.00756533
2835, 1,0.024811, 0.00405233, 0.00284281, 359.996, 118.286, 0.0779675, 894.353, -304.255, 1, 0.00104495, 0.0288221, 0.0216053, 478.081, -174.581, 0.420643, 0.00103717, 0.0208143, 0.0160167, 242.107, -90.0728, 0.355654, 0.00103523, 43.4492, 35.425, 444.869, 27.3227, 22.1838, 220.712, -0.0107324, -0.0117743, 0.0262081, -0.00777428, -0.00777428, -0.00777428
2836, 1,0.0246644, 0.00394086, 0.00276177, 357.116, 117.388, 0.0777739, 891.717, -305.999, 1, 0.00107999, 0.0285758, 0.0209437, 474.359, -167.338, 0.413278, 0.0010717, 0.0207633, 0.0155146, 240.015, -85.6187, 0.351331, 0.00106977, 17.3445, 33.3734, 451.297, 11.6016, 20.1376, 225.117, -0.0122249, -0.0110754, 0.0268292, -0.00910727, -0.00910727, -0.00910727
2837, 1,0.0150291, 0.00278315, 0.00192765, 351.318, 115.764, 0.071223, 701.802, -234.713, 1, 0.00097782, 0.0178053, 0.012837, 466.976, -159.141, 0.206379, 0.000972263, 0.0122557, 0.00903022, 235.763, -80.6465, 0.176446, 0.000970838, 3.53721, 34.7592, 439.126, 2.95544, 20.195, 218.789, -0.00752823, -0.00615404, 0.0166004, -0.00538584, -0.00538584, -0.00538584
2838, 1,0.0151253, 0.00299165, 0.0020796, 352.57, 116.386, 0.0737963, 773.603, -259.336, 1, 0.00101236, 0.0181013, 0.0130111, 468.726, -161.231, 0.212819, 0.00100575, 0.0121565, 0.00895001, 236.64, -82.684, 0.175894, 0.00100426, 14.0993, 42.9712, 426.623, 11.5147, 26.4182, 210.119, -0.0072224, -0.00598645, 0.0161775, -0.00490835, -0.00490835, -0.00490835
2839, 1,0.0155797, 0.00308723, 0.00214581, 351.619, 116.181, 0.0748635, 802.737, -268.753, 1, 0.00104644, 0.0186557, 0.0134018, 467.598, -158.971, 0.223378, 0.00103923, 0.0125088, 0.00919505, 235.839, -81.306, 0.183084, 0.00103769, 11.6934, 39.5896, 425.631, 9.75993, 24.5693, 209.589, -0.00748592, -0.00624921, 0.0166819, -0.00509982, -0.00509982, -0.00509982
2840, 1,0.0154646, 0.00309236, 0.00216143, 351.724, 116.538, 0.0749483, 805.65, -269.862, 1, 0.00108032, 0.0185511, 0.0134218, 468.135, -159.976, 0.22087, 0.00107284, 0.0123808, 0.00914248, 235.436, -80.9239, 0.179599, 0.00107123, 3.50482, 37.2892, 439.135, 2.96622, 22.3111, 217.494, -0.00794003, -0.00634214, 0.0172427, -0.00550654, -0.00550654, -0.00550654
2841, 1,0.010213, 0.00226474, 0.00154677, 348.008, 114.937, 0.0682515, 617.685, -205.255, 1, 0.00097784, 0.0124731, 0.00878244, 462.697, -154.011, 0.102111, 0.000973074, 0.00795533, 0.00570924, 233.561, -77.6848, 0.0880452, 0.000971786, -3.78908, 39.5168, 426.306, -1.98329, 25.0926, 209.945, -0.00504527, -0.00376982, 0.011465, -0.00338841, -0.00338841, -0.00338841
2842, 1,0.0104843, 0.00236214, 0.00162815, 348.209, 114.962, 0.0705125, 682.578, -228.399, 1, 0.00101304, 0.0128357, 0.00902625, 462.764, -153.656, 0.109835, 0.00100725, 0.00813874, 0.00578785, 234.056, -78.7806, 0.0930613, 0.00100593, -3.18181, 50.4393, 413.712, 0.99236, 33.7211, 201.628, -0.0052107, -0.00350865, 0.0113753, -0.00342953, -0.00342953, -0.00342953
2843, 1,0.0104835, 0.00245855, 0.00169643, 346.557, 115.488, 0.0714207, 708.993, -238.403, 1, 0.00104729, 0.0129342, 0.00909711, 461.644, -151.313, 0.111736, 0.00104089, 0.00803736, 0.00572668, 231.868, -75.9805, 0.0912905, 0.00103952, -3.67559, 46.4835, 411.131, -0.760082, 30.1572, 198.544, -0.00519517, -0.00360584, 0.0114194, -0.0033497, -0.0033497, -0.0033497
2844, 1,0.0111128, 0.0025397, 0.00175063, 350.623, 115.983, 0.0717313, 716.065, -239.619, 1, 0.00108045, 0.0136503, 0.00963665, 466.411, -158.947, 0.125521, 0.00107396, 0.00857644, 0.00614315, 235.03, -81.3235, 0.101583, 0.00107248, 3.04118, 42.9012, 430.9, 3.36752, 27.962, 212.641, -0.00554488, -0.00423907, 0.0125572, -0.00364741, -0.00364741, -0.00364741
2845, 1,0.00797636, 0.00188807, 0.001273, 348.803, 112.219, 0.0648995, 537.94, -191.949, 1, 0.000977785, 0.00986048, 0.00680841, 460.595, -153, 0.0506237, 0.000973402, 0.00609457, 0.00426874, 237.426, -80.5053, 0.0484983, 0.000972223, -4.32222, 42.4932, 420.83, -0.0176766, 31.6465, 209.887, -0.00375485, -0.00275287, 0.00906247, -0.00243926, -0.00243926, -0.00243926
2846, 1,0.00798932, 0.00195572, 0.00133525, 343.649, 112.789, 0.0669627, 597.344, -211.826, 1, 0.00101287, 0.00993532, 0.00690898, 455.702, -144.382, 0.0519101, 0.00100745, 0.00604931, 0.00425613, 232.303, -73.2849, 0.0483697, 0.00100625, -14.5806, 44.993, 402.734, -6.69025, 32.3439, 194.201, -0.00387534, -0.00253859, 0.00882654, -0.00244817, -0.00244817, -0.00244817
2847, 1,0.00838516, 0.00202737, 0.00138538, 348.486, 113.537, 0.0678275, 613.27, -209.179, 1, 0.00104663, 0.0104075, 0.00719966, 461.517, -153.373, 0.0616401, 0.0010413, 0.00636588, 0.00445259, 235.954, -80.6462, 0.0554556, 0.00104002, -0.721766, 49.6229, 411.219, 4.42542, 35.8681, 201.645, -0.00393843, -0.00277823, 0.00929395, -0.00246994, -0.00246994, -0.00246994
2848, 1,0.00898906, 0.00213235, 0.00144729, 347.409, 114.854, 0.0682701, 615.599, -201.795, 1, 0.00107954, 0.0111172, 0.00772731, 461.877, -153.275, 0.075883, 0.00107436, 0.00686344, 0.00484644, 233.32, -77.2265, 0.0659897, 0.00107297, -0.849326, 41.6987, 418.976, -0.19867, 27.4492, 204.429, -0.00427581, -0.00322323, 0.010096, -0.0027666, -0.0027666, -0.0027666
2849, 1,0.00670314, 0.00170309, 0.001139, 341.776, 105.88, 0.0504989, 494.606, -173.539, 0.795858, 0.000976578, 0.00840264, 0.00572181, 447.095, -147.124, 0.0250155, 0.000973999, 0.00500602, 0.00344998, 236.961, -77.5472, 0.0247093, 0.000972884, -5.41263, 39.9436, 406.841, -3.87966, 29.2397, 207.282, -0.00304097, -0.00222914, 0.00769113, -0.00189298, -0.00189298, -0.00189298
2850, 1,0.00688895, 0.00175427, 0.00118179, 345.556, 107.429, 0.0552592, 516.415, -207.895, 0.878466, 0.00101203, 0.00863498, 0.00587429, 452.162, -152.277, 0.0286799, 0.00100788, 0.00514835, 0.00353096, 239.71, -82.9317, 0.0280741, 0.00100673, -0.200486, 54.4631, 402.569, 3.86107, 42.3684, 202.566, -0.00310775, -0.00209194, 0.00771077, -0.00189132, -0.00189132, -0.00189132
2851, 1,0.00717387, 0.00179256, 0.00121016, 344.367, 108.835, 0.0590544, 524.614, -217.857, 0.937514, 0.00104663, 0.00895857, 0.00613861, 452.413, -148.171, 0.0340565, 0.00104145, 0.0053942, 0.00372873, 237.055, -78.6077, 0.0332904, 0.00104025, -5.55576, 49.2238, 400.844, -0.662375, 37.51, 198.975, -0.00329547, -0.00222378, 0.00797008, -0.0020478, -0.0020478, -0.0020478
2852, 1,0.00711487, 0.00183186, 0.0012288, 348.119, 112.015, 0.0608457, 514.41, -197.411, 0.959267, 0.00107961, 0.00894357, 0.00612757, 459.569, -151.916, 0.0326861, 0.00107489, 0.0052883, 0.00367563, 237.214, -79.3205, 0.0317735, 0.0010736, -3.77679, 45.068, 414.456, -0.940612, 33.7085, 205.194, -0.00327805, -0.00233383, 0.00812272, -0.00203425, -0.00203425, -0.00203425
2853, 1,0.00572248, 0.00156074, 0.00104069, 331.877, 97.8705, 0.0311932, 480.078, -161.927, 0.456394, 0.000975705, 0.00727991, 0.00490058, 429.175, -142.165, 0.0086782, 0.000974528, 0.0041675, 0.00282543, 235.059, -77.3626, 0.00821525, 0.000973499, -3.54554, 40.3174, 389.724, -3.34306, 30.1931, 205.238, -0.00252042, -0.00175858, 0.00659704, -0.00148169, -0.00148169, -0.00148169
2854, 1,0.00599828, 0.00161404, 0.00107805, 331.688, 100.121, 0.0333033, 479.367, -160.683, 0.496599, 0.00100958, 0.00760497, 0.00515634, 431.037, -140.279, 0.0129264, 0.00100826, 0.00439686, 0.00301224, 232.997, -74.3189, 0.0121392, 0.00100717, -8.48953, 45.0118, 384.315, -7.60239, 33.2535, 197.305, -0.00270584, -0.00174136, 0.00673996, -0.00162455, -0.00162455, -0.00162455
2855, 1,0.0059847, 0.00164803, 0.00110108, 334.912, 102.257, 0.036169, 481.777, -162.83, 0.548892, 0.00104349, 0.00762701, 0.00516352, 436.411, -144.137, 0.0121267, 0.00104198, 0.00434668, 0.00297081, 234.08, -76.7357, 0.011243, 0.00104083, -4.66755, 48.4436, 388.634, -3.98523, 36.1791, 198.013, -0.00267399, -0.00172991, 0.00675867, -0.00157177, -0.00157177, -0.00157177
2856, 1,0.00600328, 0.00168245, 0.00112044, 338.756, 105.657, 0.0387433, 478.983, -155.191, 0.592689, 0.00107706, 0.00768236, 0.00519232, 443.773, -144.459, 0.0110448, 0.00107555, 0.00432678, 0.00295781, 234.31, -74.5043, 0.0107405, 0.00107432, -6.19101, 39.7426, 399.826, -6.3749, 28.2308, 201.657, -0.00267878, -0.00188286, 0.00692024, -0.00156854, -0.00156854, -0.00156854
2857, 1,0.00501786, 0.00141989, 0.000945652, 311.598, 89.7387, 0.0179195, 470.687, -155.681, 0.205251, 0.000975612, 0.00643389, 0.00431679, 400.78, -130.642, 0.000100559, 0.000974897, 0.00360487, 0.00243152, 222.863, -71.5351, 5.00564E-05, 0.000973963, -6.43481, 35.5725, 362.788, -5.94376, 26.7705, 193.778, -0.00219381, -0.00145576, 0.00576952, -0.00125172, -0.00125172, -0.00125172
2858, 1,0.00499772, 0.00146527, 0.000976531, 308.955, 92.486, 0.0176059, 468.799, -152.902, 0.199146, 0.00100932, 0.00645789, 0.00435043, 400.818, -130.306, 5.3829E-06, 0.00100863, 0.00354178, 0.00240545, 217.622, -69.6138, 1.37212E-06, 0.00100764, -9.0618, 41.9181, 358.062, -8.23095, 31.5075, 185.565, -0.00224188, -0.00133403, 0.00569032, -0.00126868, -0.00126868, -0.00126868
2859, 1,0.00505998, 0.00150418, 0.00100186, 311.276, 94.9671, 0.0179853, 465.913, -147.709, 0.206073, 0.00104296, 0.00655973, 0.00443262, 405.66, -130.595, 4.20857E-06, 0.00104234, 0.003564, 0.00243544, 217.4, -68.172, 1.23011E-06, 0.00104129, -10.986, 40.2753, 362.495, -10.4255, 29.4177, 185.524, -0.00229214, -0.00137134, 0.00578259, -0.00129731, -0.00129731, -0.00129731
2860, 1,0.00518273, 0.0015438, 0.00102742, 324.728, 97.6429, 0.0197068, 473.361, -158.72, 0.239826, 0.00107693, 0.0067229, 0.0044816, 421.817, -140.557, 1.38375E-09, 0.00107619, 0.00364563, 0.0024335, 228.119, -76.1485, 1.38375E-09, 0.00107506, -0.0576757, 40.5971, 381.132, 0.0586306, 30.4366, 197.95, -0.00221799, -0.00150815, 0.00600691, -0.00120138, -0.00120138, -0.00120138
2861, 1,0.00453, 0.00129429, 0.000861637, 284.239, 81.8267, 0.0118819, 465.931, -153.6, 0.0882405, 0.000975868, 0.00581993, 0.0038736, 365.566, -122.202, -3.38813E-21, 0.000975245, 0.00324355, 0.00215879, 203.316, -68.1456, -3.38813E-21, 0.00097439, -0.0863976, 35.9605, 330.731, 0.0347653, 27.5468, 176.855, -0.00192547, -0.00127873, 0.00518708, -0.00107189, -0.00107189, -0.00107189
2862, 1,0.00455852, 0.00134013, 0.000892008, 284.146, 84.6948, 0.0117935, 461.514, -146.631, 0.086242, 0.00100954, 0.00589358, 0.00393049, 368.316, -122.01, -2.71051E-20, 0.00100901, 0.00322767, 0.00215589, 200.422, -65.9792, -2.71051E-20, 0.0010081, -2.16085, 38.7422, 329.447, -2.15085, 28.5815, 171.507, -0.00196602, -0.00122643, 0.00517223, -0.00108364, -0.00108364, -0.00108364
2863, 1,0.00460577, 0.00137844, 0.000917683, 288.057, 87.13, 0.011998, 463.843, -150.106, 0.0903769, 0.00104338, 0.0059796, 0.00398043, 374.697, -125.23, -2.71051E-20, 0.00104282, 0.00323587, 0.00215893, 201.842, -67.5105, -2.71051E-20, 0.00104185, 0.477908, 39.4609, 335.75, 0.261611, 28.8616, 173.408, -0.00196332, -0.00125988, 0.00525524, -0.00105903, -0.00105903, -0.00105903
2864, 1,0.00472024, 0.00141512, 0.000942306, 294.519, 89.4246, 0.0128047, 466.544, -153.542, 0.106167, 0.00107723, 0.00613062, 0.00409425, 383.424, -126.647, 0, 0.00107659, 0.00331391, 0.00222113, 206.065, -67.4973, 0, 0.00107556, -2.16775, 36.3055, 345.803, -2.37129, 26.7088, 178.154, -0.00204254, -0.0013408, 0.00543841, -0.00111547, -0.00111547, -0.00111547
2865, 1,0.00409657, 0.00117564, 0.000783996, 256.798, 74.2259, 0.00881688, 460.126, -148.289, 0.0282654, 0.000976114, 0.00526696, 0.00351078, 330.521, -110.016, 0, 0.000975471, 0.00293039, 0.00195605, 183.486, -61.0599, 0, 0.000974696, -0.914954, 32.9035, 298.059, -0.850937, 25.4653, 158.565, -0.00175146, -0.00112729, 0.0046639, -0.00097935, -0.00097935, -0.00097935
2866, 1,0.00410934, 0.00121839, 0.000812237, 258.691, 76.9144, 0.00866178, 455.98, -142, 0.0249895, 0.00100983, 0.00532228, 0.00353954, 335.11, -112.975, 0, 0.00100932, 0.00290098, 0.00192989, 182.697, -62.1481, 0, 0.00100849, 1.84777, 37.7733, 299.304, 1.80066, 28.5981, 156.045, -0.00173892, -0.00107338, 0.00464549, -0.000939638, -0.000939638, -0.000939638
2867, 1,0.00417353, 0.00125525, 0.00083689, 261.874, 79.2291, 0.00891403, 456.952, -143.072, 0.0299326, 0.00104367, 0.00542339, 0.00361108, 340.614, -114.045, 0, 0.00104313, 0.00292831, 0.00195168, 183.562, -61.6624, 0, 0.00104225, 0.181164, 37.6726, 304.281, -0.0387506, 28.2007, 156.825, -0.00179242, -0.00109134, 0.00473432, -0.000972248, -0.000972248, -0.000972248
2868, 1,0.0042143, 0.00128729, 0.000858415, 265.225, 81.2254, 0.00945204, 464.653, -154.626, 0.0409607, 0.0010777, 0.00549635, 0.00365155, 345.959, -116.425, 0, 0.00107697, 0.00293687, 0.00194983, 184.93, -62.7865, 0, 0.00107604, 1.82227, 35.9128, 311.539, 1.6267, 27.2448, 159.488, -0.00179632, -0.0011629, 0.00484842, -0.000955844, -0.000955844, -0.000955844
2869, 1,0.00365834, 0.00105751, 0.00070593, 230.255, 66.7303, 0.00703275, 436.385, -139.632, 0, 0.000976355, 0.00471046, 0.00313915, 296.499, -99.3992, 0, 0.000975718, 0.00261059, 0.0017419, 164.41, -55.4526, 0, 0.000975023, 1.33493, 29.8164, 267.046, 1.39468, 23.3627, 141.6, -0.00153686, -0.00101029, 0.00416002, -0.000843681, -0.000843681, -0.000843681
2870, 1,0.00371294, 0.00109607, 0.000731269, 232.868, 69.1677, 0.00702018, 430.349, -132.267, 0, 0.00101009, 0.00480339, 0.00319944, 301.55, -100.38, 0, 0.00100957, 0.00262719, 0.00175203, 164.597, -54.7239, 0, 0.00100882, -0.595174, 33.0372, 268.697, -0.63831, 24.9806, 139.829, -0.00159224, -0.000958637, 0.00417968, -0.000874288, -0.000874288, -0.000874288
2871, 1,0.00373635, 0.00112959, 0.000753774, 235.015, 71.265, 0.00705628, 432.407, -132.732, 0, 0.00104396, 0.00486037, 0.00323088, 305.805, -102.519, 0, 0.00104345, 0.00261716, 0.00173964, 164.64, -55.4478, 0, 0.00104265, 1.11566, 33.7767, 272.665, 0.897619, 25.4068, 140.039, -0.00159055, -0.000973841, 0.00422793, -0.000853979, -0.000853979, -0.000853979
2872, 1,0.00376454, 0.00115961, 0.000774196, 236.419, 73.1034, 0.00726084, 447.965, -140.749, 0, 0.00107795, 0.00491855, 0.00327256, 309.046, -103.17, 0, 0.0010773, 0.0026155, 0.00174011, 164.221, -54.9626, 0, 0.00107645, 0.738974, 30.9621, 277.809, 0.541478, 23.4212, 140.925, -0.00160969, -0.0010398, 0.00432361, -0.000854775, -0.000854775, -0.000854775
2873, 1,0.00326972, 0.000939808, 0.000628012, 204.897, 59.292, 0.00624947, 392.074, -129.871, 0, 0.000976611, 0.00420428, 0.00280162, 263.722, -87.4202, 0, 0.000975938, 0.00233938, 0.00155993, 146.454, -48.4495, 0, 0.000975321, -0.722439, 25.456, 237.527, -0.65796, 20.1359, 125.871, -0.00139168, -0.000906374, 0.00371655, -0.000776755, -0.000776755, -0.000776755
2874, 1,0.00329715, 0.000973271, 0.000649833, 207.137, 61.4119, 0.00623133, 389.547, -127.581, 0, 0.00101047, 0.00426499, 0.00283994, 268.083, -89.4349, 0, 0.00100984, 0.00233384, 0.00155527, 146.585, -48.9657, 0, 0.00100918, 0.0506199, 29.5867, 238.667, 0.032778, 22.6994, 124.165, -0.00140613, -0.000851175, 0.00370851, -0.000769312, -0.000769312, -0.000769312
2875, 1,0.00331489, 0.00100326, 0.00067003, 208.131, 63.2873, 0.00626981, 392.137, -128.605, 0, 0.00104439, 0.0043128, 0.00286967, 270.965, -90.2653, 0, 0.00104374, 0.00232162, 0.00154559, 145.693, -48.528, 0, 0.00104303, 0.149487, 29.2807, 241.366, -0.0413062, 22.132, 123.493, -0.00141765, -0.000867471, 0.00374983, -0.000764503, -0.000764503, -0.000764503
2876, 1,0.00332669, 0.00103123, 0.000689208, 208.771, 64.9878, 0.00642246, 403.877, -134.768, 0, 0.00107841, 0.00435257, 0.00289806, 273.307, -90.9122, 0, 0.00107764, 0.0023056, 0.0015352, 144.644, -48.1343, 0, 0.00107689, 0.332776, 26.7297, 245.674, 0.150203, 20.4114, 123.841, -0.00142489, -0.000927211, 0.00382732, -0.000755156, -0.000755156, -0.000755156
2877, 1,0.00287387, 0.000822304, 0.000550166, 180.188, 51.8634, 0.00547936, 343.507, -113.526, 0, 0.000976762, 0.00369126, 0.00246291, 231.616, -76.8675, 0, 0.000976181, 0.0020604, 0.00137583, 129.113, -42.8592, 0, 0.000975643, -0.24853, 21.75, 209.101, -0.170507, 17.5977, 111.15, -0.00121531, -0.000811701, 0.00327427, -0.000678233, -0.000678233, -0.000678233
2878, 1,0.00288676, 0.000850475, 0.000568288, 181.133, 53.6565, 0.00547504, 343.286, -113.464, 0, 0.0010107, 0.00373216, 0.00248699, 234.357, -77.9194, 0, 0.00101012, 0.00204558, 0.00136466, 128.275, -42.6205, 0, 0.00100954, -0.410638, 25.3627, 208.806, -0.407411, 19.6907, 108.578, -0.00123437, -0.000751949, 0.00325067, -0.000678524, -0.000678524, -0.000678524
2879, 1,0.0028909, 0.000876754, 0.000586014, 181.544, 55.2991, 0.00550397, 345.388, -114.436, 0, 0.00104466, 0.00376276, 0.00250448, 236.429, -78.7376, 0, 0.00104405, 0.0020233, 0.00134714, 127.022, -42.3221, 0, 0.00104343, 0.158496, 25.1827, 210.872, -0.00720201, 19.2749, 107.699, -0.00123569, -0.000765103, 0.00327844, -0.000665816, -0.000665816, -0.000665816
2880, 1,0.00289351, 0.000902624, 0.000603974, 181.523, 56.8596, 0.00559083, 350.537, -115.909, 0, 0.00107864, 0.00379129, 0.00252659, 237.975, -79.0509, 0, 0.00107799, 0.00200011, 0.00133273, 125.444, -41.6951, 0, 0.00107734, 0.293, 22.4124, 214.447, 0.123003, 17.3648, 107.597, -0.00123878, -0.000823741, 0.00334527, -0.000654162, -0.000654162, -0.000654162
2881, 1,0.00248397, 0.000705171, 0.000472634, 155.519, 44.4502, 0.0047262, 296.318, -97.9615, 0, 0.000976936, 0.00318459, 0.00212848, 199.568, -65.9952, 0, 0.000976429, 0.00178695, 0.0011954, 111.791, -36.9427, 0, 0.000975969, -0.423054, 17.4551, 180.954, -0.331122, 14.5416, 96.6176, -0.00104763, -0.000723756, 0.00284222, -0.000588288, -0.000588288, -0.000588288
2882, 1,0.00247749, 0.000727982, 0.00048692, 155.385, 45.9141, 0.00471372, 295.805, -98.0242, 0, 0.00101093, 0.00320086, 0.00213507, 200.907, -66.7035, 0, 0.00101041, 0.00175795, 0.0011741, 110.191, -36.5618, 0, 0.00100992, -0.398477, 20.9846, 179.524, -0.372428, 16.5821, 93.4758, -0.00105732, -0.000660013, 0.00279969, -0.000582201, -0.000582201, -0.000582201
2883, 1,0.00246869, 0.000750516, 0.000502204, 154.912, 47.3208, 0.00471041, 295.681, -98.0456, 0, 0.0010449, 0.00321482, 0.00214196, 201.864, -67.0688, 0, 0.00104438, 0.00172639, 0.00115073, 108.284, -35.964, 0, 0.00104385, 0.00255075, 20.5624, 180.642, -0.139504, 15.96, 92.0716, -0.00105508, -0.000670727, 0.00281411, -0.000568329, -0.000568329, -0.000568329
2884, 1,0.00246392, 0.000774281, 0.000518954, 154.458, 48.7392, 0.00473338, 296.887, -98.2714, 0, 0.0010789, 0.00323392, 0.00215862, 202.84, -67.2149, 0, 0.00107836, 0.00169782, 0.00113322, 106.405, -35.2756, 0, 0.0010778, 0.255354, 17.7129, 183.676, 0.0994465, 14.0075, 91.7199, -0.00105304, -0.00072787, 0.0028716, -0.00055341, -0.00055341, -0.00055341
2885, 1,0.00209493, 0.000588443, 0.000395476, 130.968, 37.0542, 0.0039986, 250.385, -82.4647, 0, 0.000977096, 0.00267923, 0.00179555, 167.66, -55.2311, 0, 0.000976664, 0.00151386, 0.00101555, 94.561, -31.1305, 0, 0.000976282, -0.434406, 12.9957, 153.132, -0.327956, 11.3647, 82.3546, -0.000878209, -0.000640466, 0.00241485, -0.000496535, -0.000496535, -0.000496535
2886, 1,0.00207047, 0.000605921, 0.00040587, 129.71, 38.1925, 0.00395356, 247.833, -81.8496, 0, 0.00101111, 0.00267229, 0.00178558, 167.557, -55.457, 0, 0.00101068, 0.00147204, 0.000985158, 92.151, -30.4599, 0, 0.00101027, -0.490729, 16.3136, 150.548, -0.441672, 13.2295, 78.592, -0.000882028, -0.000573182, 0.00235507, -0.000487429, -0.000487429, -0.000487429
2887, 1,0.00204802, 0.000624639, 0.000418653, 128.427, 39.36, 0.00391264, 245.344, -81.0734, 0, 0.00104512, 0.00266885, 0.00178081, 167.471, -55.5133, 0, 0.00104468, 0.00143052, 0.000954994, 89.6645, -29.7059, 0, 0.00104424, -0.0421634, 15.7642, 150.818, -0.161089, 12.5143, 76.7645, -0.000873912, -0.000581304, 0.00235601, -0.000470086, -0.000470086, -0.000470086
2888, 1,0.00203617, 0.000646271, 0.00043422, 127.494, 40.6339, 0.00389492, 243.797, -80.1723, 0, 0.00107913, 0.00267885, 0.00179245, 167.829, -55.399, 0, 0.00107869, 0.00139681, 0.000934606, 87.4369, -28.8696, 0, 0.00107823, 0.197861, 12.7657, 153.233, 0.0563108, 10.4529, 76.0995, -0.000868031, -0.000637131, 0.00240412, -0.000453284, -0.000453284, -0.000453284
2889, 1,0.00170883, 0.000472536, 0.000319113, 106.539, 29.6947, 0.00328224, 205.102, -67.1375, 0, 0.000977298, 0.00217762, 0.00146615, 135.911, -44.4511, 0, 0.000976938, 0.00124289, 0.000837683, 77.4157, -25.2992, 0, 0.000976635, -0.4926, 8.30935, 125.537, -0.371005, 8.00004, 68.2686, -0.000709544, -0.000561153, 0.00199195, -0.000405474, -0.000405474, -0.000405474
2890, 1,0.00166619, 0.000484512, 0.00032536, 104.2, 30.5026, 0.00319526, 199.938, -65.6641, 0, 0.00101132, 0.00214713, 0.00143909, 134.407, -44.2653, 0, 0.00101097, 0.00118818, 0.000798015, 74.2384, -24.4004, 0, 0.00101064, -0.544631, 11.4544, 121.886, -0.473243, 9.72748, 63.9469, -0.000706803, -0.000490612, 0.00191567, -0.000392544, -0.000392544, -0.000392544
2891, 1,0.00162992, 0.000499339, 0.000335578, 102.073, 31.428, 0.00311667, 195.046, -64.0364, 0, 0.00104534, 0.00212608, 0.00142237, 133.24, -43.9715, 0, 0.001045, 0.00113657, 0.000760926, 71.1376, -23.4484, 0, 0.00104465, -0.11182, 10.7371, 121.289, -0.208537, 8.881, 61.6728, -0.000693497, -0.000496382, 0.00190339, -0.00037241, -0.00037241, -0.00037241
2892, 1,0.00161119, 0.000518919, 0.000350094, 100.685, 32.5594, 0.00306835, 191.438, -62.2924, 0, 0.00107936, 0.00212732, 0.0014296, 133.013, -43.6058, 0, 0.00107904, 0.00109771, 0.000737774, 68.5791, -22.4797, 0, 0.00107867, 0.152428, 7.60241, 123.062, 0.0256823, 6.72385, 60.6895, -0.000683128, -0.000550788, 0.00194151, -0.00035315, -0.00035315, -0.00035315
2893, 1,0.00132763, 0.000358295, 0.000244388, 82.3434, 22.4124, 0.00257449, 160.226, -51.8255, 0, 0.000977499, 0.00168249, 0.00114304, 104.469, -33.6912, 0, 0.000977211, 0.000975294, 0.000663076, 60.4335, -19.4839, 0, 0.000976986, -0.538056, 3.47266, 98.139, -0.401954, 4.51219, 54.3415, -0.000540937, -0.000484866, 0.00157246, -0.000314417, -0.000314417, -0.000314417
2894, 1,0.00126654, 0.000364248, 0.000245897, 78.9195, 22.8687, 0.00244288, 152.309, -49.4649, 0, 0.00101153, 0.00162772, 0.00109792, 101.542, -33.0998, 0, 0.00101126, 0.000907835, 0.000614145, 56.4988, -18.3551, 0, 0.00101102, -0.605639, 6.43323, 93.4717, -0.513543, 6.09297, 49.4857, -0.000532154, -0.000411427, 0.00148066, -0.000298082, -0.000298082, -0.000298082
2895, 1,0.00121584, 0.00037503, 0.000253393, 75.9375, 23.5453, 0.00232744, 145.093, -47.0332, 0, 0.00104556, 0.00158833, 0.00106842, 99.2809, -32.471, 0, 0.00104531, 0.000845628, 0.000569534, 52.7762, -17.2196, 0, 0.00104505, -0.169019, 5.55769, 92.0244, -0.24501, 5.12598, 46.7777, -0.000513481, -0.000414897, 0.00145528, -0.000274963, -0.000274963, -0.000274963
2896, 1,0.00119155, 0.000392876, 0.00026723, 74.1514, 24.5476, 0.00225709, 139.862, -44.4734, 0, 0.0010796, 0.00158255, 0.00107321, 98.5412, -31.8265, 0, 0.00107938, 0.000802403, 0.000544536, 49.9177, -16.0977, 0, 0.0010791, 0.10011, 2.2733, 93.1061, -0.0115429, 2.85944, 45.4453, -0.000498597, -0.000467754, 0.00148281, -0.000253287, -0.000253287, -0.000253287
2897, 1,0.000956866, 0.000247957, 0.000173543, 58.6227, 15.3134, 0.00188085, 115.978, -36.4896, 0, 0.000977703, 0.00120139, 0.000833763, 73.6664, -22.942, 0, 0.000977488, 0.000714747, 0.000495384, 43.7715, -13.6751, 0, 0.000977341, -0.585841, -1.47834, 70.8901, -0.436107, 0.927848, 40.5334, -0.000372557, -0.000410793, 0.00115559, -0.000223537, -0.000223537, -0.000223537
2898, 1,0.000876303, 0.000246549, 0.00016892, 54.0925, 15.359, 0.00170425, 105.337, -33.2875, 0, 0.00101174, 0.00112018, 0.00076818, 69.2484, -21.9676, 0, 0.00101155, 0.000634538, 0.000437067, 39.099, -12.3313, 0, 0.0010114, -0.659315, 1.3029, 65.2593, -0.548904, 2.36851, 35.1744, -0.00035789, -0.000334735, 0.00104907, -0.000203867, -0.000203867, -0.000203867
2899, 1,0.000810419, 0.000252914, 0.000173294, 50.2325, 15.7704, 0.001554, 95.9295, -30.0795, 0, 0.00104578, 0.00106137, 0.000724763, 65.8582, -21.0007, 0, 0.00104563, 0.000561258, 0.000384417, 34.7403, -11.0084, 0, 0.00104546, -0.225523, 0.264528, 62.9632, -0.282826, 1.2772, 32.0309, -0.000333937, -0.000335975, 0.00101069, -0.000177836, -0.000177836, -0.000177836
2900, 1,0.000784959, 0.00026992, 0.000187407, 48.2714, 16.6853, 0.00147649, 89.8478, -26.7609, 0, 0.00107982, 0.00105402, 0.000732818, 64.8796, -20.0631, 0, 0.00107971, 0.0005168, 0.000360853, 31.744, -9.72572, 0, 0.00107952, 0.0495902, -3.1706, 63.3104, -0.0471838, -1.10075, 30.3251, -0.000314286, -0.000387088, 0.00102695, -0.000153556, -0.000153556, -0.000153556
2901, 1,0.000613071, 0.000149088, 0.000114142, 36.1296, 8.75393, 0.00122475, 73.427, -21.1106, 0, 0.00097792, 0.000757634, 0.000561636, 44.5728, -12.2059, 0, 0.000977778, 0.000471469, 0.000344839, 27.8954, -7.87503, 0, 0.00097771, -0.630845, -6.49555, 43.7441, -0.468485, -2.71477, 26.8083, -0.000204333, -0.000338062, 0.000740428, -0.000132769, -0.000132769, -0.000132769
2902, 1,0.000513159, 0.000137142, 0.000100178, 30.5289, 8.2459, 0.00100704, 60.3083, -17.1273, 0, 0.00101196, 0.0006476, 0.000472991, 38.5904, -10.8651, 0, 0.00101185, 0.000380736, 0.000279247, 22.6081, -6.32555, 0, 0.00101178, -0.708357, -3.8909, 37.1946, -0.582417, -1.41087, 20.9699, -0.000184006, -0.000259622, 0.000619925, -0.000109909, -0.000109909, -0.000109909
2903, 1,0.000433582, 0.000138, 0.000100283, 25.9013, 8.34507, 0.000833964, 49.3527, -13.1896, 0, 0.00104601, 0.000569917, 0.000416155, 34.1454, -9.56171, 0, 0.00104595, 0.000298857, 0.000220998, 17.7559, -4.81652, 0, 0.00104587, -0.276304, -5.08964, 34.0511, -0.317219, -2.62365, 17.3904, -0.000154777, -0.000258635, 0.000568575, -8.09522E-05, -8.09522E-05, -8.09522E-05
2904, 1,0.000423648, 0.000156568, 0.000117145, 24.5966, 9.28956, 0.000798191, 44.8119, -9.1392, 0, 0.00108005, 0.000580039, 0.000446764, 33.8743, -8.31186, 0, 0.00108004, 0.000267474, 0.000213315, 15.3331, -3.36079, 0, 0.00107995, -0.0014666, -8.67893, 33.616, -0.0835328, -5.11748, 15.2834, -0.000130186, -0.000307785, 0.000572868, -5.39601E-05, -5.39601E-05, -5.39601E-05
2905, 1,0.000353781, -9.65196E-05, 9.20208E-05, 17.5782, -4.82876, 0.000694919, 36.7307, -5.68137, 0, 0.000978118, 0.000433687, 0.00040913, 21.0908, -1.48179, 0, 0.000978051, 0.000279403, 0.000245393, 14.4005, -2.0826, 0, 0.000978061, -0.673519, -11.5328, 16.6517, -0.499758, -6.37992, 13.1275, -3.62589E-05, -0.000265786, 0.000326067, -4.21059E-05, -4.21059E-05, -4.21059E-05
2906, 1,0.000259335, -7.38029E-05, 7.01391E-05, 12.0867, -3.72921, 0.0004886, 23.6812, -0.9886, 0, 0.00101216, 0.000321879, 0.000324267, 14.8285, 0.208237, 0, 0.00101214, 0.00019976, 0.000194032, 9.5277, -0.337516, 0, 0.00101215, -0.750787, -9.09912, 9.22519, -0.612248, -5.20669, 6.83148, -1.04562E-05, -0.000185156, 0.00019223, -1.6166E-05, -1.6166E-05, -1.6166E-05
2907, 1,0.000201998, -6.93561E-05, 6.52861E-05, 8.40179, -3.50526, 0.000388852, 15.7999, 3.63104, 0, 0.00104621, 0.000261507, 0.000290177, 11.0702, 1.84894, 0, 0.00104624, 0.000144209, 0.000165093, 5.82751, 1.35855, 0, 0.00104625, -0.322052, -10.456, 5.2312, -0.34898, -6.53867, 2.81198, 2.40299E-05, -0.000181914, 0.000127894, 1.5709E-05, 1.5709E-05, 1.5709E-05
2908, 1,0.00023875, -8.87271E-05, 8.51058E-05, 9.19502, -4.41255, 0.000482712, 16.9444, 8.3802, 0, 0.00108027, 0.000319446, 0.000373914, 12.9264, 3.42871, 0, 0.00108036, 0.00015876, 0.000206284, 5.4813, 2.99803, 0, 0.00108036, -0.0517452, -14.1996, 3.96524, -0.119381, -9.15011, 0.27539, 5.37551E-05, -0.00022884, 0.000119475, 4.55419E-05, 4.55419E-05, 4.55419E-05
2909, 1,0.000276524, -0.000172114, 0.000128196, 7.79894, -10.2312, 0.000494466, 15.6697, 9.8045, 0, 0.000978323, 0.000354356, 0.000501074, 9.39514, 9.2312, 0, 0.000978332, 0.000204827, 0.000263341, 6.56335, 3.70291, 0, 0.00097842, -0.713077, -16.5428, -10.4377, -0.529207, -10.0306, -0.548983, 0.000131695, -0.000193055, -8.84491E-05, 4.84759E-05, 4.84759E-05, 4.84759E-05
2910, 1,0.000237464, -0.000158789, 0.000114534, 4.71098, -9.65021, 0.000419929, 8.40547, 15.1279, 0, 0.00101238, 0.000304042, 0.000483059, 5.76182, 11.2538, 0, 0.00101244, 0.000174189, 0.000264018, 3.86598, 5.63403, 0, 0.00101253, -0.786443, -14.273, -18.7019, -0.638347, -8.98107, -7.28266, 0.000162785, -0.000110392, -0.000235004, 7.73815E-05, 7.73815E-05, 7.73815E-05
2911, 1,0.000231633, -0.000158076, 0.000112321, 3.19502, -9.67665, 0.000446116, 5.98333, 20.377, 0, 0.00104643, 0.000296657, 0.000507371, 4.18484, 13.2324, 0, 0.00104655, 0.000168265, 0.000287678, 2.32017, 7.51772, 0, 0.00104665, -0.361989, -15.7829, -23.5522, -0.377425, -10.4276, -11.7481, 0.000202516, -0.000104825, -0.000312393, 0.000112175, 0.000112175, 0.000112175
2912, 1,0.000277866, -0.000171933, 0.000125312, 4.18584, -10.3955, 0.000571192, 8.07436, 25.792, 0, 0.0010805, 0.000356383, 0.000598439, 5.82234, 15.1605, 0, 0.00108068, 0.000199571, 0.000348694, 2.57505, 9.35229, 0, 0.00108078, -0.101003, -19.6807, -25.6998, -0.15463, -13.1581, -14.7441, 0.000237568, -0.000149241, -0.000334303, 0.000144973, 0.000144973, 0.000144973
2913, 1,0.000330903, -0.000275457, 0.000192146, 4.32726, -16.9801, 0.000580563, 8.24683, 25.3526, 0, 0.000978526, 0.000434912, 0.000752762, 5.34804, 19.9346, 0, 0.000978612, 0.000231624, 0.000382585, 3.60448, 9.48273, 0, 0.000978778, -0.749558, -21.4778, -37.5766, -0.556819, -13.6296, -14.2617, 0.000299553, -0.000118942, -0.000504096, 0.000138995, 0.000138995, 0.000138995
2914, 1,0.000326378, -0.0002707, 0.000185901, 2.61407, -16.8649, 0.000587003, 4.35385, 31.2199, 0, 0.00101259, 0.000424036, 0.00077934, 3.26427, 22.2731, 0, 0.00101273, 0.000231775, 0.00041697, 2.17242, 11.5903, 0, 0.00101291, -0.815184, -19.3632, -46.6409, -0.660527, -12.6955, -21.4148, 0.000335744, -3.43767E-05, -0.000662781, 0.000170756, 0.000170756, 0.000170756
2915, 1,0.000341753, -0.000274624, 0.000187253, 1.8367, -17.1704, 0.000656516, 3.50242, 37.0433, 0, 0.00104664, 0.000439498, 0.000831902, 2.44456, 24.5904, 0, 0.00104686, 0.000246068, 0.00046382, 1.39, 13.6624, 0, 0.00104704, -0.395985, -21.0203, -52.355, -0.402439, -14.2514, -26.3334, 0.000380713, -2.63833E-05, -0.000753332, 0.000208469, 0.000208469, 0.000208469
2916, 1,0.000387862, -0.000287359, 0.000197781, 2.56064, -17.8994, 0.00078211, 5.10427, 43.0933, 0, 0.00108071, 0.000495238, 0.00092476, 3.56801, 26.8855, 0, 0.001081, 0.00028121, 0.000531873, 1.63453, 15.7034, 0, 0.0010812, -0.14893, -25.0702, -55.4374, -0.188942, -17.1008, -29.8206, 0.00042129, -6.79733E-05, -0.000789548, 0.000244361, 0.000244361, 0.000244361
2917, 1,0.000429503, -0.000387085, 0.000264409, 2.90847, -24.1283, 0.000764775, 5.39266, 40.965, 0, 0.000978724, 0.000566777, 0.00105564, 3.68836, 30.6298, 0, 0.000978888, 0.000296464, 0.000539808, 2.41732, 15.2579, 0, 0.000979132, -0.782497, -26.2897, -64.8173, -0.58225, -17.1397, -28.0518, 0.000467345, -4.25143E-05, -0.000921857, 0.000229477, 0.000229477, 0.000229477
2918, 1,0.000442087, -0.000388288, 0.000263006, 1.78472, -24.3477, 0.000807851, 2.86599, 47.2753, 0, 0.00101279, 0.000576166, 0.00110743, 2.29077, 33.2675, 0, 0.00101302, 0.000311141, 0.000591516, 1.50844, 17.5324, 0, 0.00101328, -0.836973, -24.3206, -74.6451, -0.678818, -16.3117, -35.6067, 0.000508444, 4.38404E-05, -0.0010921, 0.000263975, 0.000263975, 0.000263975
2919, 1,0.000468474, -0.000396388, 0.000267448, 1.28968, -24.9079, 0.000897096, 2.52977, 53.6178, 0, 0.00104686, 0.00060412, 0.00117789, 1.76697, 35.9249, 0, 0.00104716, 0.000335388, 0.000651303, 1.02354, 19.794, 0, 0.00104743, -0.424051, -26.1179, -81.2327, -0.423973, -17.9708, -40.9871, 0.000558648, 5.43861E-05, -0.00119595, 0.000304614, 0.000304614, 0.000304614
2920, 1,0.000516358, -0.000410869, 0.000278371, 1.84064, -25.7829, 0.00102516, 3.76425, 60.2806, 0, 0.00108093, 0.000660501, 0.00127739, 2.59896, 38.6053, 0, 0.00108131, 0.000373637, 0.000725802, 1.2254, 22.0528, 0, 0.0010816, -0.195238, -30.3155, -85.305, -0.222144, -20.9372, -44.999, 0.000604952, 1.5976E-05, -0.00124733, 0.000343732, 0.000343732, 0.000343732
2921, 1,0.000543574, -0.000501708, 0.000339695, 2.19724, -31.4183, 0.000981885, 4.02525, 56.638, 0, 0.000978944, 0.000716691, 0.00137646, 2.85882, 41.3184, 0, 0.000979187, 0.000374667, 0.000710341, 1.84004, 21.0298, 0, 0.000979509, -0.811863, -30.931, -92.2124, -0.605484, -20.5238, -41.96, 0.000635098, 3.71536E-05, -0.00134271, 0.000319941, 0.000319941, 0.000319941
2922, 1,0.000566489, -0.000507579, 0.000341884, 1.37352, -31.9064, 0.001045, 2.18746, 63.266, 0, 0.00101301, 0.00073867, 0.00144558, 1.81898, 44.2384, 0, 0.00101333, 0.000397683, 0.000773049, 1.18728, 23.4613, 0, 0.00101367, -0.851688, -29.0967, -102.767, -0.693049, -19.7918, -49.899, 0.000680908, 0.00012519, -0.00152393, 0.000357057, 0.000357057, 0.000357057
2923, 1,0.000600679, -0.00051964, 0.000349176, 1.02138, -32.7106, 0.0011464, 2.06559, 70.0688, 0, 0.00104708, 0.000775826, 0.00153066, 1.44809, 47.2372, 0, 0.00104747, 0.000428605, 0.000842512, 0.854691, 25.9137, 0, 0.00104783, -0.446774, -31.0255, -110.239, -0.442619, -21.5467, -55.7517, 0.000736332, 0.000138441, -0.00164125, 0.000400617, 0.000400617, 0.000400617
2924, 1,0.000651852, -0.000537073, 0.000361681, 1.46646, -33.7907, 0.00127932, 3.04971, 77.3494, 0, 0.00108116, 0.000835529, 0.00163973, 2.10924, 50.3219, 0, 0.00108163, 0.000470289, 0.000923946, 1.02598, 28.4018, 0, 0.00108201, -0.239724, -35.3658, -115.36, -0.253915, -24.6272, -60.3243, 0.000788593, 0.000103596, -0.00170871, 0.000443117, 0.000443117, 0.000443117
2925, 1,0.000664504, -0.000617663, 0.00041634, 1.79835, -38.7691, 0.00121364, 3.31669, 72.3377, 0, 0.000979136, 0.000874687, 0.0017053, 2.39972, 52.0026, 0, 0.000979459, 0.000458695, 0.000886666, 1.52609, 26.8001, 0, 0.000979859, -0.837039, -35.3566, -119.814, -0.625963, -23.747, -56.0273, 0.000802863, 0.000120943, -0.00176763, 0.000410431, 0.000410431, 0.000410431
2926, 1,0.000694664, -0.000627485, 0.00042145, 1.15065, -39.4881, 0.00128874, 1.92028, 79.1005, 0, 0.00101322, 0.000905664, 0.00178791, 1.57346, 55.1874, 0, 0.00101361, 0.000487364, 0.000957522, 1.01993, 29.3787, 0, 0.00101404, -0.859792, -33.6449, -131.058, -0.704072, -23.0999, -64.3322, 0.000853156, 0.000210561, -0.00195921, 0.000450014, 0.000450014, 0.000450014
2927, 1,0.000735334, -0.000643401, 0.000431462, 0.887372, -40.5307, 0.00139781, 1.86572, 86.304, 0, 0.0010473, 0.000950645, 0.00188626, 1.29848, 58.5276, 0, 0.00104777, 0.000523593, 0.00103533, 0.782279, 32.0216, 0, 0.00104822, -0.461717, -35.6936, -139.427, -0.456256, -24.9405, -70.6682, 0.000913817, 0.000226707, -0.00209021, 0.000496523, 0.000496523, 0.000496523
2928, 1,0.000790842, -0.000664436, 0.000446171, 1.26461, -41.8492, 0.00153761, 2.66102, 94.2526, 0, 0.00108137, 0.00101532, 0.0020068, 1.85258, 62.0384, 0, 0.00108193, 0.000569126, 0.00112429, 0.933746, 34.7532, 0, 0.00108241, -0.283457, -40.1713, -145.66, -0.285499, -28.1324, -75.8418, 0.00097223, 0.000195865, -0.00217474, 0.000542525, 0.000542525, 0.000542525
2929, 1,0.000789185, -0.000734303, 0.000493691, 1.57025, -46.1485, 0.00145395, 3.04888, 87.9753, 0, 0.000979344, 0.00103711, 0.00203851, 2.14391, 62.6829, 0, 0.000979746, 0.000545861, 0.00106609, 1.35329, 32.569, 0, 0.000980224, -0.856818, -39.5172, -147.675, -0.643246, -26.7704, -70.2934, 0.000970679, 0.00020978, -0.00219759, 0.000500965, 0.000500965, 0.000500965
2930, 1,0.00082487, -0.000747596, 0.000501297, 1.04038, -47.0722, 0.00153798, 2.10551, 94.6207, 0, 0.00101343, 0.00107504, 0.00213231, 1.46133, 66.1089, 0, 0.0010139, 0.000578757, 0.00114351, 0.945377, 35.2793, 0, 0.00101441, -0.849406, -37.9127, -159.565, -0.701302, -26.1941, -78.9425, 0.00102536, 0.000300826, -0.0023989, 0.000542992, 0.000542992, 0.000542992
2931, 1,0.000871285, -0.000767305, 0.000513946, 0.833625, -48.3499, 0.00164702, 1.86379, 102.156, 0, 0.00104752, 0.00112708, 0.00224323, 1.24749, 69.7976, 0, 0.00104807, 0.000619526, 0.00122897, 0.767831, 38.12, 0, 0.00104861, -0.467014, -40.0747, -168.851, -0.464183, -28.1158, -85.78, 0.00109116, 0.000320066, -0.00254378, 0.000592373, 0.000592373, 0.000592373
2932, 1,0.00093195, -0.000792377, 0.000531252, 1.16817, -49.9301, 0.00179531, 2.42449, 110.921, 0, 0.00108159, 0.00119792, 0.00237671, 1.73391, 73.7536, 0, 0.00108224, 0.000669326, 0.00132607, 0.908942, 41.106, 0, 0.00108281, -0.31826, -44.6808, -176.262, -0.309101, -31.4127, -91.5961, 0.00115601, 0.000293716, -0.00264647, 0.000642099, 0.000642099, 0.000642099
2933, 1,0.000916243, -0.000851333, 0.00057144, 1.44897, -53.5421, 0.00170312, 3.27362, 103.523, 0, 0.00097956, 0.00120234, 0.00237447, 2.01416, 73.3537, 0, 0.00098004, 0.000634988, 0.00124744, 1.26693, 38.3298, 0, 0.000980597, -0.858512, -43.3591, -175.843, -0.645875, -29.5465, -84.797, 0.00113874, 0.000304627, -0.00263365, 0.000591694, 0.000591694, 0.000591694
2934, 1,0.000956363, -0.000867722, 0.000581231, 1.00835, -54.6486, 0.00181982, 4.27218, 109.659, 0, 0.00101366, 0.0012459, 0.00247799, 1.43964, 77.0013, 0, 0.0010142, 0.00067123, 0.00133048, 0.93438, 41.1625, 0, 0.00101479, -0.802164, -41.8492, -188.353, -0.670546, -29.0331, -93.7837, 0.00119789, 0.000396907, -0.00284425, 0.000636292, 0.000636292, 0.000636292
2935, 1,0.00100811, -0.000891171, 0.000596445, 0.854773, -56.1583, 0.00191491, 3.08656, 117.507, 0, 0.00104775, 0.00130453, 0.00260107, 1.28141, 81.0246, 0, 0.00104837, 0.000716137, 0.00142325, 0.813398, 44.1877, 0, 0.001049, -0.41461, -44.0999, -198.559, -0.422064, -31.0147, -101.126, 0.00126902, 0.000419509, -0.00300326, 0.000688764, 0.000688764, 0.000688764
2936, 1,0.00107478, -0.00092062, 0.000616645, 1.14376, -58.0192, 0.00204802, 2.15807, 127.328, 0, 0.00108182, 0.00138265, 0.00274872, 1.70613, 85.4736, 0, 0.00108255, 0.00077076, 0.00152907, 0.931234, 47.4659, 0, 0.00108322, -0.358687, -48.8423, -207.22, -0.34039, -34.4249, -107.632, 0.00133972, 0.000398315, -0.00312495, 0.000741585, 0.000741585, 0.000741585
2937, 1,0.00104534, -0.00096864, 0.000649455, 1.41206, -60.9445, 0.00199037, 5.10143, 119.379, 0, 0.00097977, 0.0013699, 0.00271258, 1.98061, 83.9896, 0, 0.000980332, 0.000725799, 0.00143024, 1.24764, 44.056, 0, 0.000980968, -0.809423, -46.8352, -204.324, -0.605979, -32.032, -99.5301, 0.00130737, 0.000406536, -0.00307677, 0.000682819, 0.000682819, 0.000682819
2938, 1,0.00108954, -0.000987767, 0.000661134, 1.10989, -62.2109, 0.00215903, 9.17641, 124.656, 0, 0.00101389, 0.00141854, 0.00282531, 1.55584, 87.7953, 0, 0.0010145, 0.000765153, 0.00151886, 1.0386, 46.9626, 0, 0.00101517, -0.584912, -45.3415, -217.46, -0.491104, -31.5128, -108.884, 0.00137249, 0.000500342, -0.00329743, 0.000731452, 0.000731452, 0.000731452
2939, 1,0.00114579, -0.00101486, 0.000678807, 0.933152, -63.9467, 0.00225836, 7.88529, 132.799, 0, 0.00104798, 0.00148285, 0.00295985, 1.379, 92.2003, 0, 0.00104867, 0.000813484, 0.0016184, 0.90222, 50.2221, 0, 0.00104938, -0.271432, -47.6975, -228.632, -0.309158, -33.575, -116.782, 0.00144794, 0.000526725, -0.00347074, 0.000786087, 0.000786087, 0.000786087
2940, 1,0.00121935, -0.00104892, 0.000702106, 1.20838, -66.1035, 0.00232472, 2.73799, 144.067, 0, 0.00108205, 0.00156935, 0.00312265, 1.77881, 97.1253, 0, 0.00108287, 0.000873594, 0.00173349, 1.02261, 53.7632, 0, 0.00108364, -0.288817, -52.5358, -238.551, -0.266794, -37.0556, -123.967, 0.00152463, 0.000511603, -0.00361222, 0.000842253, 0.000842253, 0.000842253
2941, 1,0.00117651, -0.00108623, 0.000727684, 1.42807, -68.3585, 0.00235672, 9.05952, 137.355, 0, 0.000979967, 0.0015398, 0.00305226, 2.00741, 94.5864, 0, 0.000980647, 0.000818322, 0.00161388, 1.26297, 49.743, 0, 0.000981361, -0.733063, -49.951, -233.075, -0.558776, -34.2335, -114.437, 0.00147604, 0.000516721, -0.00352757, 0.000773556, 0.000773556, 0.000773556
2942, 1,0.00122387, -0.00110775, 0.000741001, 1.29617, -69.7594, 0.00258057, 17.5401, 140.197, 0, 0.00101412, 0.00159235, 0.00317432, 1.73365, 98.5406, 0, 0.00101481, 0.000859694, 0.00170855, 1.18763, 52.7374, 0, 0.00101556, -0.134295, -48.4845, -247.003, -0.13026, -33.7349, -124.347, 0.00155129, 0.000610858, -0.00376112, 0.000830085, 0.000830085, 0.000830085
2943, 1,0.00128209, -0.00113823, 0.000760826, 1.0982, -71.7064, 0.00267304, 15.6533, 148.689, 0, 0.0010482, 0.00165962, 0.00331842, 1.54703, 103.144, 0, 0.00104898, 0.00090951, 0.0018135, 1.07401, 56.0532, 0, 0.00104978, 0.382985, -50.7732, -259.041, 0.26874, -35.7104, -132.718, 0.00163398, 0.000641707, -0.00394934, 0.000889995, 0.000889995, 0.000889995
2944, 1,0.00136299, -0.00117703, 0.000787407, 1.11448, -74.1717, 0.00268636, 6.26265, 162.254, 0, 0.00108224, 0.00175516, 0.00349439, 1.6985, 108.832, 0, 0.00108318, 0.000975243, 0.00193548, 0.933282, 60.1281, 0, 0.00108404, -0.405196, -55.9268, -270.163, -0.394833, -39.4646, -140.525, 0.00170641, 0.000633278, -0.00410564, 0.000939669, 0.000939669, 0.000939669
2945, 1,0.00131164, -0.001204, 0.000805971, 1.92567, -75.7859, 0.00286383, 17.2545, 158.553, 0, 0.000980099, 0.00171385, 0.00339597, 2.50533, 104.735, 0, 0.000980955, 0.000914255, 0.0018006, 1.73165, 54.9762, 0, 0.000981748, 0.0538879, -52.1856, -262.074, 0.157878, -35.6164, -129.47, 0.00165283, 0.000640765, -0.00399308, 0.000871449, 0.000871449, 0.000871449
2946, 1,0.00136932, -0.00122742, 0.000820457, 2.45593, -77.2795, 0.00315536, 32.3382, 156.817, 0, 0.0010143, 0.00177746, 0.00353013, 2.9047, 108.696, 0, 0.0010151, 0.000964526, 0.00190427, 2.24724, 57.958, 0, 0.00101593, 1.13894, -50.322, -276.904, 0.945906, -34.743, -140.077, 0.00173825, 0.000739883, -0.00424189, 0.000935178, 0.000935178, 0.000935178
2947, 1,0.0014246, -0.001261, 0.000842147, 1.70437, -79.417, 0.00321432, 29.2301, 164.814, 0, 0.00104839, 0.00184091, 0.00368035, 2.03393, 113.878, 0, 0.00104926, 0.00101121, 0.00201269, 1.52435, 61.7279, 0, 0.00105015, 1.28323, -52.8266, -290.092, 0.981049, -36.9304, -149.234, 0.00182181, 0.000774677, -0.00444433, 0.000994176, 0.000994176, 0.000994176
2948, 1,0.00150965, -0.00130434, 0.000872006, 1.92359, -82.1891, 0.00313854, 11.931, 183.346, 0, 0.00108238, 0.00194374, 0.00386877, 2.52376, 119.454, 0, 0.00108351, 0.00108008, 0.00214068, 1.74294, 65.4409, 0, 0.00108446, 1.14046, -57.8592, -301.642, 1.10563, -40.52, -156.908, 0.00190619, 0.000769581, -0.00461408, 0.00105488, 0.00105488, 0.00105488
2949, 1,0.0014509, -0.00132295, 0.00088515, 2.03013, -83.2734, 0.00348728, 28.5799, 182.939, 0, 0.000980211, 0.00189263, 0.00373327, 2.61725, 115.774, 0, 0.00098128, 0.0010132, 0.00197866, 1.766, 61.0885, 0, 0.000982151, -0.521919, -55.3717, -291.427, -0.572664, -37.962, -144.731, 0.00181507, 0.000758679, -0.00445235, 0.000952851, 0.000952851, 0.000952851
2950, 1,0.00151785, -0.00134762, 0.000900519, 3.43758, -84.8037, 0.00403098, 67.0092, 165.854, 0, 0.0010146, 0.0019662, 0.00387863, 3.91766, 119.436, 0, 0.00101536, 0.00107047, 0.0020904, 3.01486, 63.8213, 0, 0.00101628, 2.66227, -53.5482, -307.422, 2.0649, -37.1478, -156.381, 0.00193994, 0.000846759, -0.00472473, 0.00105151, 0.00105151, 0.00105151
2951, 1,0.00159369, -0.0013839, 0.000923186, 4.00335, -87.1004, 0.0041348, 69.4053, 169.284, 0, 0.00104876, 0.00205183, 0.00404893, 4.3957, 124.375, 0, 0.00104952, 0.00113566, 0.0022146, 3.62364, 67.2504, 0, 0.00105049, 3.8825, -55.8173, -321.19, 3.17708, -39.1421, -165.786, 0.00204165, 0.000881507, -0.00494132, 0.00112716, 0.00112716, 0.00112716
2952, 1,0.00164596, -0.0014314, 0.0009565, 0.380804, -90.1709, 0.00378438, 31.7435, 197.733, 0, 0.00108258, 0.00212142, 0.00421547, 0.909881, 132.807, 0, 0.00108372, 0.00117365, 0.00231818, 0.129603, 73.5474, 0, 0.00108477, -2.00363, -62.6516, -333.765, -2.16174, -44.4575, -174.023, 0.00204942, 0.000887333, -0.00509175, 0.00111288, 0.00111288, 0.00111288
2953, 1,0.00159211, -0.00144401, 0.000966062, 3.18808, -90.8897, 0.00440292, 39.4513, 202.968, 0.0137266, 0.000980247, 0.00207306, 0.00409134, 3.64219, 126.11, 0, 0.000981495, 0.00111331, 0.00217472, 2.84701, 66.4498, 0, 0.000982446, 2.01225, -57.7722, -322.57, 1.69509, -39.6448, -161.4, 0.00203258, 0.000883794, -0.00496271, 0.0010864, 0.0010864, 0.0010864
2954, 1,0.00171251, -0.00146934, 0.000982918, 6.15144, -92.4135, 0.00546855, 63.2083, 191.104, 0.0392105, 0.00101434, 0.00220705, 0.00428422, 7.04899, 130.326, 0, 0.00101542, 0.0012192, 0.00232709, 5.34952, 69.8993, 0, 0.00101641, 5.25839, -55.1696, -341.066, 3.90498, -38.2948, -175.308, 0.00216732, 0.000998538, -0.00528059, 0.00118712, 0.00118712, 0.00118712
2955, 1,0.00173452, -0.0015067, 0.00100566, 3.36595, -94.8009, 0.00571431, 55.2523, 197.907, 0.0505635, 0.00104829, 0.00223759, 0.00441345, 4.11644, 136.227, 0, 0.00104944, 0.00123223, 0.00241019, 2.65741, 74.2219, 0, 0.00105049, 3.0451, -57.0649, -354.663, 1.59595, -39.8782, -184.383, 0.00220975, 0.00105992, -0.00548016, 0.00120268, 0.00120268, 0.00120268
2956, 1,0.00183996, -0.00155632, 0.00103869, 4.15241, -98.0904, 0.00540812, 26.2491, 218.515, 0.0527546, 0.00108228, 0.00235603, 0.00465112, 4.52329, 142.97, 0, 0.00108372, 0.00132456, 0.00258568, 3.81858, 78.499, 0, 0.00108486, 3.75787, -63.2203, -369.448, 3.31597, -44.4117, -194.401, 0.0023304, 0.00106092, -0.00571123, 0.00130581, 0.00130581, 0.00130581
2957, 1,0.00182954, -0.00156843, 0.00104913, 3.76705, -98.8359, 0.00738409, 10.4229, 233.933, 0.132061, 0.000979768, 0.00235671, 0.00452406, 4.71916, 141.561, 0, 0.000981533, 0.00130468, 0.00243451, 3.09952, 76.7885, 0, 0.000982566, -2.85266, -62.583, -359.248, -3.66064, -43.9127, -182.792, 0.00217568, 0.00107253, -0.00554526, 0.00113866, 0.00113866, 0.00113866
2958, 1,0.0018969, -0.00159734, 0.00107235, 10.5265, -100.443, 0.00775987, 1.90802, 237.939, 0.154338, 0.00101363, 0.00243624, 0.00470006, 11.6908, 139.127, 0, 0.00101562, 0.00135947, 0.00257061, 9.43027, 73.867, 0, 0.0010167, 9.63889, -54.2322, -372.787, 7.0609, -37.2823, -191.38, 0.00240014, 0.00120099, -0.00585866, 0.00131794, 0.00131794, 0.00131794
2959, 1,0.00199346, -0.00163507, 0.00109557, 10.2735, -102.913, 0.00850742, 2.40488, 241.009, 0.178881, 0.00104771, 0.00254668, 0.00491401, 11.4849, 146.648, 0, 0.00104977, 0.00144115, 0.00273145, 9.12945, 79.6841, 0, 0.00105091, 10.9328, -59.0569, -391.821, 8.37735, -41.8045, -205.625, 0.00253985, 0.00123348, -0.00615291, 0.00143137, 0.00143137, 0.00143137
2960, 1,0.00206874, -0.00168671, 0.00112537, 2.91523, -106.468, 0.00916191, 7.63633, 238.624, 0.19841, 0.001082, 0.00263009, 0.00508925, 3.70606, 160.064, 0, 0.0010839, 0.00150908, 0.00284669, 2.38769, 90.1909, 0, 0.00108513, -5.82861, -66.9863, -407.377, -6.73654, -47.4525, -216.384, 0.00239603, 0.00131509, -0.0063084, 0.00127658, 0.00127658, 0.00127658
2961, 1,0.0022462, -0.00170963, 0.0011456, 23.6855, -107.855, 0.0120827, -3.63447, 246.772, 0.318669, 0.00097943, 0.00282221, 0.00519995, 24.6496, 145.545, 0, 0.00098189, 0.00167081, 0.00291979, 22.7619, 75.0919, 0, 0.000983014, 23.0644, -62.6633, -397.036, 21.6407, -43.6008, -203.316, 0.00278962, 0.00120224, -0.00635352, 0.00165025, 0.00165025, 0.00165025
2962, 1,0.00209161, -0.00173443, 0.0011695, 9.3483, -109.067, 0.0134773, 3.94115, 269.519, 0.318441, 0.00101297, 0.00269219, 0.00518454, 11.5288, 155.158, 0, 0.00101581, 0.00149477, 0.00285694, 7.5068, 84.7225, 0, 0.00101698, 8.49436, -58.8383, -415.131, 4.27817, -41.6363, -216.809, 0.00262945, 0.00141168, -0.0065588, 0.00143113, 0.00143113, 0.00143113
2963, 1,0.00213326, -0.00177364, 0.00119459, 6.7902, -111.612, 0.0142645, 4.395, 269.845, 0.344167, 0.00104689, 0.00274626, 0.0053451, 8.94518, 162.133, -3.38813E-21, 0.00104982, 0.00152311, 0.00296376, 4.83026, 89.9808, -3.38813E-21, 0.00105105, 7.72058, -62.1104, -432.008, 3.53354, -44.5601, -228.916, 0.00271611, 0.00147077, -0.0068177, 0.00149148, 0.00149148, 0.00149148
2964, 1,0.00245306, -0.00183412, 0.00122682, 20.6099, -115.892, 0.014325, -2.0368, 250.552, 0.393028, 0.00108116, 0.0030697, 0.00577174, 21.5044, 165.629, 0, 0.00108388, 0.00183672, 0.0033261, 19.7391, 89.7962, 0, 0.00108522, 20.5492, -69.7782, -447.659, 19.1303, -49.6778, -238.841, 0.00304255, 0.00141558, -0.00714568, 0.00181847, 0.00181847, 0.00181847
2965, 1,0.00228795, -0.00187526, 0.00126149, 5.68504, -118.021, 0.0156846, -3.8474, 256.055, 0.43701, 0.000978841, 0.00293032, 0.00559648, 7.68388, 175.286, 0, 0.000981439, 0.00164913, 0.00308621, 4.17868, 98.7785, 0, 0.000982658, -4.11564, -73.885, -447.859, -6.84122, -54.3261, -235.168, 0.00268244, 0.00145365, -0.00698037, 0.00142024, 0.00142024, 0.00142024
2966, 1,0.00252909, -0.00189319, 0.00128277, 26.005, -118.623, 0.0175635, 0.894777, 274.147, 0.457295, 0.00101228, 0.00320003, 0.00591093, 29.4974, 163.416, 1.43758E-05, 0.00101565, 0.00185871, 0.00334949, 22.5467, 87.6618, 9.03735E-07, 0.0010169, 28.2123, -52.7986, -465.661, 21.505, -36.1285, -248.362, 0.0031767, 0.00169416, -0.00752254, 0.00184165, 0.00184165, 0.00184165
2967, 1,0.00262898, -0.00193583, 0.00131044, 27.1069, -120.959, 0.0182233, 0.398507, 274.999, 0.479205, 0.00104611, 0.00331236, 0.00610989, 30.307, 168.729, 0.000539165, 0.00104963, 0.00194633, 0.00349283, 23.9535, 91.157, 0.000205352, 0.00105095, 30.007, -54.6238, -481.572, 23.6717, -37.3306, -259.812, 0.00330691, 0.0017612, -0.00780681, 0.0019427, 0.0019427, 0.0019427
2968, 1,0.00258487, -0.00200336, 0.00134434, 12.1105, -126.248, 0.017867, -2.77741, 258.258, 0.508797, 0.0010806, 0.00326368, 0.00620792, 13.9846, 187.95, 1.03787E-05, 0.00108363, 0.0019083, 0.0035297, 10.6279, 105.907, 1.26136E-06, 0.00108508, -0.824447, -66.9718, -496.053, -3.26368, -46.7901, -267.666, 0.002943, 0.00183722, -0.00783001, 0.00159931, 0.00159931, 0.00159931
2969, 1,0.00296037, -0.0021105, 0.00142376, 30.4182, -129.853, 0.0177935, -5.20884, 250.738, 0.529852, 0.000978852, 0.00369063, 0.0067157, 32.7655, 176.778, 0.00814143, 0.00098169, 0.0022322, 0.00388167, 28.2699, 92.6162, 0.00676981, 0.000983039, 26.9329, -59.9343, -497.333, 24.1048, -40.5659, -261.387, 0.00356939, 0.00188017, -0.00833112, 0.00214748, 0.00214748, 0.00214748
2970, 1,0.00296966, -0.00210288, 0.00143087, 29.845, -128.957, 0.0192407, 1.28449, 265.642, 0.530315, 0.00101232, 0.00372504, 0.00675046, 33.9183, 177.839, 0.0079337, 0.00101559, 0.00221669, 0.00389784, 25.9365, 95.3727, 0.00658305, 0.00101695, 30.3173, -47.3428, -516.492, 22.5018, -30.3773, -278.243, 0.00365319, 0.00215764, -0.00870931, 0.00215007, 0.00215007, 0.00215007
2971, 1,0.00312422, -0.00214351, 0.00145711, 26.3195, -131.269, 0.0198536, 0.473276, 266.098, 0.552639, 0.00104623, 0.00389315, 0.00706128, 30.4699, 184.748, 0.0128914, 0.00104961, 0.00235654, 0.00415187, 22.2575, 100.754, 0.0116159, 0.00105105, 28.5672, -49.0201, -533.792, 20.655, -31.9491, -290.967, 0.00385224, 0.0023246, -0.00919632, 0.00232312, 0.00232312, 0.00232312
2972, 1,0.00345671, -0.00224446, 0.00150962, 20.7446, -137.499, 0.019803, -5.46937, 254.087, 0.596112, 0.00108059, 0.00422764, 0.0077094, 23.1607, 193.752, 0.0263877, 0.00108382, 0.00268702, 0.00469757, 18.4704, 104.339, 0.0254264, 0.00108542, 16.7827, -59.4928, -538.547, 14.1405, -39.3211, -287.835, 0.00407324, 0.00249017, -0.00975428, 0.00257146, 0.00257146, 0.00257146
2973, 1,0.0037207, -0.00239209, 0.00161564, 18.925, -144.113, 0.0190839, -2.31072, 247.584, 0.575772, 0.000979303, 0.00454927, 0.00824306, 22.1466, 200.285, 0.0361412, 0.000981856, 0.00289847, 0.00503849, 16.1301, 107.333, 0.0346937, 0.000983369, 10.2094, -55.3572, -555.707, 6.59051, -37.7217, -290.868, 0.0042685, 0.00281908, -0.0104043, 0.00265675, 0.00265675, 0.00265675
2974, 1,0.00384828, -0.00235425, 0.0016068, 19.4984, -140.958, 0.0202098, 3.11846, 253.518, 0.585581, 0.00101309, 0.00470291, 0.00847657, 24.8928, 194.272, 0.0432595, 0.00101602, 0.00299823, 0.00527089, 14.2387, 105.122, 0.041918, 0.00101752, 23.2929, -36.192, -569.917, 12.902, -22.4172, -305.851, 0.00466506, 0.0033052, -0.0112005, 0.0029616, 0.0029616, 0.0029616
2975, 1,0.00410121, -0.00240274, 0.00163707, 16.5188, -143.263, 0.0210165, 4.92984, 252.444, 0.610636, 0.00104702, 0.00497248, 0.00896887, 21.7348, 197.361, 0.0548673, 0.00105007, 0.00323003, 0.00569551, 11.3118, 106.621, 0.0536776, 0.00105166, 21.0338, -33.9557, -579.161, 11.1087, -20.8551, -310.117, 0.004954, 0.00365288, -0.0119104, 0.00322446, 0.00322446, 0.00322446
2976, 1,0.00453772, -0.00254628, 0.00171905, 13.7245, -150.927, 0.021348, -3.03494, 250.272, 0.653296, 0.00108114, 0.00541639, 0.00971277, 17.174, 207.724, 0.0697846, 0.00108426, 0.00366494, 0.0063036, 10.5861, 110.64, 0.0687748, 0.00108604, 10.6107, -53.5358, -580.247, 6.57123, -36.953, -301.539, 0.00523777, 0.00361789, -0.0123628, 0.00353849, 0.00353849, 0.00353849
2977, 1,0.00554487, -0.00273489, 0.00185577, 16.6496, -159.068, 0.0207473, 0.195343, 248.423, 0.625561, 0.000980485, 0.00649702, 0.0111831, 21.9526, 217.993, 0.0980037, 0.000982892, 0.00460011, 0.00751426, 11.6671, 116.294, 0.0971703, 0.00098461, -7.07933, -29.8212, -617.079, -9.25882, -21.4623, -318.161, 0.00557985, 0.00504328, -0.0143649, 0.00375328, 0.00375328, 0.00375328
2978, 1,0.00572083, -0.00269572, 0.00183491, 11.4867, -155.437, 0.0219977, 4.98109, 250.973, 0.648081, 0.00101447, 0.00659013, 0.0114828, 15.2233, 218.675, 0.108233, 0.00101711, 0.00485244, 0.00792515, 7.83707, 120.252, 0.107176, 0.00101884, -4.46501, -20.8605, -630.7, -11.6445, -14.9856, -334.125, 0.00593491, 0.00556879, -0.01528, 0.00399901, 0.00399901, 0.00399901
2979, 1,0.0061438, -0.00276233, 0.00187802, 14.9636, -158.004, 0.0230939, 8.56991, 247.755, 0.681924, 0.00104843, 0.00703736, 0.0121151, 19.1047, 216.652, 0.122891, 0.00105128, 0.00525208, 0.00846887, 10.9416, 116.707, 0.122027, 0.00105311, 1.42639, -20.411, -630.973, -6.13666, -14.7764, -329.209, 0.0064178, 0.00584902, -0.016041, 0.00444709, 0.00444709, 0.00444709
2980, 1,0.00646529, -0.00294718, 0.00200313, 15.4541, -163.218, 0.0234639, -1.85787, 252.173, 0.718358, 0.00108219, 0.00749798, 0.0126977, 20.8552, 221.701, 0.133742, 0.00108537, 0.00544034, 0.00873765, 10.3454, 117.255, 0.129673, 0.00108737, -6.78391, -28.3972, -629.922, -8.76127, -21.4401, -321.562, 0.00650656, 0.00595315, -0.0163472, 0.00452711, 0.00452711, 0.00452711
2981, 1,0.00854233, -0.00337477, 0.00229194, 3.97024, -169.331, 0.0238162, -1.48535, 255.76, 0.719489, 0.000981239, 0.0097107, 0.0162878, 6.08777, 236.383, 0.221577, 0.000983752, 0.00738249, 0.0117727, 2.06364, 124.19, 0.210401, 0.000985813, -15.9902, -26.723, -666.437, -12.2661, -19.929, -340.375, 0.00870091, 0.00836906, -0.0214468, 0.0064621, 0.0064621, 0.0064621
2982, 1,0.00905634, -0.00328983, 0.00221329, 12.6775, -172.791, 0.0257113, 6.08096, 264.233, 0.7341, 0.00101596, 0.0101763, 0.0160049, 16.2144, 255.902, 0.198238, 0.0010186, 0.00794044, 0.0116113, 9.27429, 138.238, 0.19014, 0.0010208, -59.105, -11.4928, -697.109, -43.8087, -8.82911, -362.077, 0.00692722, 0.00914271, -0.0207389, 0.00477543, 0.00477543, 0.00477543
2983, 1,0.00939311, -0.00341446, 0.0023051, 13.4319, -173.342, 0.0268621, 2.97455, 267.359, 0.773307, 0.00104978, 0.0105718, 0.0165272, 17.1572, 256.011, 0.210121, 0.00105285, 0.00821827, 0.0119484, 9.83074, 138.033, 0.198353, 0.00105516, -56.9335, -11.7142, -699.387, -42.2346, -9.19739, -362.666, 0.00727414, 0.00945293, -0.021433, 0.00501822, 0.00501822, 0.00501822
2984, 1,0.00984487, -0.00370646, 0.0025278, 1.25652, -171.156, 0.0279736, -3.95981, 258.873, 0.858705, 0.00108272, 0.0111425, 0.0185264, 2.6922, 240.248, 0.275999, 0.00108647, 0.00855722, 0.0135523, 0.0327537, 126.107, 0.257237, 0.00108888, -13.9965, -30.9762, -675.772, -10.5109, -22.7769, -345.032, 0.0102736, 0.00957581, -0.0244574, 0.00777256, 0.00777256, 0.00777256
2985, 1,0.0110715, -0.00408927, 0.00277519, -2.90544, -184.23, 0.0285031, -22.099, 300.312, 0.824002, 0.000927563, 0.0125234, 0.0198672, -5.06922, 275.178, 0.289841, 0.000930998, 0.00962266, 0.0143372, -0.666768, 142.659, 0.263259, 0.000933433, -64.5311, -28.6577, -732.347, -39.5849, -15.345, -373.046, 0.00937454, 0.0113902, -0.0260916, 0.00673324, 0.00673324, 0.00673324
2986, 1,0.0121734, -0.00405314, 0.0027621, -10.0708, -195.229, 0.0325909, -27.1722, 345.021, 0.84742, 0.000960886, 0.0136233, 0.0203575, -13.1969, 323.961, 0.276967, 0.000965129, 0.0107312, 0.0148847, -6.77506, 174.842, 0.256989, 0.000967936, -138.969, -44.5442, -788.37, -87.9854, -27.4794, -409.062, 0.00726338, 0.0121775, -0.0256588, 0.00500634, 0.00500634, 0.00500634
2987, 1,0.0129918, -0.00420001, 0.00286287, -8.969, -194.439, 0.0342625, -26.244, 340.94, 0.900337, 0.000992735, 0.0145009, 0.0215466, -11.6948, 321.661, 0.304537, 0.000997544, 0.0114883, 0.0158587, -6.12181, 173.791, 0.280903, 0.00100048, -133.576, -44.1876, -787.22, -84.9541, -27.1189, -409.301, 0.00796855, 0.0129008, -0.0271576, 0.00555641, 0.00555641, 0.00555641
2988, 1,0.0124853, -0.00451324, 0.00306493, -6.5109, -185.366, 0.0321318, -25.7912, 299.609, 0.95125, 0.00102325, 0.0140846, 0.0224459, -9.93891, 275.128, 0.353686, 0.00102818, 0.0108921, 0.0163557, -2.96646, 141.591, 0.317705, 0.00103103, -54.965, -39.2245, -731.196, -32.8121, -21.7171, -370.244, 0.0113793, 0.0124608, -0.0294025, 0.00834682, 0.00834682, 0.00834682
2989, 1,0.014565, 0.00168603, 0.00115601, 354.177, 94.974, 0.0319364, 456.828, -132.01, 0.472753, 0.00100049, 0.0162102, 0.0122404, 448.933, -166.016, 0.186726, 0.00100059, 0.0129287, 0.0100685, 259.577, -96.4328, 0.186726, 0.000999331, 37.5464, 21.4399, 439.06, 26.2276, 11.8195, 251.251, -0.00589515, -0.0068405, 0.0157429, -0.00472429, -0.00472429, -0.00472429
2990, 1,0.0167164, 0.00195524, 0.00132363, 376.343, 108.608, 0.0335481, 448.419, -138.146, 0.510632, 0.00103455, 0.0186379, 0.0138928, 484.824, -196.81, 0.228165, 0.0010351, 0.0148023, 0.0114396, 267.972, -115.508, 0.228165, 0.00103353, 79.3423, 32.5718, 478.515, 58.0465, 25.5604, 262.916, -0.00588413, -0.00876587, 0.0183096, -0.00459376, -0.00459376, -0.00459376
2991, 1,0.0164262, 0.0019723, 0.00134159, 375.887, 110.443, 0.032826, 442.205, -135.452, 0.500388, 0.00106877, 0.0183766, 0.0136655, 486.244, -198.682, 0.222924, 0.00106944, 0.0144807, 0.0111562, 265.606, -116.654, 0.222924, 0.00106782, 75.9148, 39.3196, 480.811, 57.6572, 30.8345, 261.469, -0.0060902, -0.00832884, 0.0181012, -0.0047257, -0.0047257, -0.0047257
2992, 1,0.0144446, 0.0017485, 0.00119473, 378.409, 99.7958, 0.031538, 452.816, -134.3, 0.469855, 0.00110345, 0.0161738, 0.0120766, 478.087, -185.964, 0.179038, 0.00110389, 0.01272, 0.0097799, 278.818, -114.134, 0.179038, 0.00110246, 42.808, 45.6545, 469.429, 36.1728, 34.0998, 272.13, -0.00624524, -0.00618743, 0.0157853, -0.00499581, -0.00499581, -0.00499581
2993, 1,0.0125781, 0.00157306, 0.00109347, 359.837, 89.6435, 0.0313669, 479.057, -164.591, 0.461473, 0.000981403, 0.0141073, 0.010246, 449.163, -175.889, 0.147441, 0.000980925, 0.0110598, 0.00820593, 270.739, -113.139, 0.147441, 0.000979837, 39.9113, 41.9713, 445.785, 38.1472, 34.5278, 266.742, -0.00545581, -0.00542286, 0.0139885, -0.00426896, -0.00426896, -0.00426896
2994, 1,0.0136808, 0.00178764, 0.00124416, 371.163, 101.147, 0.0320516, 470.452, -153.049, 0.473878, 0.00101429, 0.0154267, 0.010971, 472.055, -188.006, 0.16745, 0.00101428, 0.0119457, 0.00873115, 270.482, -116.897, 0.16745, 0.00101299, 51.8623, 50.4621, 461.693, 47.5487, 41.3497, 261.792, -0.00574495, -0.00588712, 0.0149971, -0.00439282, -0.00439282, -0.00439282
2995, 1,0.0138868, 0.00181121, 0.00125852, 372.058, 102.936, 0.0318435, 462.884, -144.809, 0.47109, 0.00104771, 0.0156673, 0.0111494, 474.807, -189.333, 0.171282, 0.00104793, 0.0121142, 0.00887699, 269.466, -116.887, 0.171282, 0.00104657, 50.9111, 50.9654, 466.121, 47.26, 40.9919, 262.41, -0.00592318, -0.00599039, 0.0153104, -0.0045179, -0.0045179, -0.0045179
2996, 1,0.0127633, 0.00166917, 0.00114915, 383.233, 95.4293, 0.0303581, 462.807, -147.77, 0.44539, 0.00108192, 0.0143857, 0.0104179, 478.269, -184.201, 0.142664, 0.00108198, 0.0111531, 0.00827475, 288.471, -117.21, 0.142664, 0.0010807, 32.645, 46.6058, 473.352, 32.0451, 36.6435, 282.941, -0.00576578, -0.00520237, 0.0142156, -0.00450981, -0.00450981, -0.00450981
2997, 1,0.0086921, 0.00130989, 0.000916588, 328.094, 77.8358, 0.0319104, 479.009, -159.9, 0.469511, 0.000980514, 0.00995932, 0.00706907, 405.182, -140.462, 0.072194, 0.000979396, 0.00743888, 0.00531238, 251.468, -87.3351, 0.072194, 0.000978517, 0.528629, 21.1815, 399.675, 3.6951, 14.0645, 244.246, -0.00403775, -0.0034018, 0.00981422, -0.00303443, -0.00303443, -0.00303443
2998, 1,0.00924711, 0.00145977, 0.00103688, 337.192, 84.6215, 0.0330985, 484.908, -169.026, 0.491441, 0.00101388, 0.0106541, 0.00758603, 421.017, -150.866, 0.0836641, 0.00101265, 0.00785776, 0.00558401, 253.914, -95.0197, 0.0836641, 0.00101169, 4.82836, 47.9086, 399.862, 13.0794, 37.9332, 234.047, -0.00446221, -0.00300252, 0.0100324, -0.0032632, -0.0032632, -0.0032632
2999, 1,0.00927763, 0.0014796, 0.0010493, 339.128, 85.7492, 0.033132, 489.704, -176.895, 0.49259, 0.00104769, 0.0107088, 0.00765742, 424.158, -155.167, 0.0848457, 0.00104631, 0.0078629, 0.00562334, 254.612, -98.9562, 0.0848457, 0.00104531, 6.54566, 54.7339, 404.223, 16.426, 44.2151, 236.228, -0.00457367, -0.00290711, 0.0101235, -0.00334075, -0.00334075, -0.00334075
3000, 1,0.00820502, 0.00138898, 0.000966812, 350.286, 83.5342, 0.0314838, 480.97, -163.821, 0.462224, 0.00108167, 0.00955159, 0.0067881, 432.798, -148.923, 0.0550048, 0.00108049, 0.00687436, 0.00492811, 268.4, -92.226, 0.0550048, 0.00107947, -5.16533, 26.3692, 425.567, 0.146168, 17.6893, 258.842, -0.00389938, -0.00299125, 0.00938347, -0.0028122, -0.0028122, -0.0028122
3001, 1,0.0053097, 0.00105042, 0.000727679, 297.038, 65.8135, 0.0326614, 477.017, -156.13, 0.483209, 0.000979845, 0.00635121, 0.00451646, 362.147, -113.669, 0.00932355, 0.000978264, 0.0042726, 0.00308495, 232.325, -70.494, 0.00926482, 0.000977576, -28.5883, 12.9346, 356.662, -23.0849, 9.39664, 225.17, -0.00264379, -0.00178, 0.00627775, -0.0018442, -0.0018442, -0.0018442
3002, 1,0.00512674, 0.00110796, 0.000793951, 282.948, 67.7261, 0.0336546, 476.057, -154.182, 0.501057, 0.00101298, 0.00622789, 0.00468735, 349.891, -92.0152, 0.00634667, 0.00101099, 0.00402938, 0.00311155, 216.466, -50.5735, 0.00599859, 0.0010103, -70.8934, 21.1108, 325.828, -57.2427, 14.9357, 194.028, -0.00314124, -0.00120902, 0.00584848, -0.00219076, -0.00219076, -0.00219076
3003, 1,0.0050122, 0.00112594, 0.000808079, 281.197, 68.8397, 0.0341266, 475.925, -153.732, 0.509729, 0.00104678, 0.00613459, 0.00463994, 349.425, -89.7139, 0.00390277, 0.00104466, 0.00389188, 0.00302846, 213.339, -47.8803, 0.00353301, 0.00104395, -74.7124, 17.0697, 326.784, -60.4015, 11.0003, 193.042, -0.0031143, -0.00121985, 0.0057929, -0.00214283, -0.00214283, -0.00214283
3004, 1,0.00508904, 0.00111691, 0.000776914, 310.092, 70.6805, 0.0339616, 479.283, -159.177, 0.507426, 0.00108139, 0.00620312, 0.00435963, 380.271, -119.854, 0.000597356, 0.0010796, 0.00397654, 0.00281401, 240.202, -73.4094, 0.000597356, 0.00107878, -25.9007, 9.89887, 375.564, -19.4288, 5.2321, 234.425, -0.00244847, -0.00176077, 0.00615456, -0.00157994, -0.00157994, -0.00157994
3005, 1,0.00399455, 0.000855152, 0.000579248, 248.274, 53.6168, 0.032865, 476.818, -155.738, 0.48703, 0.000979899, 0.00484547, 0.00336631, 301.203, -99.2357, 0, 0.000978078, 0.00314603, 0.00221368, 195.752, -65.6196, 0, 0.000977544, -13.589, 14.8222, 296.474, -10.0347, 17.5722, 189.321, -0.00184276, -0.00135336, 0.00480629, -0.00123854, -0.00123854, -0.00123854
3006, 1,0.00378555, 0.000850801, 0.000597329, 233.856, 52.7547, 0.0334719, 476.978, -156.136, 0.49846, 0.00101346, 0.00463487, 0.00339185, 286.061, -89.5663, 2.11758E-22, 0.00101138, 0.00293717, 0.00220014, 182.006, -57.8128, 2.11758E-22, 0.00101086, -34.8786, 35.8437, 267.734, -26.0385, 34.0692, 165.408, -0.00214793, -0.000800421, 0.00440162, -0.00146111, -0.00146111, -0.00146111
3007, 1,0.00385712, 0.000874318, 0.000615315, 236.863, 54.3418, 0.034116, 476.775, -155.736, 0.510608, 0.00104734, 0.00473087, 0.0034168, 290.848, -90.1053, 0, 0.00104518, 0.0029837, 0.00218742, 183.103, -57.0963, 0, 0.00104462, -30.6604, 26.8604, 274.116, -22.1201, 24.5712, 168.838, -0.00206893, -0.000991927, 0.00452287, -0.00136866, -0.00136866, -0.00136866
3008, 1,0.00422146, 0.000926904, 0.000633793, 258.313, 58.7672, 0.0347267, 475.005, -151.98, 0.52131, 0.00108149, 0.00514769, 0.00357674, 316.793, -100.976, 0, 0.0010795, 0.00329563, 0.00231467, 200.002, -62.7157, 0, 0.00107883, -13.7006, 3.74104, 312.889, -10.4876, 2.99927, 195.635, -0.00187558, -0.00160448, 0.00511849, -0.00120531, -0.00120531, -0.00120531
3009, 1,0.00321166, 0.000701246, 0.000483019, 195.74, 43.5464, 0.031054, 486.578, -173.397, 0.455328, 0.000980165, 0.00390739, 0.00269387, 238.397, -75.0086, 0, 0.000977664, 0.00251911, 0.00174785, 153.619, -49.0132, 0, 0.000977252, -9.74331, 1.38667, 233.382, -7.22526, 7.93069, 146.334, -0.00138003, -0.0012751, 0.00387215, -0.000917786, -0.000917786, -0.000917786
3010, 1,0.00302948, 0.00067257, 0.000462596, 181.603, 41.7491, 0.0320294, 484.509, -170.228, 0.473838, 0.00101412, 0.00370102, 0.00260611, 222.829, -67.2463, 0, 0.00101142, 0.00235855, 0.00168226, 140.705, -42.5397, 0, 0.00101101, -20.9038, 12.6574, 209.985, -15.4926, 14.826, 128.286, -0.00150051, -0.000972046, 0.00356362, -0.000997228, -0.000997228, -0.000997228
3011, 1,0.0030222, 0.000699781, 0.000482973, 181.716, 43.5476, 0.0326219, 478.366, -159.918, 0.484251, 0.0010479, 0.00372113, 0.00264873, 224.754, -67.5621, 0, 0.00104533, 0.00232378, 0.00168468, 139.014, -41.5261, 0, 0.00104489, -21.2084, 12.9023, 210.992, -16.2026, 14.6772, 126.104, -0.00151394, -0.000962183, 0.00357232, -0.000998287, -0.000998287, -0.000998287
3012, 1,0.00323942, 0.0007653, 0.000519048, 201.872, 48.1676, 0.0332195, 479.73, -161.089, 0.494816, 0.00108197, 0.0040039, 0.00275385, 249.669, -83.9293, 0, 0.00107954, 0.00247546, 0.00171816, 154.33, -53.7882, 0, 0.00107901, -2.52859, 8.8651, 245.451, -0.38935, 12.3213, 149.433, -0.00137046, -0.00124682, 0.00397908, -0.00085082, -0.00085082, -0.00085082
3013, 1,0.00255579, 0.00061089, 0.000422569, 154.179, 38.0687, 0.0235665, 482.166, -170.936, 0.314612, 0.000979672, 0.00315984, 0.00218435, 191.362, -59.2264, 0, 0.00097732, 0.00195603, 0.00135377, 117.58, -36.1632, 0, 0.000976955, -4.76956, -4.82428, 187.273, -3.7877, 1.11456, 111.163, -0.00102722, -0.00114097, 0.00312914, -0.000643703, -0.000643703, -0.000643703
3014, 1,0.00250995, 0.000585647, 0.000398594, 145.068, 36.575, 0.0253788, 500.696, -201.193, 0.351659, 0.00101433, 0.00309312, 0.00213293, 181.078, -52.1652, 0, 0.00101107, 0.00192826, 0.00134346, 109.429, -29.8886, 0, 0.00101071, -16.1675, 0.433462, 172.23, -13.5518, 3.2224, 99.9951, -0.00116187, -0.000989173, 0.00299742, -0.000755968, -0.000755968, -0.000755968
3015, 1,0.00254377, 0.000596312, 0.000404852, 150.261, 37.209, 0.0271045, 510.818, -216.684, 0.385176, 0.00104881, 0.00313859, 0.00216585, 187.002, -57.0863, 0, 0.00104509, 0.00194986, 0.00136165, 113.837, -34.5692, 0, 0.0010447, -12.5286, 5.58071, 178.207, -9.81924, 8.59716, 104.93, -0.00116674, -0.000954453, 0.00304743, -0.000755024, -0.000755024, -0.000755024
3016, 1,0.00251514, 0.000649358, 0.000446383, 152.67, 40.5113, 0.0278416, 494.63, -188.718, 0.396533, 0.00108229, 0.00316181, 0.00215483, 192.536, -60.2604, 4.33681E-19, 0.0010791, 0.00187037, 0.001278, 113.287, -35.7195, 4.33681E-19, 0.00107867, -5.08873, -1.74452, 187.615, -3.78338, 4.11793, 106.824, -0.00105625, -0.00109234, 0.00312635, -0.000642379, -0.000642379, -0.000642379
3017, 1,0.00213029, 0.000553077, 0.00038198, 126.904, 34.4552, 0.0131476, 458.51, -139.794, 0.11191, 0.000978729, 0.00267956, 0.00188879, 160.89, -47.6766, 0, 0.00097712, 0.00158361, 0.00113389, 93.2482, -26.4004, 0, 0.000976782, -3.5942, -12.3313, 158.955, -3.25071, -7.5991, 90.0509, -0.000823854, -0.00106695, 0.00266438, -0.000481873, -0.000481873, -0.000481873
3018, 1,0.00207771, 0.000538037, 0.000365087, 120.449, 33.6847, 0.0134645, 453.909, -132.238, 0.117805, 0.00101251, 0.00261304, 0.00180597, 153.777, -44.4641, 0, 0.00101092, 0.00154424, 0.00108291, 87.3834, -23.1855, 0, 0.00101057, -11.7031, -3.63588, 148.731, -10.7597, -1.58426, 81.9004, -0.000946314, -0.000879436, 0.00254722, -0.00059144, -0.00059144, -0.00059144
3019, 1,0.00202474, 0.000547023, 0.000371098, 115.835, 34.1929, 0.0144784, 457.992, -137.637, 0.137622, 0.0010466, 0.00256858, 0.00177258, 149.607, -41.6435, 0, 0.00104478, 0.00148318, 0.001039, 82.3848, -20.1838, 0, 0.00104442, -12.187, -6.65235, 143.77, -11.3598, -4.12107, 76.0324, -0.000915924, -0.000899876, 0.00249151, -0.000560569, -0.000560569, -0.000560569
3020, 1,0.00206877, 0.000580192, 0.000400625, 122.195, 36.1503, 0.0160837, 466.276, -149.882, 0.169508, 0.00108095, 0.0026469, 0.00186206, 157.959, -45.9595, 0, 0.00107885, 0.0014922, 0.00106615, 86.7359, -23.6725, 0, 0.00107846, -4.56061, -13.0428, 155.482, -4.28386, -7.95876, 83.2601, -0.000822453, -0.00105877, 0.00262698, -0.000465702, -0.000465702, -0.000465702
3021, 1,0.00190601, 0.000504414, 0.00034975, 114.513, 31.2841, 0.00683592, 402.91, -107.351, 0, 0.000978132, 0.00240851, 0.00169975, 145.56, -43.5865, 0, 0.00097712, 0.00140484, 0.00100566, 83.6356, -24.2984, 0, 0.000976814, -2.08601, -11.8439, 144.689, -1.848, -7.3782, 82.1215, -0.000729828, -0.00096476, 0.00240181, -0.000421268, -0.000421268, -0.000421268
3022, 1,0.00169542, 0.000499887, 0.000341379, 99.534, 31.1458, 0.00644592, 361.597, -76.372, 0, 0.00101153, 0.0021915, 0.00152404, 130.339, -37.7611, 0, 0.00101089, 0.00120241, 0.000851787, 69.0164, -18.1004, 0, 0.00101057, -7.28064, -5.7783, 126.342, -6.85454, -3.30994, 64.4656, -0.000748117, -0.00076925, 0.00213007, -0.00042961, -0.00042961, -0.00042961
3023, 1,0.00164618, 0.000509564, 0.000347883, 95.5609, 31.7441, 0.00647248, 356.295, -67.5947, 0, 0.00104533, 0.00215229, 0.00149394, 126.99, -35.7948, 0, 0.00104479, 0.00114304, 0.000808886, 64.4137, -15.7255, 0, 0.00104445, -8.07572, -7.71077, 123.171, -7.83172, -5.12581, 60.1341, -0.000735679, -0.000776564, 0.00209306, -0.000414499, -0.000414499, -0.000414499
3024, 1,0.00174028, 0.000534763, 0.000370537, 103.302, 33.1465, 0.00701658, 405.522, -99.1368, 0, 0.00107989, 0.00227345, 0.00162152, 136.241, -39.5039, 0, 0.00107884, 0.00120844, 0.000885061, 70.5435, -18.9864, 0, 0.00107848, -1.86582, -14.7701, 135.148, -1.81568, -10.104, 68.8788, -0.000662759, -0.000958897, 0.00226268, -0.000338604, -0.000338604, -0.000338604
3025, 1,0.00171207, 0.000465246, 0.000325177, 104.89, 28.7367, 0.00509407, 312.77, -96.8933, 0, 0.000978105, 0.00217541, 0.00152056, 133.408, -41.8444, 0, 0.000977232, 0.00125015, 0.000875438, 76.5402, -24.3303, 0, 0.000976954, 1.10091, -8.3099, 132.742, 1.22556, -3.50555, 75.271, -0.000635624, -0.000855695, 0.00217028, -0.000357355, -0.000357355, -0.000357355
3026, 1,0.00152982, 0.000458909, 0.000313974, 93.6354, 28.5892, 0.0044887, 270.925, -78.8601, 0, 0.00101173, 0.00198755, 0.00136117, 122.084, -39.1437, 0, 0.00101108, 0.0010731, 0.000739148, 65.3118, -21.0636, 0, 0.00101078, -1.30342, -1.26893, 120.004, -1.09184, 1.16744, 63.1152, -0.000643801, -0.000678464, 0.00195742, -0.000354701, -0.000354701, -0.000354701
3027, 1,0.00148396, 0.000469396, 0.000320964, 90.9906, 29.2295, 0.00446945, 270.926, -80.0878, 0, 0.0010457, 0.00195241, 0.00133254, 120.111, -38.7095, 0, 0.001045, 0.00101638, 0.000693756, 61.975, -20.2024, 0, 0.00104468, -0.0882603, -2.11382, 118.331, 0.0037513, 0.425671, 60.1777, -0.000611782, -0.000686545, 0.00192645, -0.000318416, -0.000318416, -0.000318416
3028, 1,0.00155861, 0.00049443, 0.000344109, 95.6847, 30.5576, 0.00512068, 318.138, -102.139, 0, 0.00108009, 0.00205257, 0.00143114, 126.154, -39.7667, 0, 0.00107899, 0.00106508, 0.000744243, 65.3, -20.955, 0, 0.00107867, 1.30516, -7.75869, 125.754, 1.30785, -3.09007, 64.6473, -0.000598968, -0.000805474, 0.00204974, -0.000302675, -0.000302675, -0.000302675
3029, 1,0.00157671, 0.000431024, 0.00030447, 95.9597, 26.4655, 0.00379629, 226.217, -62.9856, 0, 0.000977705, 0.00200525, 0.00141141, 122.184, -37.4462, 0, 0.0009773, 0.00115005, 0.000809343, 69.9215, -21.6135, 0, 0.000977049, 0.215923, -9.58259, 121.705, 0.302929, -4.26097, 68.7987, -0.000585233, -0.000808864, 0.00200169, -0.00033421, -0.00033421, -0.00033421
3030, 1,0.00143736, 0.000424301, 0.000292496, 88.1556, 26.3268, 0.00326361, 195.085, -54.7713, 0, 0.00101151, 0.00186014, 0.00128188, 114.331, -36.3756, 0, 0.00101121, 0.00101586, 0.000701355, 62.1106, -19.9287, 0, 0.00101094, -0.0399037, -3.57638, 112.743, 0.104769, -0.553837, 60.2353, -0.000573443, -0.000673453, 0.00183714, -0.000311467, -0.000311467, -0.000311467
3031, 1,0.00139611, 0.000434872, 0.000299741, 85.579, 26.9673, 0.00327587, 196.633, -56.0485, 0, 0.00104549, 0.00182989, 0.001263, 112.434, -35.7149, 0, 0.00104515, 0.000963325, 0.000666583, 58.8283, -18.8511, 0, 0.00104486, 0.282597, -4.28468, 111.147, 0.353373, -1.16451, 57.3646, -0.000556341, -0.000675427, 0.0018113, -0.000289304, -0.000289304, -0.000289304
3032, 1,0.00142578, 0.000460033, 0.000323507, 86.3389, 28.2595, 0.00379621, 228.231, -65.4065, 0, 0.00107963, 0.00188517, 0.00133179, 114.507, -34.6144, 0, 0.00107909, 0.000967009, 0.000686656, 58.2583, -17.525, 0, 0.00107879, -0.0809079, -10.3641, 114.288, -0.072143, -5.12659, 57.7739, -0.000546847, -0.000775325, 0.00188387, -0.000277545, -0.000277545, -0.000277545
3033, 1,0.00145407, 0.000398326, 0.000284978, 88.1353, 24.2838, 0.00298476, 177.024, -48.471, 0, 0.000977599, 0.00184943, 0.00131445, 112.159, -33.6878, 0, 0.000977365, 0.00106095, 0.000752677, 64.3121, -19.5159, 0, 0.00097714, 0.113345, -10.9399, 111.89, 0.2051, -5.06796, 63.4104, -0.000528222, -0.000773057, 0.00184789, -0.000303228, -0.000303228, -0.000303228
3034, 1,0.00133146, 0.000389287, 0.000271081, 81.6878, 24.0225, 0.0025781, 153.741, -42.8076, 0, 0.00101146, 0.00171884, 0.00119218, 105.539, -33.121, 0, 0.0010113, 0.00094566, 0.000655494, 57.981, -18.3949, 0, 0.00101106, -0.0192186, -4.97865, 104.361, 0.137621, -1.3216, 56.3686, -0.000521654, -0.000643233, 0.00170232, -0.000286508, -0.000286508, -0.000286508
3035, 1,0.0012884, 0.000399572, 0.000278307, 78.9958, 24.6365, 0.00254254, 151.333, -41.7463, 0, 0.00104544, 0.00168669, 0.00117346, 103.511, -32.369, 0, 0.00104528, 0.000891252, 0.000620573, 54.5928, -17.2568, 0, 0.00104502, 0.268019, -5.78223, 102.621, 0.373407, -2.00574, 53.4026, -0.00050375, -0.000645456, 0.00167445, -0.000263568, -0.000263568, -0.000263568
3036, 1,0.00130525, 0.000426105, 0.000303511, 78.9423, 25.9805, 0.00287218, 170.105, -45.9471, 0, 0.00107951, 0.00173056, 0.00123538, 104.829, -31.1471, 0, 0.00107925, 0.00088072, 0.000630727, 53.147, -15.8123, 0, 0.00107898, 0.150896, -11.4631, 104.753, 0.187133, -5.57888, 52.8285, -0.000487116, -0.000737816, 0.00173037, -0.000244864, -0.000244864, -0.000244864
3037, 1,0.00134476, 0.000366708, 0.000266431, 80.8911, 22.1723, 0.00261988, 156.704, -44.4014, 0, 0.000977656, 0.00170811, 0.00122975, 102.784, -29.9778, 0, 0.000977428, 0.000983928, 0.000706121, 59.2117, -17.4412, 0, 0.000977229, -0.142492, -12.6148, 102.691, -0.0493169, -6.19029, 58.5633, -0.000475131, -0.000746314, 0.00170785, -0.000275848, -0.000275848, -0.000275848
3038, 1,0.00121668, 0.000354188, 0.000249652, 74.3211, 21.7247, 0.00228674, 138.617, -41.053, 0, 0.00101158, 0.00156876, 0.00110035, 95.8628, -29.4235, 0, 0.00101139, 0.000866332, 0.00060705, 52.9325, -16.405, 0, 0.00101118, -0.089808, -6.76155, 95.1219, 0.0609787, -2.52478, 51.6788, -0.00046484, -0.00061712, 0.00155939, -0.000256707, -0.000256707, -0.000256707
3039, 1,0.00117194, 0.000363903, 0.000256591, 71.4696, 22.2986, 0.00223037, 134.911, -39.512, 0, 0.00104557, 0.0015345, 0.00108077, 93.6428, -28.4921, 0, 0.00104538, 0.000810576, 0.0005715, 49.4109, -15.1223, 0, 0.00104515, 0.0186173, -7.69725, 93.1551, 0.125056, -3.32041, 48.5623, -0.000447835, -0.000618612, 0.00152878, -0.000235074, -0.000235074, -0.000235074
3040, 1,0.00118949, 0.000392528, 0.000283833, 71.374, 23.7354, 0.00244239, 145.562, -40.216, 0, 0.00107962, 0.0015812, 0.00114767, 95.0179, -27.2157, 0, 0.00107939, 0.000798593, 0.000582455, 47.8201, -13.6216, 0, 0.00107915, 0.0254461, -13.3937, 95.0153, 0.0717235, -6.87958, 47.6726, -0.000427751, -0.00071129, 0.00158069, -0.000212701, -0.000212701, -0.000212701
3041, 1,0.00123967, 0.000335977, 0.000248775, 73.8674, 20.1052, 0.00238386, 142.434, -40.257, 0, 0.000977719, 0.00157199, 0.00115085, 93.6785, -26.4054, 0, 0.000977499, 0.000910088, 0.000663348, 54.2801, -15.5032, 0, 0.000977326, -0.155397, -14.2983, 93.6698, -0.059638, -7.32593, 53.895, -0.00041904, -0.000723291, 0.00157076, -0.000245434, -0.000245434, -0.000245434
3042, 1,0.00110061, 0.000319551, 0.000228735, 66.6483, 19.4481, 0.00209749, 127.44, -38.0894, 0, 0.00101168, 0.00141798, 0.00100947, 85.91, -25.5681, 0, 0.00101147, 0.000785026, 0.000558171, 47.5418, -14.2569, 0, 0.00101129, -0.260737, -8.59642, 85.5614, -0.121236, -3.80139, 46.6935, -0.00040764, -0.000591936, 0.00141445, -0.00022663, -0.00022663, -0.00022663
3043, 1,0.00105468, 0.000328593, 0.000235285, 63.7329, 19.9774, 0.00203763, 123.503, -36.425, 0, 0.00104569, 0.00138201, 0.000989716, 83.5902, -24.5681, 0, 0.00104549, 0.000728498, 0.000522866, 43.9854, -12.941, 0, 0.00104529, -0.122447, -9.60462, 83.4313, -0.0241702, -4.65298, 43.5, -0.000388947, -0.000593346, 0.00138096, -0.000203804, -0.000203804, -0.000203804
3044, 1,0.00107817, 0.000359447, 0.00026469, 63.9409, 21.5165, 0.0021792, 129.383, -35.1532, 0, 0.00107973, 0.00143691, 0.00106522, 85.3767, -23.3104, 0, 0.00107952, 0.000720124, 0.000537943, 42.5854, -11.46, 0, 0.00107932, -0.0481478, -15.3142, 85.2934, 0.00449251, -8.18907, 42.5645, -0.000367791, -0.000686558, 0.00143262, -0.000180068, -0.000180068, -0.000180068
3045, 1,0.00113879, 0.000306453, 0.000232355, 67.0135, 18.0935, 0.00217945, 129.1, -35.3416, 0, 0.000977764, 0.00144124, 0.00107716, 84.7961, -22.8265, 0, 0.000977566, 0.000839307, 0.000623415, 49.4663, -13.5617, 0, 0.000977419, -0.187791, -16.0435, 84.7109, -0.0894375, -8.5236, 49.2981, -0.000363282, -0.000701701, 0.00143534, -0.000215402, -0.000215402, -0.000215402
3046, 1,0.000987687, 0.000285905, 0.000208795, 59.1424, 17.2176, 0.00190693, 114.83, -33.2623, 0, 0.00101176, 0.0012714, 0.000922993, 76.1754, -21.807, 0, 0.00101157, 0.000705763, 0.000511584, 42.2628, -12.1991, 0, 0.00101141, -0.279808, -10.3849, 76.0857, -0.153032, -5.04839, 41.7988, -0.000348727, -0.000567892, 0.00127046, -0.000194806, -0.000194806, -0.000194806
3047, 1,0.000941207, 0.000294211, 0.000214897, 56.1678, 17.6992, 0.00183747, 110.133, -31.162, 0, 0.00104579, 0.00123428, 0.000903459, 73.7576, -20.7142, 0, 0.00104561, 0.000649153, 0.000476992, 38.6778, -10.8266, 0, 0.00104545, -0.152356, -11.46, 73.755, -0.0660965, -5.95211, 38.498, -0.000328841, -0.000568932, 0.0012339, -0.000171345, -0.000171345, -0.000171345
3048, 1,0.000973768, 0.000327365, 0.000246581, 56.8289, 19.3443, 0.00194381, 113.778, -29.0959, 0, 0.00107983, 0.00130059, 0.000990387, 76.1062, -19.4606, 0, 0.00107966, 0.000647483, 0.000498851, 37.6182, -9.3567, 0, 0.00107949, -0.0715048, -17.2368, 75.69, -0.015544, -9.51256, 37.5982, -0.000307636, -0.000663602, 0.00128705, -0.000147347, -0.000147347, -0.000147347
3049, 1,0.00104164, 0.000278447, 0.000217488, 60.3373, 16.1513, 0.00199809, 116.92, -30.5167, 0, 0.000977798, 0.0013157, 0.0010088, 76.1586, -19.2478, 0, 0.000977619, 0.000770813, 0.000585825, 44.7649, -11.625, 0, 0.000977498, -0.208237, -17.812, 75.7637, -0.106853, -9.74934, 44.7311, -0.000307291, -0.000680288, 0.00129987, -0.0001852, -0.0001852, -0.0001852
3050, 1,0.000879533, 0.000253781, 0.000190357, 51.8671, 15.0582, 0.00171412, 101.825, -28.0451, 0, 0.00101181, 0.00113111, 0.000842698, 66.7428, -18.0633, 0, 0.00101165, 0.000629756, 0.000468193, 37.1427, -10.1575, 0, 0.00101152, -0.281328, -12.2018, 66.6731, -0.164824, -6.32829, 36.9655, -0.000289737, -0.000544572, 0.0011274, -0.000162834, -0.000162834, -0.000162834
3051, 1,0.000833208, 0.000261319, 0.000195984, 48.8659, 15.491, 0.00163546, 96.3883, -25.5103, 0, 0.00104586, 0.00109354, 0.000824252, 64.2597, -16.8757, 0, 0.00104571, 0.000573772, 0.000435188, 33.5611, -8.7264, 0, 0.00104557, -0.153894, -13.3448, 64.1257, -0.0783476, -7.28571, 33.5432, -0.000268375, -0.000545316, 0.00108753, -0.00013848, -0.00013848, -0.00013848
3052, 1,0.000875728, 0.000296719, 0.000229944, 50.013, 17.2394, 0.00173573, 99.4876, -23.0678, 0, 0.00107991, 0.00117207, 0.000923468, 67.1997, -15.6039, 0, 0.00107978, 0.000579759, 0.000464711, 32.879, -7.25105, 0, 0.00107963, -0.0946048, -19.1901, 66.0965, -0.0357778, -10.8734, 32.6623, -0.000247355, -0.000641091, 0.00114167, -0.000114578, -0.000114578, -0.000114578
3053, 1,0.000949423, 0.000252407, 0.000204617, 53.8936, 14.2995, 0.00182897, 105.316, -25.6911, 0, 0.000977861, 0.001197, 0.000947355, 67.8412, -15.666, 0, 0.000977702, 0.000705405, 0.000551329, 40.2112, -9.68961, 0, 0.000977607, -0.226427, -19.5931, 66.8176, -0.121392, -10.9956, 40.1858, -0.000251214, -0.000658823, 0.00116421, -0.00015497, -0.00015497, -0.00015497
3054, 1,0.000777719, 0.000223733, 0.000173973, 44.8995, 12.9965, 0.00152494, 88.898, -22.7023, 0, 0.00101188, 0.000999209, 0.000770628, 57.7149, -14.3335, 0, 0.00101174, 0.000558051, 0.000428979, 32.2341, -8.12895, 0, 0.00101164, -0.27766, -14.0307, 57.3088, -0.168407, -7.62539, 32.1806, -0.000230868, -0.000521525, 0.000984964, -0.000130908, -0.000130908, -0.000130908
3055, 1,0.00073286, 0.000230475, 0.000179098, 41.9386, 13.38, 0.00144099, 82.9084, -19.7345, 0, 0.00104594, 0.000962493, 0.000754518, 55.2336, -13.0554, 0, 0.00104583, 0.000503991, 0.000398798, 28.7213, -6.64395, 0, 0.00104572, -0.148233, -15.2332, 54.5476, -0.0807063, -8.62925, 28.6418, -0.000208045, -0.000521909, 0.000941807, -0.000105685, -0.000105685, -0.000105685
3056, 1,0.000785774, 0.000267963, 0.000215229, 43.5821, 15.2235, 0.00154973, 86.1226, -16.8779, 0, 0.00108, 0.00105351, 0.00086659, 58.7663, -11.7465, 0, 0.00107991, 0.000518261, 0.000436813, 28.437, -5.14893, 0, 0.00107979, -0.110479, -21.1497, 56.4998, -0.0488743, -12.252, 27.7477, -0.000186903, -0.000618534, 0.000996071, -8.17081E-05, -8.17081E-05, -8.17081E-05
3057, 1,0.000863522, 0.000228841, 0.000194246, 47.7462, 12.5626, 0.00166994, 94.1944, -20.8766, 0, 0.000977932, 0.00108703, 0.000894703, 59.9328, -12.0803, 0, 0.000977793, 0.000643956, 0.000520808, 35.8445, -7.75379, 0, 0.000977724, -0.243268, -21.376, 57.8601, -0.134727, -12.2547, 35.6508, -0.000195052, -0.000637122, 0.00102816, -0.000124713, -0.000124713, -0.000124713
3058, 1,0.000684401, 0.000196456, 0.000160339, 38.3393, 11.0658, 0.00134684, 76.5091, -17.3813, 0, 0.00101195, 0.00087855, 0.000709608, 49.224, -10.6133, 0, 0.00101184, 0.000492126, 0.000395397, 27.6048, -6.10962, 0, 0.00101176, -0.276195, -15.8617, 47.9779, -0.171618, -8.93271, 27.4332, -0.000172207, -0.000498508, 0.000842923, -9.91265E-05, -9.91265E-05, -9.91265E-05
3059, 1,0.000642601, 0.00020238, 0.000164945, 35.4923, 11.4, 0.00126313, 70.2322, -13.9846, 0, 0.00104602, 0.00084427, 0.000697457, 46.8183, -9.24109, 0, 0.00104594, 0.000441578, 0.000369658, 24.2338, -4.56731, 0, 0.00104586, -0.147062, -17.1251, 44.9954, -0.0848179, -9.985, 23.7717, -0.000147908, -0.000498531, 0.0007964, -7.30216E-05, -7.30216E-05, -7.30216E-05
3060, 1,0.000705946, 0.000241633, 0.000202975, 37.6263, 13.3225, 0.00138857, 73.9613, -10.7292, 0, 0.00108008, 0.000947467, 0.000822339, 50.9208, -7.88201, 0, 0.00108003, 0.000464536, 0.00041673, 24.3593, -3.04409, 0, 0.00107994, -0.125956, -23.1059, 46.8779, -0.0615074, -13.6423, 22.8361, -0.00012633, -0.000595631, 0.000849887, -4.87851E-05, -4.87851E-05, -4.87851E-05
3061, 1,0.000785518, 0.000208263, 0.000186886, 41.9722, 10.9656, 0.00152157, 83.5437, -16.0187, 0, 0.000978003, 0.000987911, 0.000852942, 52.5367, -8.49254, 0, 0.000977884, 0.000587507, 0.000495278, 31.7152, -5.819, 0, 0.000977842, -0.258375, -23.146, 48.882, -0.146663, -13.515, 31.1187, -0.000138826, -0.000614963, 0.000891565, -9.4445E-05, -9.4445E-05, -9.4445E-05
3062, 1,0.000602138, 0.000172766, 0.000150275, 32.3067, 9.30547, 0.00118566, 64.9207, -12.0619, 0, 0.00101202, 0.000772507, 0.000663029, 41.4295, -6.90075, 0, 0.00101193, 0.000433723, 0.0003692, 23.3362, -4.09745, 0, 0.00101189, -0.278366, -17.6831, 38.6637, -0.176267, -10.2414, 22.7101, -0.000113747, -0.00047529, 0.000701004, -6.74944E-05, -6.74944E-05, -6.74944E-05
3063, 1,0.000565314, 0.000177861, 0.000154353, 29.6625, 9.59072, 0.00110918, 58.7064, -8.26415, 0, 0.00104608, 0.000742564, 0.000656745, 39.1877, -5.43425, 0, 0.00104603, 0.000388616, 0.000349832, 20.1967, -2.49807, 0, 0.00104598, -0.149504, -19.0019, 35.4542, -0.0900192, -11.3381, 18.9224, -8.79698E-05, -0.000474857, 0.000651016, -4.05027E-05, -4.05027E-05, -4.05027E-05
3064, 1,0.000638408, 0.000218317, 0.000193768, 32.2428, 11.5646, 0.00125568, 63.1645, -4.62513, 0, 0.00108015, 0.000856681, 0.000793452, 43.7876, -4.01077, 0, 0.00108014, 0.00042018, 0.000406055, 20.717, -0.936992, 0, 0.00108009, -0.140538, -25.0413, 37.2141, -0.0732132, -15.031, 17.9151, -6.56342E-05, -0.000572081, 0.000702824, -1.58091E-05, -1.58091E-05, -1.58091E-05
3065, 1,0.000716993, 0.000191129, 0.000182993, 36.6486, 9.53061, 0.00138605, 73.4543, -11.0996, 0, 0.000978082, 0.000901731, 0.000824158, 45.7545, -4.9023, 0, 0.000977984, 0.000537111, 0.000475795, 27.8746, -3.8847, 0, 0.000977967, -0.272166, -24.8897, 39.8687, -0.157587, -14.7664, 26.5781, -8.25364E-05, -0.000592093, 0.00075415, -6.41671E-05, -6.41671E-05, -6.41671E-05
3066, 1,0.00053361, 0.000153479, 0.000144598, 26.9309, 7.75489, 0.00104684, 54.386, -6.7367, 0, 0.0010121, 0.000684586, 0.000634402, 34.5002, -3.19601, 0, 0.00101205, 0.000384694, 0.00035224, 19.5178, -2.09269, 0, 0.00101203, -0.283344, -19.4792, 29.3506, -0.181753, -11.5394, 17.9992, -5.54773E-05, -0.000451576, 0.000558906, -3.60023E-05, -3.60023E-05, -3.60023E-05
3067, 1,0.000503695, 0.000157763, 0.000148169, 24.5737, 7.99284, 0.000985085, 48.6117, -2.57423, 0, 0.00104617, 0.000660905, 0.000635936, 32.5058, -1.63299, 0, 0.00104615, 0.000346983, 0.000341217, 16.6963, -0.434515, 0, 0.00104613, -0.156215, -20.8503, 25.9055, -0.0970837, -12.6786, 14.0792, -2.82149E-05, -0.00045061, 0.000505333, -8.11796E-06, -8.11796E-06, -8.11796E-06
3068, 1,0.000584908, 0.000198588, 0.000188183, 27.5094, 9.97703, 0.0011536, 53.8543, 1.42751, 0, 0.00108023, 0.00078348, 0.000782269, 37.4716, -0.132096, 0, 0.00108026, 0.000386355, 0.000405958, 17.5612, 1.17286, 0, 0.00108024, -0.154319, -26.9397, 27.4903, -0.0841051, -16.4056, 12.9711, -4.80653E-06, -0.000547577, 0.000554554, 1.72258E-05, 1.72258E-05, 1.72258E-05
3069, 1,0.000659378, -0.000188002, 0.000182874, 31.8465, -9.23533, 0.00126628, 64.0567, -6.10737, 0, 0.00097815, 0.000830298, 0.000810164, 39.6758, -1.30941, 0, 0.000978074, 0.000493778, 0.000463373, 24.3727, -1.95089, 0, 0.000978084, -0.284431, -26.592, 30.8047, -0.167239, -15.9972, 22.0171, -2.61763E-05, -0.000568226, 0.000615625, -3.38731E-05, -3.38731E-05, -3.38731E-05
3070, 1,0.000481003, -0.00014861, 0.000143897, 22.3173, -7.33204, 0.000935331, 45.1344, -1.39858, 0, 0.00101217, 0.000617581, 0.000626531, 28.5708, 0.50167, 0, 0.00101214, 0.000346599, 0.000346087, 16.2252, -0.0946507, 0, 0.00101215, -0.29134, -21.2351, 20.0214, -0.18821, -12.8151, 13.2872, 2.61178E-06, -0.000427073, 0.000416315, -4.64248E-06, -4.64248E-06, -4.64248E-06
3071, 1,0.000459464, -0.000151341, 0.000147033, 20.306, -7.44539, 0.000894538, 40.1194, 3.0865, 0, 0.00104623, 0.000601639, 0.000637384, 26.8819, 2.16274, 0, 0.00104624, 0.000317776, 0.000344915, 13.7839, 1.62332, 0, 0.00104625, -0.166496, -22.6534, 16.3316, -0.1054, -13.9932, 9.22859, 3.13718E-05, -0.00042547, 0.000359015, 2.4145E-05, 2.4145E-05, 2.4145E-05
3072, 1,0.000546363, -0.000190453, 0.000186676, 23.466, -9.28716, 0.00108272, 46.0505, 7.4237, 0, 0.00108029, 0.000729252, 0.000790186, 32.0341, 3.75444, 0, 0.00108036, 0.000363486, 0.000416871, 14.91, 3.28576, 0, 0.00108037, -0.167065, -28.7847, 17.6884, -0.0939568, -17.7533, 7.98997, 5.61631E-05, -0.000521798, 0.000404739, 5.0327E-05, 5.0327E-05, 5.0327E-05
3073, 1,0.000613701, -0.000205039, 0.000186621, 27.6169, -10.6536, 0.00116531, 55.4911, -1.03376, 0, 0.000978225, 0.000774791, 0.000812154, 34.3594, 2.28721, 0, 0.000978172, 0.000458324, 0.000458837, 21.2501, -0.0168043, 0, 0.000978208, -0.295584, -28.2378, 21.6718, -0.175848, -17.1956, 17.4219, 3.02623E-05, -0.000543054, 0.000475657, -3.55667E-06, -3.55667E-06, -3.55667E-06
3074, 1,0.000445255, -0.000166596, 0.000148305, 18.512, -8.81329, 0.000854382, 37.3197, 3.95471, 0, 0.00101225, 0.000572579, 0.00064051, 23.6947, 4.19253, 0, 0.00101224, 0.000320209, 0.000351518, 13.4961, 1.89687, 0, 0.00101228, -0.302134, -22.9341, 10.6586, -0.19539, -14.0557, 8.56043, 6.05277E-05, -0.000401461, 0.000272898, 2.65929E-05, 2.65929E-05, 2.65929E-05
3075, 1,0.000432675, -0.000169331, 0.000151133, 16.8616, -8.94655, 0.000837852, 33.2465, 8.7152, 0, 0.0010463, 0.000565009, 0.00066134, 22.327, 5.95336, 0, 0.00104634, 0.000300867, 0.000360808, 11.4533, 3.67587, 0, 0.00104638, -0.180215, -24.3943, 6.71441, -0.114846, -15.2689, 4.35618, 9.07988E-05, -0.000399114, 0.000211723, 5.62939E-05, 5.62939E-05, 5.62939E-05
3076, 1,0.00052262, -0.000207468, 0.000189472, 20.104, -10.7613, 0.00104115, 39.6693, 13.3565, 0, 0.00108036, 0.000694084, 0.000817299, 27.4769, 7.64937, 0, 0.00108046, 0.000351167, 0.000438393, 12.7438, 5.40214, 0, 0.0010805, -0.178821, -30.5592, 7.78991, -0.1028, -19.0609, 2.95731, 0.000117285, -0.000494417, 0.000253035, 8.35028E-05, 8.35028E-05, 8.35028E-05
3077, 1,0.00058038, -0.000225826, 0.000194091, 23.9812, -12.2529, 0.00108573, 47.8772, 4.12753, 0, 0.00097829, 0.000735517, 0.000830446, 29.8214, 5.88814, 0, 0.000978262, 0.000431228, 0.000462673, 18.5308, 1.91795, 0, 0.000978325, -0.305333, -29.8102, 12.4511, -0.183199, -18.3487, 12.778, 8.67939E-05, -0.000516248, 0.000333892, 2.67928E-05, 2.67928E-05, 2.67928E-05
3078, 1,0.000425696, -0.000189303, 0.000157449, 15.4826, -10.5206, 0.000804382, 30.9615, 9.32207, 0, 0.00101232, 0.000548543, 0.000675307, 19.8221, 7.87702, 0, 0.00101234, 0.000305207, 0.000368223, 11.3152, 3.88225, 0, 0.00101241, -0.315792, -24.5593, 1.24402, -0.203304, -15.2481, 3.80464, 0.000118276, -0.000374412, 0.000128317, 5.77093E-05, 5.77093E-05, 5.77093E-05
3079, 1,0.000421748, -0.000192213, 0.000160136, 14.1662, -10.6812, 0.000811921, 27.8506, 14.3078, 0, 0.00104637, 0.000549102, 0.000705898, 18.7511, 9.73947, 0, 0.00104644, 0.000294999, 0.000387644, 9.6456, 5.7236, 0, 0.00104651, -0.197455, -26.0561, -2.96485, -0.125462, -16.4926, -0.552722, 0.000150073, -0.000371211, 6.31108E-05, 8.83356E-05, 8.83356E-05, 8.83356E-05
3080, 1,0.000512555, -0.000228764, 0.00019651, 17.3712, -12.441, 0.00102528, 34.5465, 19.2198, 0, 0.00108043, 0.000676791, 0.000862428, 23.7443, 11.553, 0, 0.00108056, 0.000348338, 0.00046947, 11.0141, 7.52234, 0, 0.00108063, -0.189305, -32.2458, -2.22397, -0.110412, -20.3148, -2.14185, 0.000178564, -0.000465101, 9.90953E-05, 0.000116758, 0.000116758, 0.000116758
3081, 1,0.000559141, -0.000250029, 0.000204949, 20.926, -14.0177, 0.00102911, 41.287, 9.38144, 0, 0.000978366, 0.000711856, 0.00086443, 26.0315, 9.49413, 0, 0.000978364, 0.000412535, 0.000474934, 16.217, 3.85389, 0, 0.000978453, -0.3137, -31.2922, 3.12356, -0.189247, -19.4432, 8.07075, 0.00014343, -0.000487469, 0.000189967, 5.71843E-05, 5.71843E-05, 5.71843E-05
3082, 1,0.000420359, -0.000216021, 0.000170618, 13.1343, -12.42, 0.000782665, 25.9373, 14.6978, 0, 0.00101239, 0.000542785, 0.000728247, 16.8237, 11.5559, 0, 0.00101244, 0.000300351, 0.000394966, 9.62206, 5.86206, 0, 0.00101254, -0.332623, -26.094, -8.24104, -0.212139, -16.3792, -0.994873, 0.000175861, -0.000345601, -1.77741E-05, 8.87116E-05, 8.87116E-05, 8.87116E-05
3083, 1,0.000424151, -0.000219286, 0.000173341, 12.1016, -12.6155, 0.000811501, 23.6925, 19.8548, 0, 0.00104643, 0.000550695, 0.000767842, 16.0031, 13.5213, 0, 0.00104654, 0.000298326, 0.000423582, 8.27434, 7.7667, 0, 0.00104664, -0.218201, -27.6212, -12.7245, -0.137207, -17.6504, -5.51252, 0.000209199, -0.000341426, -8.71667E-05, 0.000120274, 0.000120274, 0.000120274
3084, 1,0.000514455, -0.000254025, 0.000207475, 15.189, -14.3108, 0.00103083, 30.4833, 25.012, 0, 0.00108049, 0.000675331, 0.00092354, 20.7419, 15.4661, 0, 0.00108065, 0.000353624, 0.000508735, 9.65803, 9.64687, 0, 0.00108076, -0.198735, -33.8266, -12.3729, -0.116931, -21.5005, -7.32317, 0.00024001, -0.000433503, -5.74455E-05, 0.000150101, 0.000150101, 0.000150101
3085, 1,0.000549113, -0.000277217, 0.000218761, 18.4076, -15.9273, 0.000995941, 35.7502, 14.7195, 0, 0.000978458, 0.000702459, 0.000912773, 22.9227, 13.1064, 0, 0.000978483, 0.000401857, 0.000495247, 14.2887, 5.79206, 0, 0.0009786, -0.320883, -32.6672, -6.33106, -0.194181, -20.4662, 3.28419, 0.000200186, -0.000456373, 4.35038E-05, 8.76307E-05, 8.76307E-05, 8.76307E-05
3086, 1,0.000426726, -0.000245944, 0.000187005, 11.3461, -14.4727, 0.00078464, 22.0479, 20.0563, 0, 0.00101248, 0.000551971, 0.000795995, 14.5395, 15.2292, 0, 0.00101256, 0.000303943, 0.000430052, 8.33495, 7.8364, 0, 0.00101268, -0.352373, -27.5207, -17.8147, -0.22166, -17.4353, -5.85222, 0.000233292, -0.000314696, -0.000165714, 0.000119608, 0.000119608, 0.000119608
3087, 1,0.000437169, -0.000249728, 0.000189924, 10.5404, -14.71, 0.000830811, 20.5177, 25.3328, 0, 0.00104651, 0.000566265, 0.000843658, 13.9173, 17.2999, 0, 0.00104665, 0.000308929, 0.000466714, 7.24948, 9.80606, 0, 0.00104678, -0.242936, -29.0727, -22.584, -0.150405, -18.729, -10.5388, 0.000268183, -0.000309431, -0.000239459, 0.000152115, 0.000152115, 0.000152115
3088, 1,0.000526445, -0.000282779, 0.000221894, 13.4714, -16.3475, 0.00105394, 27.3082, 30.7207, 0, 0.00108056, 0.00068734, 0.000998281, 18.3605, 19.3892, 0, 0.00108076, 0.000365644, 0.000554816, 8.61229, 11.7764, 0, 0.00108089, -0.207314, -35.2841, -22.6762, -0.12253, -22.6045, -12.6021, 0.00030163, -0.000399281, -0.000216948, 0.000183538, 0.000183538, 0.000183538
3089, 1,0.000549079, -0.000306936, 0.000235073, 16.3659, -17.9602, 0.000985525, 31.2421, 20.1288, 0, 0.000978514, 0.000705603, 0.000973759, 20.4107, 16.7245, 0, 0.000978568, 0.000398516, 0.000522934, 12.7121, 7.73194, 0, 0.000978711, -0.325499, -33.9172, -15.9307, -0.196848, -21.4036, -1.59542, 0.000257087, -0.000422618, -0.00010586, 0.000118151, 0.000118151, 0.000118151
3090, 1,0.000442306, -0.000278339, 0.000205879, 10.0007, -16.6434, 0.000804565, 19.036, 25.3759, 0, 0.00101254, 0.000572873, 0.000875336, 12.8169, 18.8967, 0, 0.00101264, 0.000314236, 0.000471744, 7.37164, 9.80485, 0, 0.00101279, -0.373313, -28.8212, -27.4955, -0.230251, -18.4021, -10.7822, 0.000290601, -0.000281371, -0.000315858, 0.000150427, 0.000150427, 0.000150427
3091, 1,0.000458447, -0.000282782, 0.000209131, 9.37567, -16.9282, 0.000864111, 18.0713, 30.72, 0, 0.00104657, 0.000592716, 0.000930244, 12.3516, 21.0733, 0, 0.00104673, 0.000325181, 0.000515407, 6.49797, 11.84, 0, 0.00104689, -0.269454, -30.3911, -32.5593, -0.162978, -19.7132, -15.6436, 0.00032704, -0.000274894, -0.000394083, 0.000183875, 0.000183875, 0.000183875
3092, 1,0.000546768, -0.000314504, 0.000239242, 12.1379, -18.5261, 0.00109106, 24.8492, 36.3537, 0, 0.00108061, 0.000710535, 0.00108438, 16.4949, 23.3228, 0, 0.00108084, 0.000383173, 0.000606502, 7.82076, 13.9111, 0, 0.00108101, -0.213887, -36.6007, -33.1538, -0.126068, -23.6129, -17.9943, 0.000363449, -0.00036209, -0.000379789, 0.000217094, 0.000217094, 0.000217094
3093, 1,0.000557663, -0.000338771, 0.000253465, 14.7313, -20.0963, 0.000998898, 27.8442, 25.5632, 0, 0.000978591, 0.000719453, 0.00104558, 18.4032, 20.349, 0, 0.000978674, 0.000401628, 0.000557134, 11.4416, 9.67357, 0, 0.000978843, -0.32544, -35.0252, -25.6963, -0.195346, -22.2408, -6.58459, 0.000314193, -0.000385827, -0.000258568, 0.000148791, 0.000148791, 0.000148791
3094, 1,0.000464979, -0.000312616, 0.000226648, 9.00212, -18.9037, 0.000837797, 16.6947, 30.6375, 0, 0.00101261, 0.000602779, 0.000963575, 11.5316, 22.5552, 0, 0.00101275, 0.000329702, 0.000518532, 6.66437, 11.7645, 0, 0.00101292, -0.389165, -29.978, -37.2984, -0.232231, -19.2652, -15.796, 0.00034788, -0.000245348, -0.000468523, 0.00018125, 0.00018125, 0.00018125
3095, 1,0.000486033, -0.00031782, 0.000230332, 8.52074, -19.24, 0.000906609, 16.1271, 36.0165, 0, 0.00104664, 0.000627483, 0.00102508, 11.1905, 24.8385, 0, 0.00104683, 0.000345732, 0.000568352, 5.96139, 13.8654, 0, 0.00104702, -0.288933, -31.5563, -42.6701, -0.166389, -20.5868, -20.843, 0.000385903, -0.000237485, -0.000551451, 0.000215683, 0.000215683, 0.000215683
3096, 1,0.000573993, -0.000348705, 0.000259024, 11.1207, -20.8228, 0.00114104, 23.073, 41.8859, 0, 0.00108068, 0.00074299, 0.00117993, 15.0539, 27.2665, 0, 0.00108093, 0.000405269, 0.000662852, 7.23825, 16.0503, 0, 0.00108113, -0.217334, -37.7578, -43.8243, -0.126378, -24.5102, -23.5144, 0.000425483, -0.000321544, -0.000546362, 0.000250777, 0.000250777, 0.000250777
3097, 1,0.00057403, -0.000372387, 0.000273595, 13.4603, -22.3193, 0.00103203, 25.143, 31.3224, 0, 0.000978668, 0.000742798, 0.00112698, 16.8387, 23.9692, 0, 0.000978785, 0.000410758, 0.000597344, 10.4527, 11.6059, 0, 0.000978981, -0.309807, -35.9571, -35.6406, -0.180148, -22.9473, -11.6902, 0.000371571, -0.000345461, -0.000415054, 0.000179587, 0.000179587, 0.000179587
3098, 1,0.000493549, -0.000348323, 0.000248858, 8.31183, -21.2306, 0.000872728, 14.1723, 36.2466, 0, 0.00101268, 0.000640043, 0.00105909, 10.6243, 26.1799, 0, 0.00101285, 0.000349591, 0.000569675, 6.19466, 13.6918, 0, 0.00101305, -0.358836, -30.9374, -47.2434, -0.18973, -19.9779, -20.9078, 0.000405608, -0.000206028, -0.000624388, 0.00021251, 0.00021251, 0.00021251
3099, 1,0.000518744, -0.000354365, 0.00025305, 7.9305, -21.6214, 0.00094483, 13.7334, 41.6468, 0, 0.00104671, 0.000668916, 0.00112655, 10.367, 28.5812, 0, 0.00104693, 0.000369854, 0.000624865, 5.61515, 15.8698, 0, 0.00104714, -0.275423, -32.5262, -52.9419, -0.137413, -21.3145, -26.1574, 0.000445093, -0.000196702, -0.000712156, 0.000247828, 0.000247828, 0.000247828
3100, 1,0.000607203, -0.000384959, 0.000280814, 10.3727, -23.2168, 0.0011934, 21.2195, 47.6758, 0, 0.00108073, 0.000783371, 0.00128357, 13.9708, 31.2107, 0, 0.00108102, 0.000431427, 0.000723346, 6.83661, 18.185, 0, 0.00108125, -0.203916, -38.7238, -54.7045, -0.110589, -25.269, -29.1753, 0.000487863, -0.000277217, -0.000717073, 0.000284708, 0.000284708, 0.000284708
3101, 1,0.000597223, -0.000407526, 0.000295188, 12.4601, -24.6154, 0.00107771, 22.5682, 37.7257, 0, 0.000978733, 0.000774384, 0.0012169, 15.6099, 27.5859, 0, 0.000978894, 0.000425257, 0.000643088, 9.66686, 13.5288, 0, 0.000979117, -0.256058, -36.693, -45.8086, -0.131845, -23.4965, -16.9579, 0.000429711, -0.000301177, -0.000576163, 0.000210945, 0.000210945, 0.000210945
3102, 1,0.000527153, -0.00038512, 0.000272151, 7.85261, -23.6055, 0.000890063, 10.3586, 42.4745, 0, 0.00101274, 0.000683443, 0.00116121, 10.0008, 29.7918, 0, 0.00101295, 0.000373383, 0.000625185, 5.90005, 15.6092, 0, 0.00101318, -0.255906, -31.6663, -57.4531, -0.0838349, -20.5105, -26.2331, 0.000464669, -0.000162787, -0.000785298, 0.000244954, 0.000244954, 0.000244954
3103, 1,0.00055646, -0.00039204, 0.000276891, 7.59699, -24.0518, 0.000956612, 9.74505, 47.7509, 0, 0.00104676, 0.000716493, 0.00123443, 9.85435, 32.2739, 0, 0.00104703, 0.000397817, 0.000685466, 5.46851, 17.8272, 0, 0.00104727, -0.155886, -33.2161, -63.4497, -0.00894598, -21.82, -31.6526, 0.000505717, -0.000151633, -0.00087777, 0.000281313, 0.000281313, 0.000281313
3104, 1,0.000647431, -0.000422923, 0.000304264, 9.91496, -25.6898, 0.0012389, 18.9391, 53.615, 0, 0.00108079, 0.000832358, 0.00139584, 13.2493, 35.1301, 0, 0.00108111, 0.000463027, 0.000789192, 6.65337, 20.2897, 0, 0.00108137, -0.149568, -39.4259, -65.8148, -0.0559741, -25.8234, -34.9898, 0.000550695, -0.000228126, -0.000892597, 0.000318964, 0.000318964, 0.000318964
3105, 1,0.000628554, -0.000444121, 0.000318167, 11.7557, -26.9802, 0.00122191, 25.695, 42.7479, 0, 0.000978836, 0.000815385, 0.00131554, 14.7356, 31.1328, 0, 0.000979021, 0.000446626, 0.000694847, 9.1191, 15.3789, 0, 0.000979271, -0.139743, -37.2075, -56.0511, -0.035254, -23.8545, -22.247, 0.000488084, -0.000252509, -0.000740758, 0.000242186, 0.000242186, 0.000242186
3106, 1,0.000565508, -0.000422701, 0.000296192, 7.62497, -26.0099, 0.00094408, 9.33101, 47.3071, 0, 0.00101283, 0.000732407, 0.00126974, 9.65086, 33.2952, 0, 0.00101306, 0.00040102, 0.000685272, 5.78728, 17.4279, 0, 0.00101332, 0.12419, -31.9625, -68.0474, 0.269292, -20.6597, -31.8932, 0.000527876, -0.00011267, -0.000955473, 0.000281064, 0.000281064, 0.000281064
3107, 1,0.000598809, -0.000430416, 0.000301399, 7.42122, -26.5064, 0.000996078, 8.29429, 52.1993, 0, 0.00104685, 0.000769478, 0.00134915, 9.54125, 35.944, 0, 0.00104713, 0.000429519, 0.000751183, 5.42754, 19.7739, 0, 0.0010474, 0.134546, -33.4624, -74.504, 0.265558, -21.9479, -37.6392, 0.000569578, -9.81367E-05, -0.00105468, 0.000317693, 0.000317693, 0.000317693
3108, 1,0.000692828, -0.000462103, 0.000328891, 9.53976, -28.2168, 0.00136546, 22.1147, 57.3922, 0, 0.00108088, 0.000887709, 0.00151533, 12.6683, 39.0652, 0, 0.00108121, 0.000498559, 0.000859766, 6.48969, 22.4116, 0, 0.0010815, -0.0291357, -39.8094, -77.3569, 0.05636, -26.1096, -41.1817, 0.000615168, -0.000171327, -0.00107772, 0.000354701, 0.000354701, 0.000354701
3109, 1,0.000675419, -0.000482214, 0.000342539, 11.7491, -29.4206, 0.00159263, 42.1565, 44.215, 0, 0.000978983, 0.000873139, 0.00142972, 14.614, 34.5514, 0, 0.000979137, 0.000482311, 0.000759487, 9.21634, 17.0954, 0, 0.000979414, 0.101048, -37.4146, -66.3406, 0.162372, -23.9604, -27.4883, 0.000547107, -0.000196699, -0.000911064, 0.000273502, 0.000273502, 0.000273502
3110, 1,0.000613234, -0.000461124, 0.000320919, 7.78241, -28.4536, 0.00111021, 17.2384, 47.2363, 0, 0.00101298, 0.000791174, 0.0013902, 9.70555, 36.8733, 0, 0.00101315, 0.000437632, 0.000755948, 6.04193, 19.3233, 0, 0.00101344, 0.736883, -31.9878, -79.3691, 0.802653, -20.6198, -38.1527, 0.000597203, -5.53341E-05, -0.0011402, 0.000322222, 0.000322222, 0.000322222
3111, 1,0.000644912, -0.000469496, 0.000326422, 7.31206, -28.9939, 0.00113777, 15.6584, 51.2895, 0, 0.001047, 0.000826564, 0.0014725, 9.31387, 39.7803, 0, 0.0010472, 0.000464588, 0.000824361, 5.43075, 21.8893, 0, 0.0010475, 0.587187, -33.5173, -86.4107, 0.661928, -21.9796, -44.3501, 0.000639468, -3.77544E-05, -0.00124721, 0.000359287, 0.000359287, 0.000359287
3112, 1,0.000746259, -0.000502602, 0.000354773, 9.54058, -30.8097, 0.00172104, 39.8438, 56.1547, 0, 0.00108105, 0.000952218, 0.00164397, 12.5162, 42.9207, 0, 0.00108128, 0.000541045, 0.00093713, 6.65371, 24.4529, 0, 0.00108161, 0.211385, -40.074, -88.8996, 0.279861, -26.3556, -47.2829, 0.000680915, -0.000110747, -0.00126662, 0.000391498, 0.000391498, 0.000391498
3113, 1,0.000719042, -0.000522127, 0.000368718, 11.1656, -31.9467, 0.00205192, 64.4082, 43.5045, 0, 0.000979158, 0.000929131, 0.00154766, 13.9831, 38.6394, 0, 0.000979235, 0.000513583, 0.000825175, 8.69135, 19.4903, 0, 0.000979539, -0.101763, -38.6593, -77.1572, -0.130003, -25.0934, -33.2473, 0.000607391, -0.000151282, -0.0010831, 0.000305237, 0.000305237, 0.000305237
3114, 1,0.0006521, -0.00049971, 0.000345619, 7.06709, -30.9007, 0.00122063, 20.0744, 50.4248, 0, 0.00101304, 0.000840944, 0.00150736, 8.89055, 41.2854, 0, 0.00101319, 0.00046537, 0.000822642, 5.40796, 22.0677, 0, 0.0010135, 0.917476, -32.3916, -92.3821, 0.815572, -20.9632, -46.0555, 0.000670576, 5.20867E-06, -0.00134571, 0.000365792, 0.000365792, 0.000365792
3115, 1,0.00067698, -0.000508504, 0.000351102, 6.27637, -31.4704, 0.00126982, 19.7349, 54.1474, 0, 0.00104704, 0.000868699, 0.00158754, 8.1328, 44.2263, 0, 0.00104721, 0.000486795, 0.000889918, 4.54165, 24.6387, 0, 0.00104754, 0.763673, -33.6897, -99.7529, 0.692964, -22.1335, -52.4757, 0.000713084, 2.76379E-05, -0.00145836, 0.000403107, 0.000403107, 0.000403107
3116, 1,0.000789506, -0.000544378, 0.000382, 8.74337, -33.4545, 0.00215527, 60.9876, 55.2643, 0, 0.00108118, 0.0010076, 0.00176711, 11.6203, 47.3679, 0, 0.00108132, 0.000572594, 0.00100701, 5.98962, 27.1165, 0, 0.00108167, -0.0434026, -41.5002, -100.56, -0.0229024, -27.7768, -53.5499, 0.000745306, -6.46033E-05, -0.00144932, 0.000426775, 0.000426775, 0.000426775
3117, 1,0.000796809, -0.000567359, 0.000400355, 13.05, -34.7072, 0.00228133, 69.4987, 51.2593, 0, 0.000979181, 0.00102245, 0.00168657, 15.9547, 41.8664, 0, 0.00097933, 0.000577812, 0.000907563, 10.6099, 21.0572, 0, 0.000979661, -0.190534, -40.6043, -84.8045, -0.381934, -27.0431, -35.7465, 0.0006565, -0.000136504, -0.00119935, 0.000324751, 0.000324751, 0.000324751
3118, 1,0.000687193, -0.000543944, 0.000375573, 6.92978, -33.608, 0.00101509, -1.00085, 65.7073, 0, 0.00101286, 0.0008906, 0.00161544, 8.80728, 44.8737, 0, 0.0010132, 0.000486685, 0.000874378, 5.25794, 23.9887, 0, 0.00101355, 1.35898, -34.6095, -101.371, 0.997148, -23.2814, -49.6817, 0.000736328, 1.17434E-05, -0.00147622, 0.000399779, 0.000399779, 0.000399779
3119, 1,0.000717892, -0.000553556, 0.00038119, 6.37649, -34.2368, 0.0012508, 4.9595, 72.7701, 0, 0.0010468, 0.000921746, 0.00170161, 8.14656, 47.8873, 0, 0.00104722, 0.000517275, 0.000950334, 4.81326, 26.5757, 0, 0.00104758, 1.01431, -36.0592, -108.617, 0.71334, -24.634, -55.8065, 0.000775962, 3.22098E-05, -0.00158522, 0.00043396, 0.00043396, 0.00043396
3120, 1,0.00088829, -0.000591309, 0.000414265, 11.4852, -36.3423, 0.00239764, 60.2125, 71.6455, 0, 0.00108111, 0.00112175, 0.00193423, 14.3785, 50.6655, 0, 0.00108148, 0.000657599, 0.00111579, 8.82156, 28.6201, 0, 0.00108186, 0.0740277, -43.7671, -108.303, 0.0277167, -30.2023, -55.6858, 0.000799513, -5.40718E-05, -0.00156757, 0.000451308, 0.000451308, 0.000451308
3121, 1,0.000894648, -0.000617658, 0.000436425, 13.6829, -37.7697, 0.00268076, 79.0377, 63.7806, 0, 0.000979332, 0.00113751, 0.0018554, 16.6734, 48.0208, 0, 0.000979583, 0.000662042, 0.0010171, 11.3609, 25.379, 0, 0.000979943, -3.48872, -46.8426, -93.7309, -3.81003, -33.0573, -39.2696, 0.000683781, -0.000164033, -0.00129897, 0.000320409, 0.000320409, 0.000320409
3122, 1,0.000701737, -0.000586916, 0.00040328, 4.79041, -36.3336, 0.00127522, 8.67461, 69.2923, 0, 0.00101319, 0.000918156, 0.00171018, 6.57607, 49.4835, 0, 0.00101351, 0.000488153, 0.000914206, 3.21299, 26.7196, 0, 0.00101389, 0.738212, -36.7632, -112.425, 0.178623, -25.1807, -55.1568, 0.000795531, 4.04256E-05, -0.00163891, 0.000425188, 0.000425188, 0.000425188
3123, 1,0.000736105, -0.000594167, 0.000405851, 4.05062, -36.8594, 0.00130933, 4.58104, 77.0074, 0, 0.00104723, 0.000949226, 0.00179431, 5.53829, 52.8567, 0, 0.00104764, 0.000525492, 0.000993614, 2.74025, 29.6506, 0, 0.00104804, -0.208605, -38.325, -120.036, -0.659136, -26.5226, -61.7702, 0.000828591, 6.59263E-05, -0.0017522, 0.000453587, 0.000453587, 0.000453587
3124, 1,0.00094813, -0.000634738, 0.000443324, 9.79202, -39.1035, 0.00298034, 76.5905, 86.5708, 0, 0.00108148, 0.00119429, 0.0020758, 12.5568, 57.2743, 0, 0.00108199, 0.000706188, 0.00120489, 7.35653, 33.3556, 0, 0.00108241, -3.19478, -50.2893, -118.339, -3.19351, -36.0715, -60.8019, 0.000835033, -7.56121E-05, -0.00168879, 0.00045832, 0.00045832, 0.00045832
3125, 1,0.000990838, -0.000665915, 0.000470662, 16.4504, -40.7578, 0.00247909, 64.4031, 70.3976, 0, 0.000979967, 0.00125073, 0.0020177, 19.5216, 51.778, 0, 0.000980263, 0.000743849, 0.00112033, 14.1831, 27.2311, 0, 0.000980654, -4.38217, -50.6366, -100.315, -4.82691, -35.7785, -41.0878, 0.000724336, -0.000185718, -0.00137882, 0.00032834, 0.00032834, 0.00032834
3126, 1,0.000744333, -0.0006235, 0.000425979, 5.82475, -38.7497, 0.00153783, 20.8701, 69.4313, 0, 0.00101391, 0.000969935, 0.00179977, 7.34901, 51.8873, 0, 0.0010142, 0.000521717, 0.000958276, 4.51775, 27.2692, 0, 0.0010146, 1.28013, -36.1064, -120.836, 0.565864, -23.8689, -58.5047, 0.000844779, 9.06598E-05, -0.00177741, 0.000441951, 0.000441951, 0.000441951
3127, 1,0.000785077, -0.000627275, 0.000426259, 5.38358, -39.0248, 0.00163311, 19.4445, 77.4222, 0, 0.00104792, 0.00100689, 0.00188979, 6.66684, 55.2449, 0, 0.00104829, 0.00056646, 0.00104772, 4.33456, 30.4186, 0, 0.00104872, -0.510394, -36.8553, -128.369, -1.10859, -24.5504, -65.5969, 0.000860131, 0.000132746, -0.00188933, 0.000456496, 0.000456496, 0.000456496
3128, 1,0.00105998, -0.000672979, 0.000472177, 14.3715, -41.3634, 0.00283263, 63.0061, 95.1394, 0, 0.00108205, 0.00132479, 0.00223819, 17.5672, 59.5489, 0, 0.00108268, 0.000799748, 0.00131104, 11.5158, 34.4166, 0, 0.00108312, -3.52304, -51.6793, -123.444, -3.65289, -36.5526, -63.0442, 0.000864689, -7.18023E-05, -0.00175918, 0.000466103, 0.000466103, 0.000466103
3129, 1,0.00117671, -0.000719905, 0.000513782, 29.2633, -43.7936, 0.00193671, 30.1913, 81.7499, 0, 0.000980711, 0.00146696, 0.00220787, 33.2769, 48.0193, 0, 0.000981248, 0.00090084, 0.00122944, 26.1098, 22.1553, 0, 0.000981659, -0.338778, -47.3576, -96.3614, -1.1452, -31.2047, -34.116, 0.000750688, -0.000184028, -0.00134588, 0.000326305, 0.000326305, 0.000326305
3130, 1,0.000831069, -0.000650619, 0.000444101, 13.2925, -40.5078, 0.00143619, 6.20917, 82.826, 0, 0.0010143, 0.00106786, 0.00186913, 14.8865, 48.2437, 0, 0.00101487, 0.00059496, 0.000983963, 11.7678, 22.3267, 0, 0.0010153, 5.72175, -26.4404, -124.012, 4.93842, -13.5382, -58.3804, 0.000881323, 0.000232037, -0.00189622, 0.000456588, 0.000456588, 0.000456588
3131, 1,0.000880659, -0.000652246, 0.000445291, 13.2647, -40.6219, 0.00162432, 7.3018, 93.3182, 0, 0.00104822, 0.00111775, 0.00197179, 14.8753, 51.508, 0, 0.00104893, 0.000644224, 0.00108402, 11.7137, 25.5338, 0, 0.00104937, 3.37912, -25.0732, -132.83, 2.95893, -12.5226, -67.0376, 0.000883554, 0.000316179, -0.00203555, 0.000465617, 0.000465617, 0.000465617
3132, 1,0.00132233, -0.000719373, 0.000514368, 31.335, -43.7346, 0.00223101, 24.5076, 108.489, 0, 0.00108261, 0.00162716, 0.00250669, 36.2451, 54.607, 0, 0.00108356, 0.00102053, 0.00148979, 26.6556, 28.9506, 0, 0.00108401, 1.27745, -40.0424, -125.056, 1.00876, -25.3732, -62.4875, 0.000888378, 8.46066E-05, -0.00185909, 0.000478621, 0.000478621, 0.000478621
3133, 1,0.00143869, -0.000790887, 0.000575661, 38.576, -47.5965, 0.00187365, 4.44644, 112.188, 0, 0.000980711, 0.00178625, 0.00256683, 44.8876, 53.303, 0, 0.000981648, 0.00110125, 0.00145143, 32.8813, 26.2386, 0, 0.000982079, -2.79154, -44.3892, -112.728, -3.69458, -28.9861, -46.0349, 0.000781654, -4.00392E-05, -0.00160656, 0.000336343, 0.000336343, 0.000336343
3134, 1,0.00096565, -0.000681673, 0.000470796, 14.5113, -42.3225, 0.00168129, -6.50061, 115.524, 0, 0.00101406, 0.00122519, 0.00208892, 16.892, 55.5258, 0, 0.00101504, 0.000706301, 0.00114797, 12.1378, 28.6883, 0, 0.00101549, 1.94622, -20.9083, -147.615, 1.80472, -9.83862, -78.0311, 0.000915956, 0.000465305, -0.00228226, 0.000490319, 0.000490319, 0.000490319
3135, 1,0.00104945, -0.000681547, 0.000471609, 14.8312, -42.2185, 0.00200417, 0.0888635, 127.215, 0, 0.00104788, 0.00131045, 0.00226273, 17.4181, 60.1541, 0, 0.00104902, 0.000788827, 0.00132087, 12.2539, 33.6204, 0, 0.00104948, 0.645063, -19.0692, -162.038, 0.774983, -9.42662, -92.2095, 0.000961766, 0.000580992, -0.00251885, 0.000546657, 0.000546657, 0.000546657
3136, 1,0.00161804, -0.000785662, 0.000575825, 38.5705, -47.1066, 0.00230763, 0.446078, 145.515, 0, 0.00108239, 0.00197996, 0.00298932, 45.9486, 64.357, 0, 0.00108381, 0.00125866, 0.00184832, 31.3829, 38.0532, 0, 0.00108428, 0.135942, -38.8743, -154.333, -0.0447873, -27.5486, -86.5662, 0.00101726, 0.000262122, -0.00232366, 0.000599168, 0.000599168, 0.000599168
3137, 1,0.00169433, -0.000875521, 0.000651823, 46.7441, -51.942, 0.00248171, 5.51926, 149.548, 0, 0.000980635, 0.00211181, 0.00300855, 56.0371, 59.3648, 0, 0.000982071, 0.00128483, 0.00173424, 37.9541, 31.3857, 0, 0.000982517, -3.39302, -33.2656, -141.436, -4.01566, -24.4035, -65.7381, 0.000864215, 0.000293266, -0.00212075, 0.000410446, 0.000410446, 0.000410446
3138, 1,0.00106193, -0.000722689, 0.000510009, 11.0684, -44.5711, 0.00255002, 13.9895, 143.111, 0, 0.0010138, 0.00135797, 0.00234354, 14.925, 66.4421, 0, 0.00101506, 0.000766886, 0.00132685, 7.2339, 38.7928, 0, 0.00101552, -5.68034, -16.3893, -177.257, -4.43446, -10.0812, -101.863, 0.000926441, 0.000737528, -0.00274209, 0.000517375, 0.000517375, 0.000517375
3139, 1,0.00117486, -0.00072417, 0.000510626, 10.1213, -44.6454, 0.0027341, 13.9488, 154.822, 0, 0.00104759, 0.00147066, 0.00259231, 13.9913, 74.7318, 0, 0.00104895, 0.000879971, 0.00157418, 6.27221, 47.11, 0, 0.00104942, -7.14947, -16.5526, -200.493, -5.71088, -11.4683, -124.151, 0.00102636, 0.000868743, -0.00310773, 0.00062181, 0.00062181, 0.00062181
3140, 1,0.00180712, -0.000871589, 0.000650751, 34.2976, -51.6152, 0.00297442, 4.93786, 181.944, 0, 0.00108225, 0.00223376, 0.0035125, 44.3106, 82.812, 0, 0.00108399, 0.00138257, 0.00221929, 24.445, 55.3157, 0, 0.00108447, -3.69212, -38.2149, -206.529, -3.89726, -33.5995, -128.45, 0.00122684, 0.000569528, -0.00314009, 0.000789458, 0.000789458, 0.000789458
3141, 1,0.00198798, -0.00100184, 0.000752678, 45.5535, -59.2003, 0.00333149, 12.4209, 194.467, 0, 0.000981106, 0.00248002, 0.00365591, 57.0748, 81.612, 0, 0.000982905, 0.00150366, 0.0021809, 34.5095, 50.153, 0, 0.000983406, -13.973, -25.9146, -204.949, -13.3615, -25.8051, -111.293, 0.000991139, 0.000795948, -0.00311136, 0.000508698, 0.000508698, 0.000508698
3142, 1,0.00145179, -0.000820845, 0.000596033, 23.5934, -50.0325, 0.00359082, 38.838, 175.8, 0, 0.00101549, 0.00182236, 0.00289883, 30.106, 75.7309, 0, 0.00101714, 0.0010816, 0.00170785, 17.1101, 45.8739, 0, 0.00101763, -12.9681, -3.06439, -211.16, -10.2424, -3.47197, -123.907, 0.000918941, 0.00116707, -0.00331488, 0.000506418, 0.000506418, 0.000506418
3143, 1,0.00155434, -0.00083354, 0.000604972, 23.6893, -50.7653, 0.00390284, 49.2658, 181.58, 0, 0.00104956, 0.00192957, 0.00312694, 30.3059, 82.319, 0, 0.00105125, 0.00117983, 0.00191877, 17.1214, 52.1364, 0, 0.00105177, -10.1019, -5.18938, -231.666, -7.84825, -6.21314, -142.348, 0.00108323, 0.00122866, -0.00364766, 0.00065561, 0.00065561, 0.00065561
3144, 1,0.00232514, -0.00103889, 0.000778821, 44.951, -61.3531, 0.00453535, 17.0067, 216.893, 0.0295618, 0.00108316, 0.00283619, 0.00441003, 57.0629, 104.596, 0, 0.0010852, 0.00181825, 0.00287157, 33.114, 72.1564, 0, 0.00108578, -9.06135, -29.2507, -275.476, -9.22597, -32.4441, -174.799, 0.00145607, 0.00109607, -0.00424937, 0.000941726, 0.000941726, 0.000941726
3145, 1,0.00201347, -0.0011536, 0.000833455, 32.5414, -70.3807, 0.00436724, 0.885454, 243.299, 0.0197031, 0.000981895, 0.00252244, 0.00402874, 40.883, 105.684, -5.42101E-20, 0.000984133, 0.00150694, 0.002371, 24.3567, 63.3568, -5.42101E-20, 0.000984809, -19.1467, -12.9944, -284.91, -14.8699, -12.4769, -162.724, 0.00126109, 0.00143281, -0.00440883, 0.000685053, 0.000685053, 0.000685053
3146, 1,0.0016248, -0.000966403, 0.000695433, 21.995, -59.9572, 0.004496, 0.427569, 241.737, 0.0261705, 0.0010165, 0.00204824, 0.00326162, 27.9255, 92.7857, 0, 0.00101902, 0.00120191, 0.00187229, 16.0872, 54.6758, 0, 0.00101965, -25.5133, -2.65917, -250.185, -18.9226, -2.07304, -143.032, 0.000922146, 0.0014409, -0.00386869, 0.000461417, 0.000461417, 0.000461417
3147, 1,0.00182096, -0.000992416, 0.000711506, 23.2191, -61.5636, 0.00531418, -16.4684, 262.204, 0.0592867, 0.00105026, 0.00224737, 0.00361589, 28.9276, 104.184, 2.1684E-19, 0.00105311, 0.00139635, 0.00219825, 17.6027, 65.1019, 2.1684E-19, 0.00105377, -20.0019, -11.1889, -281.362, -15.119, -9.51393, -170.673, 0.00121794, 0.00144536, -0.00435391, 0.000705781, 0.000705781, 0.000705781
3148, 1,0.00242319, -0.00123222, 0.000882255, 34.4566, -75.4918, 0.00702906, -11.7758, 263.486, 0.118285, 0.00108337, 0.00295219, 0.00495864, 42.4081, 131.25, 0, 0.00108603, 0.00189598, 0.00320167, 26.6356, 85.2829, 0, 0.00108684, -5.0802, -23.5491, -365.121, -2.6372, -21.7431, -231.468, 0.00195997, 0.00162718, -0.00571694, 0.00128778, 0.00128778, 0.00128778
3149, 1,0.00211795, -0.00127733, 0.000892564, 29.65, -80.7727, 0.00502529, -9.14962, 281.652, 0.0276287, 0.000978025, 0.00262442, 0.00429854, 33.2767, 121.776, 0, 0.000980636, 0.00161205, 0.00251552, 26.056, 67.1119, 0, 0.000981506, -15.8852, -3.72608, -345.717, -9.99713, 2.77419, -194.113, 0.00158346, 0.0018682, -0.00542775, 0.000847158, 0.000847158, 0.000847158
3150, 1,0.00195632, -0.00117783, 0.000824474, 33.6872, -74.7793, 0.00533061, -33.8532, 300.892, 0.0479997, 0.00101312, 0.00242638, 0.00387792, 36.8691, 104.301, 0, 0.0010165, 0.00148704, 0.00223298, 30.5711, 53.1161, 0, 0.00101734, -17.2482, -7.11915, -288.535, -7.5655, 1.34889, -153.132, 0.00127822, 0.00153116, -0.00450189, 0.000676971, 0.000676971, 0.000676971
3151, 1,0.00213416, -0.00121503, 0.000845936, 35.9926, -77.2528, 0.0062173, -34.7929, 303.372, 0.0795943, 0.00104693, 0.00260987, 0.0042156, 38.7363, 113.535, 0, 0.0010504, 0.00165922, 0.00252824, 33.3125, 60.4476, 0, 0.0010513, -6.69074, -18.2833, -315.63, 0.233919, -6.34925, -175.228, 0.00164708, 0.00144474, -0.00493417, 0.000957521, 0.000957521, 0.000957521
3152, 1,0.00250423, -0.00136589, 0.000946449, 26.0992, -86.9539, 0.00727567, -18.1595, 300.257, 0.101687, 0.00107977, 0.00302965, 0.00521995, 28.649, 153.647, 0, 0.00108266, 0.00197951, 0.00332914, 23.5867, 93.6683, 0, 0.00108371, -1.11212, -24.6316, -435.199, 1.46272, -11.7429, -270.725, 0.00239804, 0.00193819, -0.0068295, 0.00150793, 0.00150793, 0.00150793
3153, 1,0.00202139, -0.00117496, 0.000820589, 26.5406, -74.6633, 0.00472468, 3.93455, 272.902, 0.0117989, 0.000971874, 0.00248687, 0.00411702, 29.4843, 118.256, 0, 0.000974344, 0.00155627, 0.00247766, 23.623, 66.986, 0, 0.000975155, -4.31199, -18.6638, -331.791, -0.839312, -8.24857, -191.87, 0.00177261, 0.0014925, -0.00518407, 0.00103867, 0.00103867, 0.00103867
3154, 1,0.00192304, -0.00112609, 0.000785025, 26.7905, -71.8785, 0.00530382, -28.1575, 300.691, 0.0418017, 0.0010065, 0.00236478, 0.00388504, 29.0729, 111.033, 0, 0.00100972, 0.0014828, 0.00232218, 24.6145, 61.0631, 0, 0.00101054, -13.7213, -26.9004, -292.476, -5.65797, -14.5725, -162.959, 0.00145946, 0.00121586, -0.00447707, 0.000843114, 0.000843114, 0.000843114
3155, 1,0.00221063, -0.00120638, 0.000838602, 39.415, -77.0118, 0.00635763, -25.7246, 301.28, 0.076725, 0.00104015, 0.00267917, 0.00424278, 41.6358, 114.143, 0, 0.00104354, 0.00174352, 0.00257346, 37.292, 60.6026, 0, 0.00104444, -16.9263, -13.0188, -312.484, -7.16366, -2.01714, -172.627, 0.00144164, 0.00156341, -0.00485727, 0.000805041, 0.000805041, 0.000805041
3156, 1,0.00248722, -0.0013979, 0.000963742, 26.0721, -89.5092, 0.00723294, -8.76406, 292.321, 0.096467, 0.00107262, 0.0030143, 0.00514221, 27.6717, 153.991, 0, 0.00107532, 0.00196112, 0.00321827, 24.5079, 91.2139, 0, 0.00107642, -15.1648, -13.6587, -433.15, -8.38283, -1.34327, -263.916, 0.00210835, 0.00217371, -0.00678088, 0.00126331, 0.00126331, 0.00126331
3157, 1,0.0020084, -0.00111406, 0.000806122, 30.4067, -67.9848, 0.00418381, -5.52917, 249.211, 0.014433, 0.00098193, 0.00250196, 0.00405303, 38.528, 107.591, 0, 0.000984221, 0.00151761, 0.00245117, 22.4597, 66.6602, 0, 0.000984875, -11.5974, -24.8575, -286.318, -8.81437, -22.3451, -168.821, 0.00144934, 0.00121011, -0.00440533, 0.000863628, 0.000863628, 0.000863628
3158, 1,0.00164395, -0.000964671, 0.000691022, 23.5042, -60.0993, 0.00447551, 4.43351, 234.414, 0.026749, 0.00101666, 0.0020606, 0.00330907, 28.8917, 92.2719, 0, 0.00101907, 0.00122773, 0.00192828, 18.1293, 53.5511, 0, 0.00101971, -17.5202, -5.43132, -253.864, -11.6911, -2.49278, -146.47, 0.00108272, 0.00137268, -0.00395271, 0.000596279, 0.000596279, 0.000596279
3159, 1,0.00191041, -0.00102302, 0.000728934, 26.5361, -63.6571, 0.00546555, -12.8908, 257.185, 0.0654447, 0.0010502, 0.00233932, 0.00376323, 31.7246, 106.203, 0, 0.00105294, 0.00148381, 0.00231337, 21.4594, 65.3884, 0, 0.00105364, -23.3001, -1.31346, -293.996, -16.9722, -0.149254, -179.044, 0.00118136, 0.00168488, -0.00458961, 0.000672527, 0.000672527, 0.000672527
3160, 1,0.00246944, -0.00129732, 0.000921905, 31.1623, -79.7545, 0.00718496, -16.3752, 269.607, 0.124169, 0.00108342, 0.00301347, 0.00512586, 38.6618, 140.147, 0, 0.00108605, 0.00192676, 0.00328774, 23.769, 91.0216, 0, 0.00108692, -14.9573, -21.1374, -384.347, -10.7901, -19.4117, -242.863, 0.00189537, 0.00181836, -0.00598789, 0.0012101, 0.0012101, 0.0012101
3161, 1,0.00199142, -0.000961675, 0.000725506, 46.1152, -56.6193, 0.00338258, 17.1016, 191.504, 0, 0.000981157, 0.00247168, 0.00364595, 57.775, 79.9481, 0, 0.000982934, 0.00151701, 0.00221849, 34.8202, 50.2985, 0, 0.000983407, -9.51027, -24.5756, -205.759, -9.37719, -25.1852, -116.333, 0.00105828, 0.000795595, -0.00315116, 0.000594127, 0.000594127, 0.000594127
3162, 1,0.00144296, -0.000812111, 0.000590462, 20.8582, -49.3286, 0.00353556, 35.8864, 176.324, 0, 0.00101548, 0.00181169, 0.00292326, 27.5759, 78.3594, 0, 0.0010171, 0.00107428, 0.00174262, 14.1451, 49.2693, 0, 0.00101758, -12.9537, -5.4301, -216.694, -11.0184, -6.07736, -130.712, 0.000960117, 0.0011567, -0.00338834, 0.000542967, 0.000542967, 0.000542967
3163, 1,0.00158913, -0.000854548, 0.000618983, 21.353, -51.9091, 0.00385254, 44.552, 184.792, 0, 0.00104957, 0.00196948, 0.00324065, 28.0649, 87.7526, 0, 0.00105122, 0.00121055, 0.0020068, 14.7399, 57.1688, 0, 0.00105174, -12.7854, -5.82075, -244.652, -10.984, -7.47891, -153.043, 0.00111239, 0.00130127, -0.0038376, 0.000668921, 0.000668921, 0.000668921
3164, 1,0.00248096, -0.0010931, 0.000816205, 49.4995, -64.5989, 0.00478321, 16.814, 218.761, 0.0380723, 0.00108286, 0.00300933, 0.00469258, 61.7397, 109.519, 0, 0.00108486, 0.00195833, 0.00308755, 37.6236, 75.2778, 0, 0.00108546, -8.30944, -28.8462, -291.402, -8.85595, -32.6642, -184.313, 0.00155229, 0.00118348, -0.00451287, 0.00100166, 0.00100166, 0.00100166
3165, 1,0.00167272, -0.000841758, 0.000629193, 43.3602, -49.8301, 0.00248626, 3.40812, 152.772, 0, 0.000980598, 0.00208062, 0.0029974, 52.7247, 61.6227, 0, 0.00098205, 0.00127106, 0.00176304, 34.3941, 35.0055, 0, 0.000982474, -6.24063, -33.6642, -144.963, -6.12818, -26.1267, -72.7615, 0.000839001, 0.000318306, -0.00215724, 0.000422147, 0.000422147, 0.000422147
3166, 1,0.00109159, -0.000711201, 0.000502438, 11.385, -43.8237, 0.00254223, 13.16, 143.799, 0, 0.00101379, 0.00138365, 0.00238577, 15.2533, 67.514, 0, 0.00101504, 0.00080068, 0.00138518, 7.54292, 40.4012, 0, 0.00101549, -7.21111, -13.6231, -181.708, -5.67719, -7.88104, -107.645, 0.000910826, 0.000811569, -0.00281792, 0.000516317, 0.000516317, 0.000516317
3167, 1,0.00120215, -0.000737459, 0.000519256, 12.4687, -45.3982, 0.00273577, 16.6438, 151.393, 0, 0.0010477, 0.00150173, 0.00264241, 16.3928, 73.4658, 0, 0.00104902, 0.000903651, 0.00160737, 8.57468, 45.5066, 0, 0.0010495, -1.67383, -16.546, -202.178, -0.96071, -11.0778, -124.481, 0.00112191, 0.000848588, -0.00316258, 0.000696742, 0.000696742, 0.000696742
3168, 1,0.00185725, -0.000910097, 0.000676793, 35.8021, -53.9347, 0.00294259, 5.80055, 178.891, 0, 0.00108245, 0.00229376, 0.00360873, 45.7431, 85.027, 0, 0.0010841, 0.00142505, 0.00227214, 26.1531, 56.1961, 0, 0.0010846, -2.027, -43.5507, -209.503, -3.4332, -38.3408, -126.814, 0.00129852, 0.000489538, -0.00316771, 0.000814875, 0.000814875, 0.000814875
3169, 1,0.00146449, -0.000765238, 0.000560291, 40.6276, -45.9061, 0.00196711, 8.34572, 112.895, 0, 0.000980726, 0.00180783, 0.00257054, 47.2189, 51.483, 0, 0.000981704, 0.00113019, 0.00148357, 34.586, 25.6817, 0, 0.000982115, -4.14819, -40.4481, -109.853, -4.00844, -26.7308, -46.306, 0.000723584, 1.26864E-05, -0.00157169, 0.000320147, 0.000320147, 0.000320147
3170, 1,0.000961915, -0.000674677, 0.000467314, 13.8472, -41.8266, 0.00169233, -6.01499, 115.597, 0, 0.0010141, 0.0012218, 0.00210437, 16.3989, 55.9965, 0, 0.00101508, 0.000702075, 0.00116995, 11.2974, 29.5894, 0, 0.00101551, -0.267677, -19.1773, -148.545, 0.124528, -8.91619, -79.9765, 0.000876165, 0.000507514, -0.00229232, 0.000468609, 0.000468609, 0.000468609
3171, 1,0.00110737, -0.000691408, 0.000477349, 16.4503, -42.8117, 0.00201117, 1.23161, 126.189, 0, 0.00104791, 0.00136846, 0.00234237, 18.9176, 61.8264, 0, 0.001049, 0.000847133, 0.00139084, 14.0166, 34.9536, 0, 0.00104946, 4.43856, -22.3019, -167.616, 3.9672, -12.1898, -96.6382, 0.00106795, 0.000538792, -0.00260996, 0.000634836, 0.000634836, 0.000634836
3172, 1,0.00166155, -0.000809603, 0.000590513, 39.1585, -48.6544, 0.00225662, -0.564692, 143.637, 0, 0.00108242, 0.00202761, 0.00305765, 46.3157, 66.9643, 0, 0.00108377, 0.00129863, 0.00188897, 32.2268, 39.5538, 0, 0.00108425, 1.7701, -41.5735, -161.089, 0.64333, -29.2903, -90.0144, 0.00109444, 0.000245643, -0.00242665, 0.000639053, 0.000639053, 0.000639053
3173, 1,0.00120238, -0.000699312, 0.000500829, 29.6575, -42.482, 0.00207183, 33.4629, 85.7891, 0, 0.000980636, 0.00148872, 0.00222551, 33.8395, 48.5846, 0, 0.000981228, 0.000928448, 0.00126802, 26.2207, 23.6232, 0, 0.000981626, -3.19022, -46.4088, -96.1549, -3.14905, -31.2361, -36.4846, 0.000698556, -0.000154896, -0.00133207, 0.000306257, 0.000306257, 0.000306257
3174, 1,0.000818881, -0.000644086, 0.000440212, 11.9498, -40.1061, 0.00145731, 6.38361, 83.914, 0, 0.00101429, 0.00105353, 0.00186914, 13.5327, 49.1381, 0, 0.00101486, 0.000585433, 0.000992554, 10.461, 23.4637, 0, 0.00101529, 3.29524, -25.6312, -125.078, 3.0127, -13.0869, -60.3169, 0.000843554, 0.000262586, -0.00190351, 0.000433268, 0.000433268, 0.000433268
3175, 1,0.000902192, -0.000661326, 0.000450222, 14.2125, -41.1937, 0.00164667, 8.93285, 92.5803, 0, 0.00104823, 0.00114092, 0.00201254, 15.7693, 51.7848, 0, 0.00104893, 0.000663696, 0.00111393, 12.6897, 25.4303, 0, 0.00104938, 6.5189, -26.4187, -135.454, 5.76454, -13.4192, -68.6363, 0.000953863, 0.000292452, -0.00208662, 0.00052291, 0.00052291, 0.00052291
3176, 1,0.00136246, -0.000741355, 0.000528013, 31.5397, -45.1477, 0.00219007, 22.9145, 108.037, 0, 0.00108264, 0.00167263, 0.00257761, 36.3375, 57.3683, 0, 0.00108353, 0.00105527, 0.00153341, 26.9735, 30.7172, 0, 0.001084, 0.433014, -40.6385, -131.899, -0.418707, -25.3722, -66.3606, 0.00091522, 0.000115722, -0.00196184, 0.000477593, 0.000477593, 0.000477593
3177, 1,0.000994414, -0.000649059, 0.000459848, 16.1215, -39.7007, 0.00258237, 64.5167, 76.5853, 0, 0.000979837, 0.00124862, 0.00201185, 19.1807, 52.1055, 0, 0.000980226, 0.000753295, 0.00113814, 13.8749, 28.2602, 0, 0.000980605, -5.99703, -51.9833, -98.3361, -5.83845, -37.6812, -41.2611, 0.000694688, -0.00020764, -0.00133258, 0.000322435, 0.000322435, 0.000322435
3178, 1,0.000755867, -0.000618072, 0.00042262, 7.13426, -38.4253, 0.00155245, 20.6433, 70.6276, 0, 0.00101386, 0.000979507, 0.00180232, 8.6311, 50.7189, 0, 0.00101419, 0.00053596, 0.000968691, 5.89186, 26.2784, 0, 0.00101459, 1.10145, -34.0183, -119.24, 0.780475, -22.0643, -57.5514, 0.000822301, 0.0001161, -0.00176142, 0.000430632, 0.000430632, 0.000430632
3179, 1,0.000791354, -0.000634356, 0.000430323, 6.18278, -39.4929, 0.00162466, 19.9626, 76.2051, 0, 0.00104794, 0.00101532, 0.00189978, 7.44498, 54.7381, 0, 0.00104831, 0.000569654, 0.00104764, 5.10075, 29.5521, 0, 0.00104873, 1.40401, -36.678, -128.94, 0.753096, -24.0504, -65.3591, 0.000892073, 0.00012844, -0.00190874, 0.000481709, 0.000481709, 0.000481709
3180, 1,0.00108649, -0.000695807, 0.000487344, 15.7269, -42.7944, 0.00274366, 61.3977, 91.7705, 0, 0.00108213, 0.0013575, 0.00226709, 18.8461, 60.0387, 0, 0.00108268, 0.000821124, 0.00131332, 13.0175, 33.9576, 0, 0.00108314, -4.5099, -51.9717, -123.634, -4.95575, -36.0933, -60.8237, 0.000852434, -7.18712E-05, -0.00175479, 0.000432359, 0.000432359, 0.000432359
3181, 1,0.000898559, -0.000603123, 0.000427052, 13.5371, -36.8499, 0.00271363, 77.7577, 67.3386, 0, 0.000979253, 0.00113672, 0.00185235, 16.537, 48.1466, 0, 0.000979558, 0.000670858, 0.00103428, 11.2131, 26.1244, 0, 0.000979908, -4.89737, -47.2828, -92.2598, -4.83148, -34.1099, -39.4317, 0.000655006, -0.000171099, -0.00126519, 0.000309488, 0.000309488, 0.000309488
3182, 1,0.000713655, -0.000582951, 0.000400746, 4.90992, -36.0911, 0.00127382, 7.31331, 70.98, 0, 0.00101316, 0.000928818, 0.00172289, 6.68779, 49.9838, 0, 0.0010135, 0.000501493, 0.000932953, 3.34702, 27.3621, 0, 0.00101387, -0.671307, -36.4459, -112.834, -0.965302, -25.1924, -55.9287, 0.000773092, 5.43567E-05, -0.00163853, 0.000410624, 0.000410624, 0.000410624
3183, 1,0.000743141, -0.000600888, 0.000410097, 4.10577, -37.2927, 0.00128794, 3.67789, 76.8936, 0, 0.00104726, 0.000957463, 0.00181007, 5.53073, 53.465, 0, 0.00104765, 0.000531466, 0.00100183, 2.8665, 29.948, 0, 0.00104805, 0.530461, -39.5905, -121.335, 0.130435, -27.7173, -62.257, 0.000853589, 4.78534E-05, -0.001769, 0.000474826, 0.000474826, 0.000474826
3184, 1,0.000959954, -0.00065436, 0.000456335, 9.97882, -40.3299, 0.00291571, 76.443, 82.8903, 0, 0.00108158, 0.00121132, 0.00210474, 12.6731, 58.4105, 0, 0.00108201, 0.000713768, 0.00121113, 7.6752, 33.6884, 0, 0.00108245, -3.72073, -51.6939, -119.817, -3.87882, -37.0295, -60.1568, 0.000843066, -8.9867E-05, -0.00170099, 0.000450486, 0.000450486, 0.000450486
3185, 1,0.000814094, -0.000554234, 0.000392026, 14.0084, -33.8631, 0.00234802, 71.1825, 53.0429, 0, 0.000979141, 0.00103634, 0.00169379, 16.9773, 41.3178, 0, 0.000979327, 0.000598151, 0.000931068, 11.4764, 21.0983, 0, 0.000979649, -0.380863, -39.9849, -83.5875, -0.356269, -26.9812, -35.9574, 0.000642471, -0.000131735, -0.00118121, 0.00032447, 0.00032447, 0.00032447
3186, 1,0.000693214, -0.00054075, 0.000373689, 7.13127, -33.3972, 0.00105318, 1.01289, 65.443, 0, 0.00101286, 0.000895762, 0.00161884, 9.02158, 44.8841, 0, 0.0010132, 0.000493635, 0.000882346, 5.44725, 24.1514, 0, 0.00101354, 0.703256, -34.3358, -101.02, 0.506035, -23.2746, -49.6858, 0.000721419, 1.76048E-05, -0.00146735, 0.000390736, 0.000390736, 0.000390736
3187, 1,0.000709806, -0.0005602, 0.000385453, 5.75533, -34.6633, 0.00123071, 5.17584, 71.2605, 0, 0.00104683, 0.000915379, 0.00170354, 7.48898, 48.4019, 0, 0.00104721, 0.000507826, 0.000944337, 4.24889, 26.7892, 0, 0.00104758, 1.60219, -37.3378, -109.47, 1.37597, -25.847, -55.8965, 0.00079661, 1.26094E-05, -0.00159461, 0.000451521, 0.000451521, 0.000451521
3188, 1,0.000890775, -0.000607464, 0.000424587, 11.3881, -37.3814, 0.0023292, 59.3284, 68.765, 0, 0.0010812, 0.00112839, 0.00195671, 14.1976, 51.4186, 0, 0.0010815, 0.000656192, 0.00111829, 8.83028, 28.6387, 0, 0.0010819, 0.470831, -43.8933, -110.833, 0.404113, -30.0382, -56.2822, 0.000821432, -4.65239E-05, -0.00160924, 0.000461378, 0.000461378, 0.000461378
3189, 1,0.000722154, -0.000510626, 0.00036157, 11.4006, -31.1955, 0.00210097, 65.1951, 45.4113, 0, 0.000979121, 0.000929158, 0.00154008, 14.2696, 38.2335, 0, 0.000979235, 0.00051987, 0.000832477, 8.87599, 19.6293, 0, 0.000979531, -0.240346, -38.9246, -75.5354, -0.158734, -25.7313, -32.998, 0.000596933, -0.00016349, -0.00105387, 0.000305578, 0.000305578, 0.000305578
3190, 1,0.000651792, -0.000496445, 0.000343508, 6.83715, -30.6903, 0.0012427, 20.9455, 50.6578, 0, 0.00101304, 0.000839566, 0.00150819, 8.65953, 41.4663, 0, 0.00101319, 0.00046616, 0.000827706, 5.17816, 22.3904, 0, 0.0010135, 0.731562, -32.4074, -92.723, 0.727667, -21.156, -46.743, 0.00066812, 7.8995E-06, -0.00134889, 0.000367606, 0.000367606, 0.000367606
3191, 1,0.000683949, -0.00051436, 0.000354873, 6.26071, -31.8416, 0.00125171, 19.5988, 53.2471, 0, 0.00104707, 0.000877451, 0.00160491, 8.10507, 44.8079, 0, 0.00104721, 0.000491904, 0.000899591, 4.53714, 24.9669, 0, 0.00104755, 0.943183, -34.0023, -101.365, 0.909045, -22.4412, -53.3685, 0.000726085, 2.96424E-05, -0.0014828, 0.000412952, 0.000412952, 0.000412952
3192, 1,0.000799382, -0.000559341, 0.000391756, 8.32336, -34.4046, 0.00208766, 59.1027, 53.7546, 0, 0.00108124, 0.00102177, 0.00180056, 11.1593, 48.9547, 0, 0.00108132, 0.000578341, 0.0010215, 5.62589, 28.0578, 0, 0.00108169, -0.608804, -42.3647, -103.891, -0.574681, -28.498, -55.1006, 0.000759475, -5.88266E-05, -0.001495, 0.000431199, 0.000431199, 0.000431199
3193, 1,0.000675052, -0.000471473, 0.000335629, 11.7143, -28.7296, 0.00162238, 42.0718, 46.0771, 0, 0.000978937, 0.000869978, 0.00142208, 14.6282, 34.2737, 0, 0.000979124, 0.000484366, 0.000764735, 9.10538, 17.2972, 0, 0.000979394, 0.100915, -37.4276, -65.4944, 0.211862, -24.2319, -27.8716, 0.000541937, -0.000202007, -0.000896103, 0.000276848, 0.000276848, 0.000276848
3194, 1,0.000617026, -0.000458309, 0.00031907, 7.78424, -28.2715, 0.0011234, 17.5186, 47.6893, 0, 0.00101296, 0.000794129, 0.00139529, 9.71313, 37.0128, 0, 0.00101314, 0.000442161, 0.000764484, 6.02867, 19.5856, 0, 0.00101342, 0.813775, -32.0768, -79.7754, 0.919192, -20.8348, -38.8413, 0.000599854, -5.51715E-05, -0.00114529, 0.000327615, 0.000327615, 0.000327615
3195, 1,0.000650011, -0.000474815, 0.000329848, 7.18685, -29.3312, 0.00112017, 15.4565, 50.5231, 0, 0.00104702, 0.000833141, 0.00148881, 9.17235, 40.3829, 0, 0.00104719, 0.000468251, 0.000833925, 5.32424, 22.2616, 0, 0.0010475, 0.681415, -33.8743, -87.956, 0.787676, -22.3207, -45.2517, 0.000650788, -3.62091E-05, -0.00126985, 0.000367694, 0.000367694, 0.000367694
3196, 1,0.000759591, -0.000515744, 0.000363229, 9.84703, -31.65, 0.00166291, 38.9872, 53.8533, 0, 0.00108111, 0.000969211, 0.00167515, 12.7783, 43.7172, 0, 0.00108129, 0.000550805, 0.000951709, 7.01264, 24.6684, 0, 0.00108162, 0.220273, -40.0277, -91.3441, 0.330273, -26.193, -48.1423, 0.000694212, -9.76087E-05, -0.00130596, 0.000396629, 0.000396629, 0.000396629
3197, 1,0.000630685, -0.000434776, 0.000312185, 11.8332, -26.3775, 0.00126229, 26.1842, 44.5241, 0, 0.000978777, 0.00081524, 0.00131128, 14.8661, 30.876, 0, 0.000978994, 0.000450593, 0.000701438, 9.11285, 15.5433, 0, 0.000979237, -0.060476, -37.2137, -55.3538, 0.0621874, -24.0747, -22.6175, 0.000485021, -0.000257212, -0.000728849, 0.000246085, 0.000246085, 0.000246085
3198, 1,0.000569281, -0.000420306, 0.000294606, 7.6193, -25.8557, 0.000964229, 10.0269, 47.6362, 0, 0.00101281, 0.000735507, 0.00127529, 9.6525, 33.4485, 0, 0.00101304, 0.000405328, 0.000693634, 5.7629, 17.6836, 0, 0.0010133, 0.332015, -32.1936, -68.4839, 0.48091, -20.9691, -32.5626, 0.000533557, -0.000115204, -0.000961118, 0.000288421, 0.000288421, 0.000288421
3199, 1,0.000604178, -0.000435138, 0.000304367, 7.35968, -26.8107, 0.000976283, 8.17376, 51.186, 0, 0.00104687, 0.000776068, 0.00136473, 9.4574, 36.4686, 0, 0.00104712, 0.000433654, 0.000760792, 5.3867, 20.0812, 0, 0.0010474, 0.23772, -33.6716, -75.972, 0.40585, -22.1389, -38.5105, 0.000579655, -9.44515E-05, -0.00107696, 0.000325169, 0.000325169, 0.000325169
3200, 1,0.000698854, -0.000473697, 0.000336188, 9.37243, -28.9671, 0.00130527, 21.2273, 54.9843, 0, 0.00108095, 0.000896655, 0.00153937, 12.4391, 40.006, 0, 0.00108121, 0.00050173, 0.000869434, 6.39062, 22.8165, 0, 0.00108151, -0.153341, -40.0721, -79.7925, -0.00928278, -26.2472, -42.1929, 0.0006277, -0.000162207, -0.00111462, 0.000360107, 0.000360107, 0.000360107
3201, 1,0.000599209, -0.000399508, 0.000290091, 12.4992, -24.0967, 0.00112581, 23.6461, 39.1914, 0, 0.000978681, 0.000774606, 0.00121387, 15.7065, 27.3834, 0, 0.000978868, 0.000428505, 0.00064893, 9.61523, 13.6921, 0, 0.000979086, -0.13976, -36.7362, -45.2742, -0.0148581, -23.712, -17.3493, 0.000428337, -0.000305648, -0.000567056, 0.000215305, 0.000215305, 0.000215305
3202, 1,0.000531082, -0.000383183, 0.00027087, 7.86054, -23.4807, 0.000910292, 11.1932, 42.5917, 0, 0.00101273, 0.000686867, 0.00116694, 10.0169, 29.9369, 0, 0.00101294, 0.000377665, 0.000633083, 5.88768, 15.8365, 0, 0.00101317, -0.0061647, -31.9359, -57.8687, 0.152227, -20.8312, -26.8306, 0.000471102, -0.000166158, -0.000790727, 0.000252385, 0.000252385, 0.000252385
3203, 1,0.000561674, -0.000396324, 0.000279561, 7.51333, -24.3293, 0.000935969, 9.62587, 46.6579, 0, 0.00104679, 0.000722755, 0.00124916, 9.74599, 32.8053, 0, 0.00104702, 0.000401981, 0.000694856, 5.40825, 18.1572, 0, 0.00104727, -0.0975141, -33.4793, -64.8391, 0.0882314, -22.0736, -32.4864, 0.000514787, -0.000148804, -0.000898289, 0.000288061, 0.000288061, 0.000288061
3204, 1,0.000653651, -0.000433076, 0.000310534, 9.75518, -26.3527, 0.00117802, 17.9672, 51.2423, 0, 0.00108086, 0.000840895, 0.00141879, 13.0184, 36.0355, 0, 0.00108113, 0.00046699, 0.000799805, 6.56999, 20.7103, 0, 0.0010814, -0.269456, -39.673, -68.164, -0.111376, -25.9778, -36.0417, 0.000562585, -0.00021909, -0.000928196, 0.000324642, 0.000324642, 0.000324642
3205, 1,0.000576074, -0.000365663, 0.000269356, 13.4649, -21.8827, 0.00107356, 25.8992, 32.7885, 0, 0.000978613, 0.000743574, 0.00112559, 16.9045, 23.8427, 0, 0.000978755, 0.000413501, 0.000602899, 10.36, 11.7904, 0, 0.000978946, -0.187655, -36.0309, -35.3097, -0.0670744, -23.1641, -12.1401, 0.000371566, -0.000349339, -0.000409142, 0.000184256, 0.000184256, 0.000184256
3206, 1,0.00049704, -0.000346809, 0.000247851, 8.27107, -21.133, 0.000885673, 14.6538, 36.3636, 0, 0.00101267, 0.000643178, 0.00106495, 10.592, 26.37, 0, 0.00101284, 0.000353262, 0.000577087, 6.13211, 13.945, 0, 0.00101304, -0.116167, -31.2611, -47.7328, 0.0298824, -20.336, -21.5289, 0.000412609, -0.000209817, -0.000630697, 0.000220015, 0.000220015, 0.000220015
3207, 1,0.000523768, -0.000358177, 0.000255386, 7.8501, -21.8702, 0.000927164, 13.7571, 40.5356, 0, 0.00104673, 0.000674795, 0.00114026, 10.2589, 29.0834, 0, 0.00104693, 0.000374015, 0.000633895, 5.56077, 16.187, 0, 0.00104715, -0.215445, -32.7903, -54.2443, -0.0377161, -21.578, -26.9453, 0.000453611, -0.000194247, -0.000731275, 0.000254296, 0.000254296, 0.000254296
3208, 1,0.000612722, -0.000393714, 0.000286109, 10.2049, -23.7935, 0.00113755, 20.4744, 45.2938, 0, 0.00108081, 0.000790657, 0.00130413, 13.7252, 32.0452, 0, 0.00108105, 0.000435236, 0.000733498, 6.75141, 18.5872, 0, 0.00108128, -0.317736, -38.9605, -56.8574, -0.158934, -25.438, -30.1646, 0.000498617, -0.000268974, -0.000749594, 0.000290087, 0.000290087, 0.000290087
3209, 1,0.000559808, -0.000333332, 0.000250079, 14.7196, -19.7415, 0.00103376, 28.3302, 26.9639, 0, 0.000978546, 0.000720801, 0.0010458, 18.4549, 20.2871, 0, 0.000978652, 0.000403966, 0.000562454, 11.329, 9.86848, 0, 0.000978817, -0.189682, -35.1353, -25.5362, -0.0754772, -22.4705, -7.05946, 0.000315517, -0.000389365, -0.00025537, 0.0001538, 0.0001538, 0.0001538
3210, 1,0.00046835, -0.000311508, 0.000225896, 8.94615, -18.8325, 0.000846999, 17.0061, 30.7433, 0, 0.0010126, 0.000605931, 0.000969799, 11.4839, 22.7688, 0, 0.00101274, 0.000333089, 0.000525705, 6.58545, 12.0223, 0, 0.00101291, -0.132959, -30.3239, -37.8496, -0.00514138, -19.6352, -16.4267, 0.000355541, -0.00024918, -0.000475829, 0.000188993, 0.000188993, 0.000188993
3211, 1,0.00049037, -0.000321134, 0.000232307, 8.40687, -19.4588, 0.000890921, 16.2352, 34.9148, 0, 0.00104668, 0.000632465, 0.00103759, 11.0453, 25.3296, 0, 0.00104684, 0.000349405, 0.000576864, 5.87612, 14.1885, 0, 0.00104703, -0.232568, -31.8317, -43.9246, -0.070354, -20.8701, -21.6251, 0.000394082, -0.000235362, -0.00056972, 0.000222077, 0.000222077, 0.000222077
3212, 1,0.000578438, -0.000356042, 0.000263321, 10.9205, -21.3124, 0.00109093, 22.5627, 39.5424, 0, 0.00108077, 0.000748641, 0.00119777, 14.769, 28.0375, 0, 0.00108098, 0.000408552, 0.00067224, 7.12627, 16.4417, 0, 0.00108118, -0.328186, -37.9819, -45.8025, -0.172683, -24.6873, -24.4652, 0.000435196, -0.00031398, -0.000576134, 0.000255914, 0.000255914, 0.000255914
3213, 1,0.000550888, -0.000302737, 0.000232492, 16.3163, -17.6849, 0.00101354, 31.5315, 21.3653, 0, 0.000978468, 0.000707032, 0.000975135, 20.4242, 16.7302, 0, 0.000978542, 0.000400078, 0.000527688, 12.5617, 7.94012, 0, 0.000978681, -0.176117, -34.0705, -15.9438, -0.0688337, -21.6522, -2.09934, 0.000259765, -0.000425879, -0.000105387, 0.000123547, 0.000123547, 0.000123547
3214, 1,0.000445262, -0.000277615, 0.000205364, 9.91388, -16.5977, 0.000811612, 19.2935, 25.4192, 0, 0.00101252, 0.000575729, 0.00088167, 12.7372, 19.1363, 0, 0.00101262, 0.000317064, 0.00047847, 7.26187, 10.0701, 0, 0.00101277, -0.103012, -29.1989, -28.107, 0.0063943, -18.7941, -11.4225, 0.000298959, -0.000285383, -0.0003241, 0.000158479, 0.000158479, 0.000158479
3215, 1,0.00046214, -0.000285578, 0.000210723, 9.23778, -17.1161, 0.000850539, 18.2553, 29.6491, 0, 0.0010466, 0.000596824, 0.000941545, 12.178, 21.5427, 0, 0.00104674, 0.000328424, 0.000523422, 6.39211, 12.1582, 0, 0.0010469, -0.20496, -30.6659, -33.7574, -0.0592187, -20.0041, -16.4112, 0.00033499, -0.000273049, -0.000411494, 0.000190294, 0.000190294, 0.000190294
3216, 1,0.000550184, -0.000320436, 0.000242552, 11.9114, -18.9293, 0.00104723, 24.5474, 34.1213, 0, 0.0010807, 0.000714604, 0.00109956, 16.1771, 24.0255, 0, 0.00108087, 0.000385965, 0.000615149, 7.6878, 14.2862, 0, 0.00108104, -0.315159, -36.8094, -34.9519, -0.164641, -23.7943, -18.8998, 0.000372221, -0.000355264, -0.000406774, 0.000222065, 0.000222065, 0.000222065
3217, 1,0.000550298, -0.000274194, 0.000216922, 18.3056, -15.7285, 0.00101634, 35.8565, 15.7357, 0, 0.000978394, 0.000703602, 0.00091496, 22.8797, 13.1808, 0, 0.000978435, 0.00040246, 0.000499272, 14.0913, 6.01454, 0, 0.000978549, -0.159127, -32.8652, -6.51818, -0.058526, -20.735, 2.74992, 0.000204199, -0.000459371, 4.12646E-05, 9.34096E-05, 9.34096E-05, 9.34096E-05
3218, 1,0.000429061, -0.000245567, 0.00018669, 11.22, -14.4504, 0.000789703, 22.2728, 20.022, 0, 0.00101244, 0.000554294, 0.000802189, 14.4181, 15.4923, 0, 0.00101252, 0.000306035, 0.000436142, 8.18709, 8.10663, 0, 0.00101264, -0.0662201, -27.9253, -18.4854, 0.0269424, -17.8449, -6.50193, 0.000242334, -0.000318824, -0.000174905, 0.000127973, 0.000127973, 0.000127973
3219, 1,0.000440001, -0.000251991, 0.000191118, 10.3663, -14.8662, 0.000819519, 20.7486, 24.3405, 0, 0.00104653, 0.000569268, 0.000853547, 13.7024, 17.7495, 0, 0.00104664, 0.000311538, 0.000474058, 7.1113, 10.1212, 0, 0.00104677, -0.17052, -29.35, -23.7279, -0.0396653, -19.0298, -11.2941, 0.00027595, -0.00030792, -0.00025603, 0.000158592, 0.000158592, 0.000158592
3220, 1,0.000528729, -0.000287332, 0.000224239, 13.2124, -16.6658, 0.00101754, 27.2192, 28.6614, 0, 0.00108063, 0.000689744, 0.00101073, 18.0047, 20.0254, 0, 0.00108078, 0.000367824, 0.000562618, 8.45092, 12.1368, 0, 0.00108092, -0.299025, -35.4777, -24.2993, -0.154099, -22.7899, -13.4665, 0.00030951, -0.000393187, -0.000241231, 0.000188374, 0.000188374, 0.000188374
3221, 1,0.000559346, -0.000248079, 0.00020375, 20.7547, -13.8901, 0.00104217, 41.2704, 10.1231, 0, 0.000978322, 0.000712231, 0.000866939, 25.9087, 9.63682, 0, 0.00097833, 0.000411978, 0.000478024, 15.963, 4.09033, 0, 0.000978418, -0.140902, -31.5334, 2.76385, -0.0467348, -19.7303, 7.50607, 0.000148741, -0.00049019, 0.00018505, 6.33231E-05, 6.33231E-05, 6.33231E-05
3222, 1,0.000421773, -0.00021594, 0.000170453, 12.9541, -12.4187, 0.00078587, 26.1455, 14.5753, 0, 0.00101238, 0.000544225, 0.000733951, 16.6435, 11.8425, 0, 0.00101242, 0.00030146, 0.000400174, 9.424, 6.13746, 0, 0.00101252, -0.0321559, -26.5258, -8.96947, 0.0472187, -16.8062, -1.65337, 0.000185557, -0.000349851, -2.78773E-05, 9.73695E-05, 9.73695E-05, 9.73695E-05
3223, 1,0.000425932, -0.000220998, 0.000174117, 11.8821, -12.7394, 0.000802798, 23.9608, 18.9711, 0, 0.00104645, 0.000552387, 0.000776107, 15.7371, 13.9504, 0, 0.00104654, 0.000300125, 0.000430071, 8.09532, 8.07798, 0, 0.00104664, -0.137445, -27.8995, -13.8144, -0.0193359, -17.9589, -6.25569, 0.000216793, -0.000340239, -0.000102909, 0.000126812, 0.000126812, 0.000126812
3224, 1,0.000515535, -0.000257254, 0.000208909, 14.8938, -14.5469, 0.00100298, 30.604, 23.1954, 0, 0.00108055, 0.000676044, 0.000933248, 20.3467, 16.0366, 0, 0.00108068, 0.000355075, 0.000515589, 9.46228, 9.99321, 0, 0.00108078, -0.280141, -34.0052, -13.8243, -0.141086, -21.6898, -8.14876, 0.00024704, -0.000428134, -7.90912E-05, 0.000154831, 0.000154831, 0.000154831
3225, 1,0.000579223, -0.000224799, 0.000193389, 23.7226, -12.1889, 0.00109281, 47.8416, 4.55165, 0, 0.000978256, 0.000734567, 0.000832695, 29.5928, 6.09704, 0, 0.000978231, 0.000429341, 0.000464644, 18.2123, 2.16724, 0, 0.000978294, -0.122127, -30.0931, 11.9241, -0.0344709, -18.6524, 12.1852, 9.33622E-05, -0.000518713, 0.000326391, 3.32653E-05, 3.32653E-05, 3.32653E-05
3226, 1,0.000425819, -0.000189449, 0.000157364, 15.2306, -10.5369, 0.000806025, 31.1739, 9.10511, 0, 0.00101231, 0.000548655, 0.000680073, 19.5617, 8.18678, 0, 0.00101232, 0.000305048, 0.000372259, 11.0533, 4.16244, 0, 0.00101239, -0.00221464, -25.0167, 0.458584, 0.0656816, -15.6904, 3.13737, 0.000128601, -0.000378766, 0.000117314, 6.66355E-05, 6.66355E-05, 6.66355E-05
3227, 1,0.000422242, -0.000193372, 0.000160493, 13.8896, -10.7726, 0.00080598, 28.1464, 13.5537, 0, 0.00104638, 0.000549245, 0.000712303, 18.4222, 10.1485, 0, 0.00104644, 0.000295754, 0.000393045, 9.41391, 6.03134, 0, 0.00104651, -0.108851, -26.3352, -4.0015, -0.00129276, -16.8081, -1.28461, 0.000157497, -0.000370344, 4.81831E-05, 9.49317E-05, 9.49317E-05, 9.49317E-05
3228, 1,0.000512375, -0.000230769, 0.000197131, 17.0372, -12.6, 0.00100662, 34.8592, 17.7038, 0, 0.00108047, 0.000675849, 0.000869448, 23.3117, 12.0588, 0, 0.00108057, 0.000348923, 0.000475246, 10.7771, 7.85525, 0, 0.00108065, -0.2606, -32.4087, -3.50716, -0.12758, -20.507, -2.93119, 0.00018476, -0.000460424, 8.00227E-05, 0.000121392, 0.000121392, 0.000121392
3229, 1,0.00061082, -0.000204751, 0.000186236, 27.254, -10.6439, 0.001169, 55.5869, -0.957858, 0, 0.000978208, 0.000771937, 0.00081354, 33.9977, 2.56023, 0, 0.000978152, 0.000454992, 0.000459559, 20.8618, 0.244143, 0, 0.000978189, -0.102806, -28.5607, 20.9828, -0.0216167, -17.514, 16.8032, 3.80431E-05, -0.000545276, 0.000465663, 3.22152E-06, 3.22152E-06, 3.22152E-06
3230, 1,0.000443689, -0.000166879, 0.000148208, 18.1688, -8.84301, 0.000855268, 37.5794, 3.63934, 0, 0.00101225, 0.000570858, 0.000643835, 23.3295, 4.52556, 0, 0.00101223, 0.0003185, 0.000354098, 13.1569, 2.18194, 0, 0.00101227, 0.0232039, -23.4159, 9.81603, 0.0818898, -14.5117, 7.88396, 7.14624E-05, -0.000405903, 0.000260999, 3.57681E-05, 3.57681E-05, 3.57681E-05
3231, 1,0.000431645, -0.000169963, 0.000151095, 16.5163, -9.00691, 0.000834495, 33.5474, 8.10622, 0, 0.00104632, 0.000563388, 0.000665671, 21.9248, 6.34256, 0, 0.00104635, 0.000300318, 0.000364859, 11.1563, 3.98018, 0, 0.00104639, -0.0843713, -24.6734, 5.73006, 0.0147868, -15.59, 3.6347, 9.80516E-05, -0.000398554, 0.000197594, 6.294E-05, 6.294E-05, 6.294E-05
3232, 1,0.000521178, -0.000208407, 0.000189437, 19.7317, -10.8507, 0.00103141, 40.1229, 12.1851, 0, 0.0010804, 0.000691632, 0.000821781, 27.0146, 8.09083, 0, 0.00108047, 0.000350739, 0.000442949, 12.459, 5.7219, 0, 0.00108051, -0.240308, -30.7051, 6.67296, -0.113386, -19.2549, 2.20263, 0.000122652, -0.000490404, 0.000236496, 8.80417E-05, 8.80417E-05, 8.80417E-05
3233, 1,0.000654461, -0.000188245, 0.000182599, 31.3636, -9.26976, 0.00126993, 64.4559, -6.39335, 0, 0.000978149, 0.000824984, 0.000810122, 39.1535, -0.972581, 0, 0.000978063, 0.000488949, 0.000462789, 23.9115, -1.67847, 0, 0.000978074, -0.0840136, -26.9538, 29.9556, -0.00882036, -16.3289, 21.3732, -1.72225E-05, -0.000570197, 0.000603177, -2.6814E-05, -2.6814E-05, -2.6814E-05
3234, 1,0.000477405, -0.000148926, 0.000143683, 21.867, -7.37012, 0.00093677, 45.5042, -1.81167, 0, 0.00101217, 0.000613561, 0.00062795, 28.0787, 0.857983, 0, 0.00101213, 0.000343141, 0.000347011, 15.7996, 0.195241, 0, 0.00101214, 0.0441773, -21.7394, 19.1212, 0.0960013, -13.2827, 12.6009, 1.41308E-05, -0.000431571, 0.00040351, 4.76E-06, 4.76E-06, 4.76E-06
3235, 1,0.000456737, -0.00015151, 0.000146664, 19.8844, -7.47784, 0.000893144, 40.3869, 2.63263, 0, 0.00104623, 0.000598145, 0.000639535, 26.4017, 2.5322, 0, 0.00104624, 0.00031569, 0.000347384, 13.4108, 1.92428, 0, 0.00104625, -0.0640446, -22.9315, 15.3989, 0.0288353, -14.3185, 8.51679, 3.84502E-05, -0.000425201, 0.000345671, 3.08323E-05, 3.08323E-05, 3.08323E-05
3236, 1,0.000543751, -0.00019054, 0.0001862, 23.0611, -9.31727, 0.00108048, 46.5496, 6.62886, 0, 0.00108031, 0.000725595, 0.000792438, 31.5577, 4.1317, 0, 0.00108035, 0.000361924, 0.000420087, 14.5726, 3.59248, 0, 0.00108036, -0.219423, -28.912, 16.7364, -0.0986664, -17.9475, 7.26869, 6.06984E-05, -0.00051842, 0.000390705, 5.47678E-05, 5.47678E-05, 5.47678E-05
3237, 1,0.000709795, 0.0001898, 0.000182605, 36.0333, 9.42298, 0.00139308, 74.3174, -11.7459, 0, 0.000978092, 0.000893468, 0.000822203, 45.0472, -4.5015, 0, 0.000977977, 0.000530789, 0.000473909, 27.34, -3.60084, 0, 0.000977963, -0.0657815, -25.2877, 38.858, 0.00392232, -15.1094, 25.908, -7.24372E-05, -0.000593763, 0.000739221, -5.68448E-05, -5.68448E-05, -5.68448E-05
3238, 1,0.000527791, 0.000152366, 0.000144165, 26.365, 7.66932, 0.00105038, 54.9355, -7.24229, 0, 0.0010121, 0.000677956, 0.000633604, 33.8668, -2.81629, 0, 0.00101203, 0.00037943, 0.000351449, 19.004, -1.79793, 0, 0.00101201, 0.0603754, -20.0033, 28.3918, 0.107855, -12.0163, 17.3022, -4.34066E-05, -0.00045608, 0.000545178, -2.63968E-05, -2.63968E-05, -2.63968E-05
3239, 1,0.000499259, 0.000156761, 0.000147573, 24.0763, 7.92515, 0.000984659, 48.794, -2.86715, 0, 0.00104616, 0.000655628, 0.000635996, 31.953, -1.2833, 0, 0.00104613, 0.000343241, 0.000341984, 16.2428, -0.136917, 0, 0.00104611, -0.0479573, -21.1263, 25.0241, 0.0408258, -13.0066, 13.3765, -2.13205E-05, -0.000450616, 0.000492767, -1.40085E-06, -1.40085E-06, -1.40085E-06
3240, 1,0.000581359, 0.000197774, 0.00018752, 27.084, 9.9314, 0.00115629, 54.2621, 1.02698, 0, 0.00108023, 0.000779119, 0.000782787, 37.0062, 0.180676, 0, 0.00108024, 0.000383614, 0.00040779, 17.1705, 1.46646, 0, 0.00108022, -0.198149, -27.0474, 26.7035, -0.0835525, -16.5986, 12.2828, -1.11662E-06, -0.000544825, 0.000543034, 2.15587E-05, 2.15587E-05, 2.15587E-05
3241, 1,0.000775866, 0.000206179, 0.00018617, 41.2148, 10.8016, 0.00153479, 84.9866, -17.0072, 0, 0.00097804, 0.000976301, 0.000848696, 51.6238, -8.02617, 0, 0.000977898, 0.000579728, 0.000492135, 31.1078, -5.52289, 0, 0.000977858, -0.048507, -23.5779, 47.7049, 0.0164036, -13.8674, 30.4197, -0.000127604, -0.000616256, 0.000874075, -8.68741E-05, -8.68741E-05, -8.68741E-05
3242, 1,0.000594097, 0.000171205, 0.000149544, 31.626, 9.1917, 0.00119268, 65.7062, -12.6497, 0, 0.00101204, 0.000763175, 0.000659922, 40.6512, -6.49746, 0, 0.00101194, 0.000426754, 0.000366792, 22.74, -3.7978, 0, 0.00101189, 0.0712532, -18.2238, 37.6449, 0.117121, -10.725, 22.0013, -0.000101164, -0.000479737, 0.000686325, -5.77129E-05, -5.77129E-05, -5.77129E-05
3243, 1,0.000559352, 0.000176888, 0.000153655, 29.0997, 9.5309, 0.00110865, 58.7537, -8.39581, 0, 0.00104608, 0.000735814, 0.000655021, 38.5788, -5.10468, 0, 0.00104603, 0.000383275, 0.000348952, 19.6676, -2.204, 0, 0.00104598, -0.036228, -19.2741, 34.6244, 0.0507152, -11.667, 18.2283, -8.12753E-05, -0.000475119, 0.000639232, -3.37699E-05, -3.37699E-05, -3.37699E-05
3244, 1,0.000634295, 0.000217992, 0.000193179, 31.8162, 11.5617, 0.00125999, 63.3227, -4.6268, 0, 0.00108014, 0.000852272, 0.000792883, 43.3658, -3.7632, 0, 0.00108012, 0.000416334, 0.000406572, 20.2783, -0.656851, 0, 0.00108007, -0.176615, -25.1281, 36.5944, -0.068145, -15.2214, 17.2601, -6.28109E-05, -0.000569956, 0.000693851, -1.15981E-05, -1.15981E-05, -1.15981E-05
3245, 1,0.000851291, 0.000225801, 0.000193009, 46.8396, 12.3325, 0.00169104, 96.2684, -22.174, 0, 0.000977996, 0.00107176, 0.000887885, 58.798, -11.5463, 0, 0.000977828, 0.000634764, 0.000516466, 35.1653, -7.44445, 0, 0.000977763, -0.0323543, -21.8386, 56.51, 0.0284336, -12.6146, 34.9195, -0.000182721, -0.000637935, 0.00100799, -0.000116903, -0.000116903, -0.000116903
3246, 1,0.000674289, 0.0001944, 0.000159263, 37.5517, 10.9216, 0.00135824, 77.5619, -18.0384, 0, 0.00101198, 0.000866615, 0.000704288, 48.3061, -10.1863, 0, 0.00101185, 0.000483651, 0.000391573, 26.9364, -5.80497, 0, 0.00101178, 0.0767395, -16.4157, 46.8978, 0.123771, -9.42056, 26.7117, -0.000159156, -0.000502829, 0.000827266, -8.91979E-05, -8.91979E-05, -8.91979E-05
3247, 1,0.000635442, 0.000201558, 0.000164264, 34.8814, 11.3538, 0.00126171, 70.1128, -13.9598, 0, 0.00104601, 0.000836494, 0.000694392, 46.176, -8.93214, 0, 0.00104592, 0.000434849, 0.000367341, 23.6412, -4.27708, 0, 0.00104584, -0.029532, -17.3917, 44.2177, 0.0579931, -10.3128, 23.0861, -0.000141431, -0.000499029, 0.000785403, -6.6287E-05, -6.6287E-05, -6.6287E-05
3248, 1,0.000701728, 0.000242035, 0.000202696, 37.222, 13.3739, 0.00139119, 73.7233, -10.3413, 0, 0.00108004, 0.000943725, 0.000821383, 50.5781, -7.7007, 0, 0.00108, 0.000459772, 0.00041611, 23.8836, -2.77796, 0, 0.00107991, -0.154986, -23.171, 46.4281, -0.0525695, -13.8289, 22.2153, -0.0001244, -0.00059414, 0.000843515, -4.47138E-05, -4.47138E-05, -4.47138E-05
3249, 1,0.00093455, 0.000248251, 0.000202705, 52.8338, 13.9952, 0.00185838, 107.999, -27.2492, 0, 0.000977958, 0.00117787, 0.000937783, 66.4736, -15.0627, 0, 0.000977764, 0.000694854, 0.000545852, 39.462, -9.36617, 0, 0.000977674, -0.0169773, -20.0832, 65.2881, 0.0403965, -11.361, 39.4191, -0.000237791, -0.000659052, 0.00114124, -0.000146932, -0.000146932, -0.000146932
3250, 1,0.000765743, 0.000221164, 0.000172533, 44.0154, 12.8209, 0.001541, 90.2177, -23.4135, 0, 0.00101193, 0.000984858, 0.000763282, 56.6669, -13.8828, 0, 0.00101177, 0.000548295, 0.000423961, 31.5048, -7.81949, 0, 0.00101167, 0.0764389, -14.5941, 56.1662, 0.127613, -8.11454, 31.4454, -0.000217389, -0.000525646, 0.000968298, -0.000120855, -0.000120855, -0.000120855
3251, 1,0.000724879, 0.000229899, 0.000178528, 41.2985, 13.3522, 0.00143842, 82.6229, -19.5681, 0, 0.00104594, 0.000954159, 0.00075058, 54.5811, -12.7672, 0, 0.00104582, 0.000496163, 0.000395335, 28.0802, -6.35745, 0, 0.00104572, -0.0276232, -15.4931, 53.8222, 0.0630448, -8.95477, 27.9641, -0.000201806, -0.00052263, 0.000931607, -9.89642E-05, -9.89642E-05, -9.89642E-05
3252, 1,0.000781922, 0.000269282, 0.000215447, 43.2242, 15.3387, 0.00154816, 85.39, -16.1209, 0, 0.00107996, 0.0010511, 0.000865906, 58.5363, -11.6326, 0, 0.00107989, 0.000512839, 0.000435312, 27.9387, -4.89741, 0, 0.00107977, -0.133352, -21.1919, 56.2229, -0.0368422, -12.4331, 27.1622, -0.000185898, -0.000617684, 0.000992354, -7.77973E-05, -7.77973E-05, -7.77973E-05
3253, 1,0.0010241, 0.000273062, 0.000214791, 59.1231, 15.7673, 0.00203495, 120.124, -32.2781, 0, 0.000977887, 0.0012926, 0.000996384, 74.5525, -18.5737, 0, 0.000977669, 0.000758961, 0.000579278, 43.9481, -11.2868, 0, 0.000977554, -0.00252588, -18.3267, 74.0504, 0.0521887, -10.1181, 43.9264, -0.000292793, -0.000679851, 0.00127401, -0.000176943, -0.000176943, -0.000176943
3254, 1,0.00086591, 0.000250693, 0.000188549, 50.8966, 14.8509, 0.00173435, 103.374, -28.7931, 0, 0.00101185, 0.00111456, 0.000833553, 65.5747, -17.588, 0, 0.00101166, 0.000618931, 0.0004622, 36.3622, -9.8424, 0, 0.00101154, 0.0712764, -12.7734, 65.4662, 0.129827, -6.81782, 36.2152, -0.000275857, -0.000548459, 0.0011097, -0.000152674, -0.000152674, -0.000152674
3255, 1,0.000824741, 0.000261058, 0.000195592, 48.2141, 15.4849, 0.00163181, 95.9637, -25.2308, 0, 0.00104585, 0.00108505, 0.000819831, 63.6173, -16.6092, 0, 0.0010457, 0.000565123, 0.000430853, 32.8864, -8.44456, 0, 0.00104556, -0.0306756, -13.5951, 63.4535, 0.0660343, -7.60576, 32.8734, -0.000262397, -0.000546222, 0.00107813, -0.000131791, -0.000131791, -0.000131791
3256, 1,0.000872685, 0.000299097, 0.000230797, 49.7239, 17.4252, 0.00172902, 98.2662, -22.0031, 0, 0.00107987, 0.00117159, 0.000923617, 67.1115, -15.5586, 0, 0.00107975, 0.000573982, 0.000462617, 32.3741, -7.01504, 0, 0.0010796, -0.112795, -19.2078, 65.9963, -0.0218406, -11.0471, 32.1141, -0.000247326, -0.000640885, 0.00114069, -0.000110866, -0.000110866, -0.000110866
3257, 1,0.00111867, 0.000299774, 0.000228811, 65.6497, 17.6269, 0.00222169, 132.66, -37.2247, 0, 0.000977836, 0.00141421, 0.00106191, 82.9544, -22.0833, 0, 0.000977596, 0.000826263, 0.000615889, 48.5878, -13.2103, 0, 0.000977455, 0.0139183, -16.5787, 82.8148, 0.0666293, -8.89244, 48.4567, -0.000347717, -0.000700548, 0.00140659, -0.000206928, -0.000206928, -0.000206928
3258, 1,0.000972551, 0.000282305, 0.000206626, 58.0919, 16.9788, 0.00193013, 116.528, -34.0183, 0, 0.00101179, 0.0012528, 0.000912191, 74.8942, -21.307, 0, 0.00101158, 0.000693991, 0.000504734, 41.4369, -11.8783, 0, 0.00101142, 0.0693756, -10.9593, 74.811, 0.138252, -5.53345, 41.0301, -0.000334463, -0.000571448, 0.00125164, -0.000184555, -0.000184555, -0.000184555
3259, 1,0.000932537, 0.000294303, 0.000214722, 55.5155, 17.7165, 0.00183266, 109.575, -30.7793, 0, 0.00104576, 0.00122595, 0.000898885, 73.1382, -20.4662, 0, 0.00104559, 0.00063994, 0.000472052, 37.9796, -10.5459, 0, 0.00104542, -0.0319926, -11.7034, 73.1339, 0.0735165, -6.26968, 37.8339, -0.000323188, -0.000570025, 0.00122531, -0.000164748, -0.000164748, -0.000164748
3260, 1,0.000971868, 0.000330896, 0.00024816, 56.6246, 19.6055, 0.00193229, 112.21, -27.8881, 0, 0.00107977, 0.00130245, 0.000991788, 76.1802, -19.4837, 0, 0.00107963, 0.000641607, 0.00049642, 37.1193, -9.13572, 0, 0.00107944, -0.086921, -17.2299, 75.7681, -0.00125702, -9.67864, 37.0871, -0.000308633, -0.000664037, 0.00128884, -0.000143869, -0.000143869, -0.000143869
3261, 1,0.00121719, 0.000327987, 0.000244361, 72.3636, 19.5553, 0.00242917, 146.189, -42.1984, 0, 0.000977785, 0.00154124, 0.00113294, 91.6109, -25.5925, 0, 0.000977522, 0.00089607, 0.000655023, 53.3491, -15.1374, 0, 0.000977356, 0.036072, -14.8554, 91.5969, 0.0870868, -7.69602, 53.0212, -0.000402496, -0.000721478, 0.00153924, -0.000236825, -0.000236825, -0.000236825
3262, 1,0.00108425, 0.000315446, 0.000226214, 65.529, 19.1781, 0.00212225, 129.209, -38.8407, 0, 0.0010117, 0.00139762, 0.000997295, 84.5272, -25.0399, 0, 0.00101148, 0.000772585, 0.000550717, 46.6809, -13.9271, 0, 0.00101129, 0.0739816, -9.17653, 84.2223, 0.155102, -4.28386, 45.9101, -0.000393134, -0.000595202, 0.00139464, -0.000216444, -0.000216444, -0.000216444
3263, 1,0.001046, 0.000329062, 0.00023535, 63.0946, 20.0191, 0.00203183, 122.84, -35.9664, 0, 0.00104568, 0.00137404, 0.00098513, 83.0089, -24.3451, 0, 0.00104548, 0.000718894, 0.000517418, 43.2772, -12.6686, 0, 0.00104529, -0.000372841, -9.8306, 82.8663, 0.115977, -4.95704, 42.8468, -0.000383632, -0.000594503, 0.00137317, -0.000197305, -0.000197305, -0.000197305
3264, 1,0.00107773, 0.000364181, 0.000267043, 63.84, 21.8554, 0.00216469, 127.647, -33.921, 0, 0.00107968, 0.00144147, 0.00106815, 85.6334, -23.4072, 0, 0.0010795, 0.000714424, 0.000535379, 42.1092, -11.2591, 0, 0.00107929, -0.0617949, -15.2729, 85.5564, 0.0190651, -8.33881, 42.0969, -0.000369941, -0.000687496, 0.00143726, -0.000176931, -0.000176931, -0.000176931
3265, 1,0.00131992, 0.000357365, 0.000261102, 79.2581, 21.5373, 0.00266564, 160.382, -46.2097, 0, 0.000977724, 0.00167364, 0.00120901, 100.502, -29.1198, 0, 0.000977453, 0.000968925, 0.000696818, 58.237, -17.0851, 0, 0.000977263, 0.0510363, -13.1406, 100.449, 0.0985174, -6.51057, 57.6674, -0.000457704, -0.000743242, 0.00167345, -0.000267226, -0.000267226, -0.000267226
3266, 1,0.00119915, 0.000349595, 0.000246797, 73.1332, 21.4239, 0.00231129, 140.228, -41.6067, 0, 0.0010116, 0.00154671, 0.0010867, 94.3792, -28.8697, 0, 0.0010114, 0.000853261, 0.000598847, 52.0363, -16.0693, 0, 0.00101119, 0.224408, -7.3258, 93.7106, 0.313867, -2.97912, 50.8732, -0.000450256, -0.000619773, 0.00153848, -0.000246807, -0.000246807, -0.000246807
3267, 1,0.00116351, 0.000364796, 0.000256938, 70.8257, 22.3671, 0.00222439, 134.183, -38.9741, 0, 0.00104556, 0.0015272, 0.00107655, 93.0813, -28.2523, 0, 0.00104538, 0.00080083, 0.000565891, 48.6729, -14.8159, 0, 0.00104515, 0.0820481, -7.94223, 92.617, 0.206828, -3.64615, 47.887, -0.000443444, -0.000620013, 0.0015219, -0.000229224, -0.000229224, -0.000229224
3268, 1,0.00119029, 0.000398519, 0.000287014, 71.3448, 24.1546, 0.00242608, 143.758, -39.0093, 0, 0.00107957, 0.00158827, 0.00115228, 95.427, -27.354, 0, 0.00107937, 0.000792848, 0.000579859, 47.3352, -13.4087, 0, 0.00107912, -0.0054688, -13.3571, 95.4245, 0.0694905, -7.05054, 47.2072, -0.000430981, -0.000712998, 0.00158785, -0.000209798, -0.000209798, -0.000209798
3269, 1,0.00142448, 0.000387691, 0.000278802, 86.1828, 23.5664, 0.00304583, 181.379, -50.2245, 0, 0.000977671, 0.00180889, 0.00128899, 109.472, -32.6835, 0, 0.000977393, 0.00104254, 0.000740429, 63.105, -19.0697, 0, 0.000977177, 0.22812, -11.4575, 109.28, 0.269139, -5.34664, 62.2865, -0.000510122, -0.000767633, 0.00180809, -0.000294905, -0.000294905, -0.000294905
3270, 1,0.0013125, 0.000384297, 0.000267977, 80.372, 23.6954, 0.00261472, 155.877, -43.3075, 0, 0.00101149, 0.00169492, 0.00117715, 103.898, -32.4833, 0, 0.00101131, 0.000931645, 0.000646532, 56.9889, -17.9951, 0, 0.00101108, 0.22579, -5.5831, 102.807, 0.314423, -1.79153, 55.4624, -0.000507198, -0.000645558, 0.00167984, -0.000277179, -0.000277179, -0.000277179
3271, 1,0.00128245, 0.000400855, 0.000278904, 78.5321, 24.7294, 0.00253957, 150.85, -41.3361, 0, 0.00104543, 0.00168226, 0.00117071, 103.154, -32.2235, 0, 0.00104527, 0.000883591, 0.000615931, 54.0107, -17.0298, 0, 0.00104502, 0.342289, -5.96746, 102.296, 0.468558, -2.27469, 52.8956, -0.000500494, -0.000647268, 0.00167064, -0.00025857, -0.00025857, -0.00025857
3272, 1,0.00131015, 0.000433237, 0.000307421, 79.1354, 26.4734, 0.00284973, 167.994, -44.7046, 0, 0.00107947, 0.00174288, 0.00124391, 105.536, -31.351, 0, 0.00107924, 0.000877899, 0.000630567, 52.8074, -15.6147, 0, 0.00107896, 0.110402, -11.5092, 105.452, 0.177949, -5.8564, 52.5227, -0.000491504, -0.000742453, 0.00174268, -0.000242283, -0.000242283, -0.000242283
3273, 1,0.00154541, 0.000419183, 0.000297535, 93.9252, 25.6703, 0.00390641, 234.196, -66.502, 0, 0.000977795, 0.00196172, 0.00138341, 119.332, -36.4287, 0, 0.000977318, 0.00113126, 0.000796251, 68.7197, -21.2109, 0, 0.000977076, 0.384401, -10.0502, 118.952, 0.403481, -4.43822, 67.6673, -0.000565965, -0.000802216, 0.00195928, -0.000325945, -0.000325945, -0.000325945
3274, 1,0.00142203, 0.000418952, 0.000289178, 87.1103, 25.9758, 0.003336, 199.849, -56.5461, 0, 0.00101155, 0.00183944, 0.00126833, 112.934, -35.8706, 0, 0.00101121, 0.00100591, 0.000694396, 61.4171, -19.6823, 0, 0.00101094, 0.283896, -4.11647, 111.444, 0.341951, -0.916092, 59.6209, -0.000559432, -0.000676616, 0.0018181, -0.000303279, -0.000303279, -0.000303279
3275, 1,0.00139187, 0.000436542, 0.00030056, 85.2115, 27.0853, 0.00327989, 196.761, -56.0016, 0, 0.00104549, 0.00182757, 0.00126138, 112.2, -35.5993, 0, 0.00104514, 0.000956941, 0.000662609, 58.3135, -18.638, 0, 0.00104485, 0.297237, -4.4558, 110.957, 0.400801, -1.43493, 56.9482, -0.000554628, -0.000677616, 0.0018099, -0.000285353, -0.000285353, -0.000285353
3276, 1,0.00142556, 0.000468245, 0.000328104, 86.2905, 28.8223, 0.00375921, 225.112, -63.7158, 0, 0.00107958, 0.00189345, 0.00133745, 115.044, -34.8362, 0, 0.00107907, 0.000958023, 0.000682333, 57.6049, -17.2967, 0, 0.00107877, 0.00917471, -10.3079, 114.807, 0.0592931, -5.33418, 57.1649, -0.000548469, -0.000778305, 0.00189205, -0.000271236, -0.000271236, -0.000271236
3277, 1,0.00168114, 0.000451761, 0.000317135, 103.014, 27.8415, 0.00521501, 321.645, -100.909, 0, 0.000978194, 0.00213072, 0.00148977, 130.62, -41.0204, 0, 0.000977244, 0.00123318, 0.000861516, 75.5863, -24.1818, 0, 0.000976977, 1.40382, -8.43485, 130.092, 1.41552, -3.29616, 74.4259, -0.000616995, -0.00084459, 0.00212719, -0.000351606, -0.000351606, -0.000351606
3278, 1,0.00151776, 0.000453039, 0.000310284, 92.8116, 28.21, 0.00456993, 276.012, -80.5082, 0, 0.00101176, 0.00196967, 0.00134817, 120.887, -38.7516, 0, 0.00101107, 0.00106682, 0.000732536, 64.8551, -20.9398, 0, 0.00101078, -0.50175, -2.22632, 118.983, -0.432232, 0.430019, 62.8216, -0.00062166, -0.00069207, 0.00194252, -0.000339697, -0.000339697, -0.000339697
3279, 1,0.00147441, 0.000471449, 0.000321972, 90.3269, 29.3694, 0.00448025, 271.458, -80.1447, 0, 0.00104569, 0.00194526, 0.00132794, 119.611, -38.5393, 0, 0.00104498, 0.00100413, 0.000686054, 61.127, -19.9258, 0, 0.00104467, -0.230633, -2.06944, 117.918, -0.0768532, 0.348039, 59.5063, -0.000611933, -0.000683775, 0.00192106, -0.00031559, -0.00031559, -0.00031559
3280, 1,0.00154741, 0.000503728, 0.000349476, 94.6516, 31.1819, 0.00509177, 315.496, -100.582, 0, 0.00108002, 0.00205093, 0.00143191, 125.769, -39.3541, 0, 0.00107895, 0.00104409, 0.000733571, 63.5969, -20.0668, 0, 0.00107861, 0.862189, -8.13327, 125.333, 0.945392, -3.74149, 62.9965, -0.000601405, -0.000807823, 0.00204781, -0.000295974, -0.000295974, -0.000295974
3281, 1,0.00182613, 0.000489546, 0.000340993, 109.951, 30.2946, 0.00693684, 409.143, -109.06, 0, 0.000978196, 0.00231341, 0.0016332, 139.981, -42.1893, 0, 0.000977135, 0.00134046, 0.000957481, 80.1164, -23.6546, 0, 0.000976841, -0.509335, -12.1229, 139.2, -0.433689, -7.21788, 78.6155, -0.000676562, -0.000946689, 0.00230782, -0.000383117, -0.000383117, -0.000383117
3282, 1,0.00167005, 0.000492751, 0.000336582, 98.2411, 30.71, 0.00654384, 365.847, -75.8262, 0, 0.00101153, 0.00215964, 0.001499, 128.652, -37.6606, 0, 0.0010109, 0.00118301, 0.000834348, 68.0833, -18.2614, 0, 0.00101058, -5.65176, -6.45833, 125.092, -5.43041, -3.83446, 64.049, -0.000714159, -0.000780851, 0.00210609, -0.00040399, -0.00040399, -0.00040399
3283, 1,0.00165081, 0.000512611, 0.000349419, 95.4823, 31.9624, 0.00651427, 357.804, -66.9927, 0, 0.00104531, 0.00216073, 0.00150628, 127.179, -35.6057, 0, 0.00104477, 0.00114319, 0.000816002, 64.0233, -15.3486, 0, 0.00104443, -8.3486, -8.43675, 123.602, -8.09265, -6.00131, 60.1399, -0.000737148, -0.000791243, 0.00210614, -0.000412784, -0.000412784, -0.000412784
3284, 1,0.00176109, 0.000546848, 0.000377629, 105.172, 33.9486, 0.00701443, 404.583, -98.1507, 0, 0.00107984, 0.00230676, 0.0016414, 138.941, -40.9909, 0, 0.00107884, 0.00121642, 0.000889715, 71.5609, -19.878, 0, 0.00107847, -1.56683, -13.2095, 137.749, -1.401, -8.8686, 69.9036, -0.000677936, -0.000951782, 0.00229485, -0.000342062, -0.000342062, -0.000342062
3285, 1,0.0021105, 0.000538437, 0.000373449, 125.676, 33.4843, 0.0137144, 461.437, -144.049, 0.123251, 0.000978854, 0.00264405, 0.00186556, 158.597, -47.04, 1.0842E-19, 0.000977146, 0.00158018, 0.00113069, 93.1446, -26.5096, 1.0842E-19, 0.00097682, -2.3903, -13.1609, 156.671, -2.22375, -7.95374, 89.7063, -0.000793711, -0.00107258, 0.00262957, -0.000466967, -0.000466967, -0.000466967
3286, 1,0.00201015, 0.000531065, 0.00036092, 115.267, 33.2663, 0.013849, 455.704, -134.753, 0.125406, 0.00101258, 0.00253856, 0.0017633, 148.168, -41.8585, 0, 0.00101089, 0.00148359, 0.00104782, 82.6377, -20.8316, 0, 0.00101054, -10.6957, -6.97178, 143.243, -10.1101, -4.61265, 77.2175, -0.000888606, -0.000907915, 0.00247572, -0.000545154, -0.000545154, -0.000545154
3287, 1,0.00200261, 0.000549622, 0.000371564, 114.276, 34.4609, 0.0146782, 458.754, -138.687, 0.141546, 0.00104662, 0.00255052, 0.00176379, 148.431, -41.5247, 0, 0.00104477, 0.00145596, 0.00102588, 80.3614, -19.7076, 0, 0.0010444, -11.8473, -6.9369, 143.358, -11.1402, -4.84867, 75.1117, -0.000904181, -0.000909132, 0.00248709, -0.000545773, -0.000545773, -0.000545773
3288, 1,0.00202292, 0.000592746, 0.000406571, 119.966, 37.0805, 0.0160648, 465.634, -148.828, 0.169041, 0.0010809, 0.00261487, 0.00183731, 156.782, -46.5009, 0, 0.00107883, 0.0014316, 0.00102613, 83.373, -23.3586, 0, 0.00107843, -3.88271, -11.1581, 154.543, -3.5702, -6.88256, 80.5286, -0.000810342, -0.00103403, 0.00259889, -0.000439587, -0.000439587, -0.000439587
3289, 1,0.00255764, 0.000592382, 0.000410531, 152.575, 36.9131, 0.024158, 481.686, -169.78, 0.325863, 0.000979721, 0.00314347, 0.00218434, 188.609, -57.1577, 0, 0.000977334, 0.00197571, 0.00137743, 117.095, -34.8245, 0, 0.00097698, -4.49243, -9.27347, 185.239, -3.848, -3.09851, 111.42, -0.000996934, -0.00119795, 0.0031223, -0.000631822, -0.000631822, -0.000631822
3290, 1,0.00247685, 0.000576101, 0.000392566, 143.644, 36.0498, 0.0259105, 502.556, -204.072, 0.362068, 0.00101445, 0.00305105, 0.00211734, 179.181, -52.7037, 0, 0.00101111, 0.0019038, 0.00133767, 108.449, -30.6413, 0, 0.00101075, -13.9536, 0.936623, 171.128, -11.8319, 3.8832, 99.8726, -0.0011295, -0.000983876, 0.00296851, -0.000737382, -0.000737382, -0.000737382
3291, 1,0.00242145, 0.000600331, 0.000406551, 142.215, 37.5199, 0.027336, 511.625, -217.963, 0.389718, 0.00104885, 0.00302069, 0.00206935, 179.263, -54.0273, 0, 0.00104504, 0.00182292, 0.00126059, 105.508, -31.224, 0, 0.00104465, -12.3752, 4.16114, 170.296, -9.5986, 6.77119, 96.4994, -0.00111248, -0.000940672, 0.00292975, -0.000694851, -0.000694851, -0.000694851
3292, 1,0.00246954, 0.000661145, 0.000452287, 150.073, 41.3719, 0.0282417, 496.841, -192.114, 0.404219, 0.00108238, 0.0031293, 0.00213298, 190.99, -60.443, 0, 0.00107909, 0.00181078, 0.001242, 109.521, -35.1643, 0, 0.00107865, -6.14137, 0.830056, 186.64, -4.63112, 5.87801, 104.246, -0.00107386, -0.00104756, 0.00310212, -0.000644216, -0.000644216, -0.000644216
3293, 1,0.00314779, 0.000673698, 0.000466569, 191.04, 41.7205, 0.031177, 485.927, -172.298, 0.457651, 0.000980178, 0.00381584, 0.00263486, 231.856, -72.7017, 0, 0.000977658, 0.00248291, 0.00172171, 150.759, -48.0548, 0, 0.000977267, -6.43763, -3.13222, 227.675, -4.35809, 4.28352, 144.239, -0.00128043, -0.00133076, 0.00379078, -0.000848622, -0.000848622, -0.000848622
3294, 1,0.00296788, 0.000657994, 0.000452949, 177.698, 40.8323, 0.0322079, 482.521, -166.88, 0.476948, 0.00101405, 0.00362474, 0.00256666, 217.979, -65.5807, 0, 0.00101139, 0.00231169, 0.00166232, 137.763, -41.4809, 0, 0.001011, -19.6334, 10.9495, 205.426, -14.5819, 13.5801, 125.444, -0.00145161, -0.000977291, 0.00349294, -0.000965483, -0.000965483, -0.000965483
3295, 1,0.00294447, 0.00070138, 0.000483844, 178.068, 43.653, 0.0327339, 478.691, -160.346, 0.486297, 0.00104791, 0.00364546, 0.00258323, 221.256, -67.7092, 0, 0.00104532, 0.00224374, 0.00161674, 135.204, -41.6066, 0, 0.00104488, -21.3503, 16.5363, 207.942, -15.7406, 17.643, 122.918, -0.00151819, -0.000888122, 0.00350491, -0.000988693, -0.000988693, -0.000988693
3296, 1,0.00311653, 0.000784407, 0.000532297, 191.009, 49.3695, 0.0333175, 477.045, -156.604, 0.496257, 0.00108187, 0.00390029, 0.00268943, 240.062, -77.1269, 0, 0.00107942, 0.00233322, 0.0016265, 142.188, -46.2234, 0, 0.00107888, -9.27285, 4.91196, 235.742, -6.55261, 7.77562, 137.447, -0.00140152, -0.00122276, 0.00387568, -0.000857632, -0.000857632, -0.000857632
3297, 1,0.00399801, 0.000820069, 0.000555772, 246.347, 51.2557, 0.0330029, 476.726, -155.531, 0.489668, 0.000979884, 0.004813, 0.00333504, 296.859, -96.0737, 0, 0.000978011, 0.00318574, 0.00223047, 196.251, -64.3039, 0, 0.000977507, -9.91621, 5.29166, 292.846, -6.75649, 9.31727, 190.351, -0.00172109, -0.00150164, 0.00478158, -0.00115424, -0.00115424, -0.00115424
3298, 1,0.00374423, 0.000828498, 0.000582583, 226.653, 51.2836, 0.033579, 475.391, -153.452, 0.500248, 0.00101338, 0.00457168, 0.00336671, 277.445, -82.2614, 0, 0.00101124, 0.00291742, 0.00220345, 176.167, -51.6257, 0, 0.00101073, -38.2533, 24.9265, 260.111, -29.5145, 23.8515, 160.54, -0.00210735, -0.000912742, 0.00435481, -0.00144025, -0.00144025, -0.00144025
3299, 1,0.0036858, 0.000881957, 0.000621182, 229.138, 54.627, 0.0339268, 477.072, -156.185, 0.506993, 0.00104731, 0.00456725, 0.00332491, 283.33, -89.7733, 0, 0.00104514, 0.0028047, 0.00208325, 175.249, -56.9564, 0, 0.00104458, -31.593, 35.5918, 265.321, -21.9403, 33.0365, 159.773, -0.00208235, -0.000801266, 0.00434025, -0.00136154, -0.00136154, -0.00136154
3300, 1,0.00400109, 0.000953946, 0.000653856, 248.472, 60.4269, 0.0345387, 476.073, -153.874, 0.517981, 0.00108146, 0.00495397, 0.00346448, 308.714, -102.308, 0, 0.00107946, 0.00304886, 0.00216087, 188.357, -63.0372, 0, 0.00107877, -16.1842, 18.0722, 305.035, -12, 16.4485, 184.663, -0.00194479, -0.00132267, 0.00492751, -0.00123813, -0.00123813, -0.00123813
3301, 1,0.00537986, 0.00101375, 0.000701558, 296.068, 63.2655, 0.0326726, 477.464, -156.831, 0.483529, 0.000979958, 0.00638327, 0.00454199, 358.566, -110.998, 0.010595, 0.00097832, 0.00438123, 0.00316192, 233.979, -69.9335, 0.010595, 0.000977664, -26.5424, 5.84742, 353.69, -20.6594, 3.19756, 227.262, -0.00259118, -0.00191541, 0.00631828, -0.00181381, -0.00181381, -0.00181381
3302, 1,0.0051548, 0.00109194, 0.000783772, 281.621, 66.2556, 0.0336562, 477.754, -156.986, 0.50134, 0.00101308, 0.00624, 0.00469842, 347.12, -91.9613, 0.00783187, 0.00101101, 0.00407325, 0.00314124, 216.561, -51.5699, 0.00725932, 0.00101035, -67.0252, 19.6961, 323.213, -53.209, 13.6138, 194.305, -0.00310257, -0.00125399, 0.00585515, -0.00215689, -0.00215689, -0.00215689
3303, 1,0.00508044, 0.00114935, 0.00082473, 279.505, 69.5218, 0.0342024, 479.172, -159.034, 0.511455, 0.00104691, 0.00622403, 0.0047049, 348.266, -88.0636, 0.00580523, 0.00104464, 0.00394022, 0.00306361, 211.206, -45.7148, 0.00496789, 0.00104392, -76.0027, 16.6366, 323.557, -61.7089, 10.3639, 188.489, -0.00317099, -0.00123052, 0.00583493, -0.00217755, -0.00217755, -0.00217755
3304, 1,0.0050822, 0.0011648, 0.000812791, 294.208, 72.3234, 0.034098, 479.516, -159.523, 0.509924, 0.00108134, 0.00624412, 0.00443807, 366.159, -112.18, 0.00496498, 0.0010794, 0.00392197, 0.00282624, 222.489, -63.8569, 0.00391986, 0.00107855, -33.2701, 8.3547, 361.455, -27.4127, 1.84436, 217.139, -0.00259806, -0.0017647, 0.00618795, -0.00168313, -0.00168313, -0.00168313
3305, 1,0.00895753, 0.00128175, 0.000896741, 335.724, 75.4527, 0.0312748, 479.285, -160.743, 0.45792, 0.000980471, 0.0101874, 0.00723655, 410.317, -144.864, 0.0759346, 0.000979443, 0.00774348, 0.00553667, 261.627, -93.3456, 0.0759346, 0.000978588, 3.82775, 25.9816, 404.783, 7.86695, 18.0153, 254.155, -0.00414846, -0.00343227, 0.0100352, -0.00313168, -0.00313168, -0.00313168
3306, 1,0.00955934, 0.00144494, 0.00102765, 335.204, 83.3279, 0.0329685, 485.195, -169.498, 0.489019, 0.00101389, 0.0109524, 0.00780808, 417.856, -154.458, 0.0922024, 0.00101273, 0.00818252, 0.00582884, 253.024, -99.3495, 0.0922024, 0.00101178, 11.3936, 53.7545, 398.226, 20.0312, 43.0642, 234.953, -0.00461124, -0.00308831, 0.0103416, -0.00339169, -0.00339169, -0.00339169
3307, 1,0.00963072, 0.00150267, 0.00106533, 336.991, 86.6909, 0.0330065, 483.907, -167.465, 0.489701, 0.00104742, 0.0110817, 0.00791193, 423.006, -155.341, 0.0929036, 0.00104629, 0.00819666, 0.00586305, 251.468, -97.997, 0.0929036, 0.00104526, 11.434, 51.9022, 402.688, 19.3659, 41.5928, 233.032, -0.00461827, -0.00317468, 0.0104512, -0.00338305, -0.00338305, -0.00338305
3308, 1,0.0090698, 0.0014357, 0.00100354, 327.641, 84.5905, 0.0319107, 482.863, -166.89, 0.470329, 0.0010815, 0.010457, 0.00746719, 411.517, -145.793, 0.0814419, 0.00108021, 0.00769923, 0.00555667, 244.264, -87.8899, 0.0814164, 0.00107914, 5.08321, 27.7392, 404.556, 8.48498, 19.3021, 235.883, -0.00426313, -0.00351498, 0.0102562, -0.00315148, -0.00315148, -0.00315148
3309, 1,0.0130013, 0.00155572, 0.00108049, 361.887, 87.2341, 0.030972, 474.765, -159.575, 0.454558, 0.000981594, 0.0144939, 0.0105931, 448.677, -172.001, 0.154099, 0.000981186, 0.0115232, 0.00862186, 275.388, -110.58, 0.154099, 0.000980117, 30.0398, 41.3116, 444.65, 29.5074, 31.8294, 270.404, -0.0058859, -0.00540596, 0.0143453, -0.00468512, -0.00468512, -0.00468512
3310, 1,0.0146212, 0.0017842, 0.00124067, 367.616, 99.6081, 0.0324167, 470.716, -153.824, 0.480924, 0.00101446, 0.0163595, 0.0117601, 466.996, -188.929, 0.188608, 0.00101448, 0.0128936, 0.00956105, 268.422, -117.964, 0.188608, 0.00101317, 56.0175, 53.5353, 457.233, 50.6064, 42.99, 260.296, -0.00614107, -0.00634849, 0.0159158, -0.0047502, -0.0047502, -0.0047502
3311, 1,0.0147639, 0.00184363, 0.00127999, 373.31, 103.418, 0.0322816, 465.588, -149.471, 0.479943, 0.0010479, 0.0165682, 0.0118615, 476.534, -194.964, 0.190294, 0.00104814, 0.012969, 0.00958338, 270.252, -121.112, 0.190294, 0.00104674, 64.1574, 53.8393, 466.894, 56.2666, 44.5478, 262.523, -0.00597765, -0.00661409, 0.0161311, -0.00459614, -0.00459614, -0.00459614
3312, 1,0.0135429, 0.00171347, 0.00118365, 353.793, 96.7401, 0.0309052, 454.462, -139.806, 0.456904, 0.0010818, 0.0152119, 0.0111513, 450.257, -168.859, 0.166648, 0.00108177, 0.0118849, 0.00895678, 257.541, -100.563, 0.166648, 0.00108045, 31.3605, 29.2544, 445.963, 27.5766, 21.1013, 253.01, -0.0059256, -0.0060996, 0.015046, -0.00464051, -0.00464051, -0.00464051
3313, 1,0.0146571, 0.00163405, 0.00112632, 367.011, 91.4994, 0.0322207, 461.629, -141.879, 0.479604, 0.00100795, 0.0162384, 0.0121596, 458.226, -176.589, 0.186485, 0.00100801, 0.0130868, 0.0100621, 275.988, -109.558, 0.186485, 0.00100679, 37.9879, 42.8009, 448.977, 30.8668, 30.1973, 267.609, -0.00638956, -0.00621348, 0.0158014, -0.0052051, -0.0052051, -0.0052051
3314, 1,0.0168607, 0.00192379, 0.00130486, 370.081, 107.172, 0.0333339, 447.467, -136.09, 0.50643, 0.00104198, 0.018761, 0.0140623, 477.166, -192.379, 0.232659, 0.00104251, 0.0149653, 0.0116387, 263.069, -111.834, 0.232659, 0.00104094, 72.0831, 31.9819, 473.073, 52.7163, 23.0406, 259.747, -0.00621779, -0.00874537, 0.0185507, -0.00487718, -0.00487718, -0.00487718
3315, 1,0.0170102, 0.00197628, 0.00134607, 375.528, 110.331, 0.0332866, 439.152, -133.028, 0.510229, 0.00107644, 0.0189703, 0.0141663, 485.799, -198.468, 0.234651, 0.00107718, 0.0150536, 0.0116599, 265.311, -115.94, 0.234651, 0.00107552, 81.9645, 31.6735, 481.767, 60.0883, 25.4685, 262.262, -0.00595025, -0.00910727, 0.0187634, -0.00463143, -0.00463143, -0.00463143
3316, 1,0.0153405, 0.00178221, 0.00122159, 364.767, 100.37, 0.0324994, 450.134, -135.808, 0.490005, 0.00111136, 0.0171036, 0.0128265, 465.045, -180.558, 0.201549, 0.00111166, 0.0135816, 0.0105011, 264.562, -108.02, 0.201549, 0.00111019, 53.8011, 30.6802, 457.192, 42.1477, 23.222, 258.691, -0.00601678, -0.00740055, 0.0167186, -0.00476648, -0.00476648, -0.00476648
3317, 1,0.0111798, -0.00398732, 0.00269826, -4.02324, -185.126, 0.0281984, -29.8756, 310.884, 0.813307, 0.000939381, 0.0125721, 0.0198014, -6.30687, 281.363, 0.285214, 0.000942965, 0.00979267, 0.0144412, -1.62839, 147.282, 0.262962, 0.000945446, -70.144, -36.7763, -737.169, -43.5391, -21.4072, -376.9, 0.00923951, 0.0110952, -0.0257646, 0.00671037, 0.00671037, 0.00671037
3318, 1,0.0123604, -0.0039966, 0.00271004, -7.83622, -195.756, 0.0330886, -22.14, 337.68, 0.862772, 0.000973499, 0.0137652, 0.0205732, -11.6429, 320.227, 0.283269, 0.000977789, 0.0109622, 0.0151981, -3.88573, 169.983, 0.266088, 0.000980659, -129.667, -48.4575, -782.555, -79.6716, -27.5406, -402.735, 0.00771207, 0.0120134, -0.0258974, 0.00546697, 0.00546697, 0.00546697
3319, 1,0.0130612, -0.00419561, 0.00285452, -6.15672, -194.912, 0.0347645, -24.1582, 338.258, 0.913836, 0.0010058, 0.0145609, 0.0216222, -9.25572, 317.723, 0.307259, 0.00101082, 0.0115659, 0.0159443, -2.95946, 169.105, 0.284094, 0.00101382, -132.655, -38.8853, -781.63, -82.6137, -21.4711, -403.231, 0.00790077, 0.0131046, -0.027228, 0.00549351, 0.00549351, 0.00549351
3320, 1,0.0121053, -0.00458914, 0.00312818, -15.4242, -186.691, 0.0318684, -36.3092, 313.038, 0.943785, 0.00103637, 0.0137551, 0.021968, -19.0129, 289.751, 0.338198, 0.0010415, 0.0104615, 0.0157504, -11.7143, 154.605, 0.298494, 0.00104441, -73.062, -47.0292, -749.162, -47.781, -29.7029, -386.331, 0.0106273, 0.012273, -0.0286959, 0.00757109, 0.00757109, 0.00757109
3321, 1,0.00845586, -0.0033349, 0.00226458, 2.58625, -168.309, 0.0239605, 0.652065, 253.866, 0.722082, 0.000981377, 0.00960062, 0.0162488, 4.55417, 234.259, 0.222746, 0.000983891, 0.00731861, 0.0117964, 0.799541, 123.345, 0.2127, 0.000985929, -5.44624, -33.1345, -664.198, -5.15699, -24.9345, -339.944, 0.00913808, 0.00802476, -0.0215036, 0.00692631, 0.00692631, 0.00692631
3322, 1,0.00871806, -0.00328549, 0.00221383, 11.206, -172.622, 0.0251633, 3.71428, 264.569, 0.723412, 0.00101615, 0.00984712, 0.0156521, 14.5187, 254.121, 0.191436, 0.00101878, 0.00759243, 0.0112522, 8.01521, 136.8, 0.182753, 0.00102096, -50.7367, -15.692, -695.935, -37.559, -11.8786, -360.962, 0.00707777, 0.00872499, -0.0204195, 0.00493428, 0.00493428, 0.00493428
3323, 1,0.00920796, -0.00346223, 0.00234819, 16.5314, -173.56, 0.0265047, 1.23966, 267.347, 0.767928, 0.00104989, 0.0104217, 0.0162446, 20.5863, 253.13, 0.203285, 0.001053, 0.00799923, 0.0115852, 12.6372, 135.23, 0.189385, 0.00105529, -58.1741, -6.50601, -694.71, -42.8568, -5.22611, -357.606, 0.00697686, 0.00940174, -0.0210115, 0.00468474, 0.00468474, 0.00468474
3324, 1,0.0097799, -0.00380457, 0.0026031, 1.7421, -171.333, 0.0283768, -1.65238, 256.233, 0.870845, 0.00108275, 0.0111071, 0.018561, 2.745, 237.61, 0.278543, 0.00108658, 0.00846452, 0.0134629, 0.97754, 123.571, 0.256414, 0.001089, -11.6369, -28.4851, -672.709, -8.28838, -21.0194, -341.406, 0.010359, 0.00965281, -0.0245769, 0.00778362, 0.00778362, 0.00778362
3325, 1,0.00550347, -0.00270587, 0.00183594, 23.6952, -158.419, 0.0208895, 4.86726, 245.41, 0.623012, 0.000980607, 0.00644683, 0.0109235, 29.5615, 214.196, 0.0904346, 0.000983007, 0.00456642, 0.00729143, 18.1335, 113.006, 0.0898795, 0.000984709, -7.43521, -23.9241, -611.23, -8.80231, -16.7233, -313.492, 0.00529439, 0.00498761, -0.0139422, 0.00350227, 0.00350227, 0.00350227
3326, 1,0.00572869, -0.00268888, 0.00183088, 13.4134, -155.357, 0.0222479, 7.75496, 250.111, 0.649811, 0.00101447, 0.0065963, 0.0114696, 17.3623, 216.226, 0.108053, 0.00101715, 0.00486183, 0.00792311, 9.53708, 118.106, 0.107357, 0.00101887, 2.01819, -23.0415, -627.656, -6.32571, -16.7487, -331.243, 0.00607935, 0.00543121, -0.0152442, 0.00415474, 0.00415474, 0.00415474
3327, 1,0.00617154, -0.00276983, 0.00188332, 14.8975, -158.441, 0.0233589, 8.82115, 247.072, 0.691889, 0.00104838, 0.0070703, 0.0122133, 19.2069, 215.231, 0.125776, 0.00105129, 0.0052757, 0.00855401, 10.7283, 115.464, 0.125243, 0.00105312, 2.89906, -18.1214, -630.469, -5.26437, -13.2435, -327.883, 0.00649665, 0.00594568, -0.0161983, 0.00451578, 0.00451578, 0.00451578
3328, 1,0.00633404, -0.00295892, 0.0020147, 19.0146, -163.825, 0.0236521, 1.27736, 250.267, 0.718909, 0.00108215, 0.00736828, 0.012422, 24.4079, 219.458, 0.126263, 0.00108535, 0.00530838, 0.00844564, 13.9483, 114.486, 0.121479, 0.00108734, -8.16967, -22.2164, -627.987, -9.5604, -15.6641, -318.234, 0.00622646, 0.00594809, -0.0160054, 0.00422069, 0.00422069, 0.00422069
3329, 1,0.00386981, -0.0023734, 0.00160167, 18.1628, -143.556, 0.0192534, -2.16353, 247.164, 0.58281, 0.000979315, 0.00468026, 0.0084555, 20.9483, 200.993, 0.0415061, 0.000981869, 0.00306725, 0.00529111, 15.756, 108.19, 0.0407535, 0.000983385, 15.0664, -60.0411, -558.005, 11.2718, -41.7091, -294.132, 0.00453459, 0.00280663, -0.0106799, 0.00294717, 0.00294717, 0.00294717
3330, 1,0.00380949, -0.00234979, 0.00160423, 17.2342, -141.049, 0.0203063, 4.81784, 252.392, 0.586397, 0.00101314, 0.00466761, 0.00848224, 22.6309, 194.708, 0.0439101, 0.00101603, 0.00295174, 0.00527545, 11.8676, 105.368, 0.0427988, 0.00101754, 21.2048, -34.4821, -570.847, 11.5633, -21.0365, -306.629, 0.00463058, 0.00337558, -0.0112448, 0.00294319, 0.00294319, 0.00294319
3331, 1,0.00411965, -0.00241075, 0.00164063, 14.8126, -144.13, 0.0209214, 4.09711, 253.69, 0.606901, 0.00104702, 0.00497432, 0.00900587, 19.5937, 200.165, 0.0550683, 0.00105004, 0.0032817, 0.0057497, 10.3946, 108.778, 0.0541238, 0.00105165, 17.4248, -33.8637, -584.055, 7.95373, -20.8554, -313.431, 0.00491748, 0.00371278, -0.0119811, 0.00318804, 0.00318804, 0.00318804
3332, 1,0.0048114, -0.00257273, 0.00173543, 12.209, -151.796, 0.0216917, -1.22296, 249.77, 0.660882, 0.00108115, 0.00568829, 0.0101714, 15.3567, 209.31, 0.0810402, 0.00108425, 0.00393941, 0.00673579, 9.25622, 111.714, 0.0802653, 0.00108605, 10.3183, -53.4148, -584.832, 6.18184, -36.925, -304.399, 0.00555033, 0.00384726, -0.0129547, 0.00383897, 0.00383897, 0.00383897
3333, 1,0.00291775, -0.00208688, 0.0014079, 30.2545, -129.471, 0.0176249, -6.01443, 250.886, 0.525547, 0.000978915, 0.00364176, 0.00663974, 32.9195, 177.929, 0.0053795, 0.000981723, 0.00219558, 0.003834, 27.7957, 94.2483, 0.00465524, 0.000983062, 24.5405, -57.265, -501.062, 21.6861, -38.5829, -265.848, 0.00345692, 0.00192062, -0.0082734, 0.00205881, 0.00205881, 0.00205881
3334, 1,0.00304843, -0.00210139, 0.00143049, 29.2065, -128.771, 0.019228, 1.44119, 265.115, 0.53055, 0.00101238, 0.00379807, 0.00686935, 33.13, 179.198, 0.0104741, 0.00101561, 0.00230438, 0.00402973, 25.5174, 96.8485, 0.00922585, 0.00101698, 31.6868, -50.6246, -518.657, 24.1667, -33.8319, -280.88, 0.00376661, 0.00215127, -0.00884269, 0.00227428, 0.00227428, 0.00227428
3335, 1,0.00314313, -0.00215814, 0.00146602, 20.5815, -132.028, 0.0198101, 0.736166, 265.569, 0.55158, 0.00104628, 0.00391499, 0.0071923, 24.6555, 189.979, 0.0155746, 0.00104954, 0.00237258, 0.00426489, 16.6114, 105.526, 0.0143562, 0.001051, 21.6383, -50.0269, -541.548, 13.836, -33.0504, -297.363, 0.0038547, 0.00243238, -0.00939673, 0.00231752, 0.00231752, 0.00231752
3336, 1,0.00368056, -0.00227018, 0.0015256, 21.7098, -138.702, 0.0196288, -6.06308, 253.24, 0.593792, 0.00108063, 0.00445828, 0.00803687, 24.2274, 194.785, 0.0336464, 0.0010838, 0.00290384, 0.00499302, 19.3324, 104.5, 0.0328376, 0.00108542, 16.2684, -58.8303, -541.792, 13.9325, -38.7222, -288.711, 0.00426798, 0.00263353, -0.0101226, 0.00275877, 0.00275877, 0.00275877
3337, 1,0.00226899, -0.00186491, 0.00125417, 3.40023, -117.452, 0.0156754, -2.24588, 254.876, 0.434944, 0.000978911, 0.00290427, 0.0056008, 5.13053, 177.046, 0, 0.000981448, 0.00163866, 0.00311063, 2.28654, 100.731, 0, 0.000982664, -7.4986, -74.7277, -448.913, -9.64774, -55.2131, -237.332, 0.00262886, 0.00147375, -0.00697546, 0.00138179, 0.00138179, 0.00138179
3338, 1,0.00253524, -0.00189442, 0.00128297, 25.5485, -118.67, 0.0174899, 1.58354, 273.099, 0.455067, 0.00101233, 0.00320508, 0.0059563, 28.8303, 164.588, 0.000113653, 0.00101565, 0.00186625, 0.00339437, 22.3246, 88.5895, 2.14312E-05, 0.0010169, 28.2679, -51.3745, -470.659, 22.0755, -34.6255, -253.218, 0.00319194, 0.00174909, -0.00761188, 0.00186202, 0.00186202, 0.00186202
3339, 1,0.00278864, -0.00195546, 0.00132298, 32.0486, -121.251, 0.0180694, -0.528769, 273.829, 0.478547, 0.00104614, 0.00347838, 0.0063145, 35.0524, 168.413, 0.00323301, 0.00104962, 0.00209947, 0.00367304, 29.0778, 90.4067, 0.0023498, 0.00105095, 34.1626, -54.1517, -485.251, 28.5188, -36.8805, -262.858, 0.00346392, 0.00179967, -0.00800128, 0.00209277, 0.00209277, 0.00209277
3340, 1,0.00252214, -0.00202806, 0.00136, 6.70057, -127.777, 0.0176207, -1.52171, 256.093, 0.501133, 0.00108067, 0.00320543, 0.00618926, 8.4948, 191.856, 6.53861E-07, 0.00108354, 0.00184131, 0.00348205, 5.35224, 108.871, 6.53861E-07, 0.001085, -5.56517, -70.0957, -499.906, -7.94081, -49.7395, -268.931, 0.00291308, 0.00182339, -0.00784959, 0.00155647, 0.00155647, 0.00155647
3341, 1,0.00237509, -0.00169906, 0.00113888, 31.1927, -107.129, 0.011993, -4.06758, 244.799, 0.319468, 0.000979499, 0.00294676, 0.00530971, 32.1705, 143.491, 0, 0.000981956, 0.00180393, 0.00304578, 30.2444, 73.6173, 0, 0.000983071, 30.7851, -63.0276, -398.229, 29.3408, -44.436, -205.757, 0.00290941, 0.0011713, -0.00640904, 0.0017787, 0.0017787, 0.0017787
3342, 1,0.00210015, -0.00173276, 0.00116888, 7.80328, -108.949, 0.0133295, 3.84807, 268.6, 0.314856, 0.00101301, 0.00270147, 0.00523106, 10.0189, 157.841, 0, 0.00101577, 0.0015023, 0.00290541, 5.87211, 87.4772, 0, 0.00101693, 8.34413, -61.1258, -420.741, 4.37755, -44.2468, -222.562, 0.00265971, 0.00141003, -0.00663094, 0.00146803, 0.00146803, 0.00146803
3343, 1,0.00208781, -0.0017836, 0.00120142, 3.16957, -112.181, 0.0140743, 5.48772, 268.831, 0.337004, 0.00104694, 0.00269759, 0.00534003, 5.07607, 164.518, 0, 0.00104977, 0.00149457, 0.00295878, 2.2065, 92.0692, 0, 0.00105101, 2.82728, -60.7116, -435.668, -1.39598, -43.2886, -231.523, 0.00265519, 0.00152856, -0.00685328, 0.0014252, 0.0014252, 0.0014252
3344, 1,0.00268747, -0.00186249, 0.0012455, 33.5459, -117.231, 0.0140841, -3.95185, 248.141, 0.39316, 0.00108118, 0.00331273, 0.00602557, 34.3056, 162.985, 0.000574152, 0.0010839, 0.00206243, 0.00354402, 32.8027, 86.1416, 0.000278353, 0.00108526, 32.8401, -66.8437, -454.951, 31.8775, -46.837, -243.465, 0.00328663, 0.00142965, -0.00736177, 0.00204894, 0.00204894, 0.00204894
3345, 1,0.00183198, -0.00155623, 0.00104122, 0.961306, -98.0455, 0.00730538, 11.5934, 233.523, 0.127917, 0.000979787, 0.0023541, 0.00452608, 1.90018, 145.122, 0, 0.00098148, 0.00131295, 0.00245475, 0.384756, 80.879, 0, 0.000982503, -10.4735, -63.0734, -361.82, -11.2764, -44.67, -186.69, 0.00206145, 0.00112223, -0.00553854, 0.00103291, 0.00103291, 0.00103291
3346, 1,0.00191459, -0.00159469, 0.00107083, 11.0284, -100.277, 0.00763832, 2.16188, 235.741, 0.151735, 0.00101368, 0.00245496, 0.00472739, 12.2584, 139.644, 0, 0.00101562, 0.00137596, 0.00259885, 9.86354, 74.4609, 0, 0.00101669, 12.1475, -55.7118, -375.369, 9.64829, -38.8302, -194.201, 0.00245341, 0.00118122, -0.00590057, 0.00137426, 0.00137426, 0.00137426
3347, 1,0.00207288, -0.00164587, 0.00110234, 13.8981, -103.57, 0.00834954, 2.34545, 238.382, 0.176072, 0.00104779, 0.0026304, 0.00500404, 15.1545, 146.97, 0, 0.00104978, 0.00151573, 0.00280714, 12.6727, 79.5851, 0, 0.00105093, 13.2061, -58.7887, -395.327, 10.8649, -41.7201, -207.9, 0.0025978, 0.00123619, -0.00621879, 0.00148729, 0.00148729, 0.00148729
3348, 1,0.00206425, -0.00170746, 0.00113928, -1.51379, -107.722, 0.00892567, 9.28685, 237.224, 0.188613, 0.00108205, 0.00263097, 0.00510273, -0.697419, 166.127, 0, 0.00108379, 0.00149957, 0.00283407, -1.98722, 95.4875, 0, 0.00108504, -13.9286, -71.3523, -413.1, -14.7292, -51.8139, -219.919, 0.00232902, 0.0013053, -0.00632998, 0.00119998, 0.00119998, 0.00119998
3349, 1,0.00164734, -0.00143349, 0.000959256, 6.90077, -90.2039, 0.00447123, 40.3646, 202.55, 0.0157743, 0.000980269, 0.00212209, 0.00414002, 7.25498, 124.751, 0, 0.000981536, 0.00117384, 0.00224033, 6.59587, 65.5751, 0, 0.000982479, 6.7101, -57.7387, -323.225, 6.34282, -39.9398, -163.128, 0.00210497, 0.000866142, -0.00499542, 0.00116537, 0.00116537, 0.00116537
3350, 1,0.00173206, -0.00146905, 0.000982983, 6.00195, -92.3734, 0.00546973, 64.5462, 190.164, 0.0387316, 0.00101438, 0.00222662, 0.00431457, 6.93051, 131.758, 0, 0.00101541, 0.00123927, 0.00235858, 5.20715, 71.3821, 0, 0.0010164, 4.40609, -56.1305, -343.548, 3.06228, -39.4178, -177.791, 0.00216618, 0.00100291, -0.00530707, 0.00118709, 0.00118709, 0.00118709
3351, 1,0.00173517, -0.00151593, 0.00101193, 2.00557, -95.3639, 0.00563251, 56.2374, 196.734, 0.0476466, 0.00104833, 0.00223873, 0.00444039, 2.70772, 138.24, 0, 0.00104941, 0.00123381, 0.00242829, 1.48705, 75.878, 0, 0.00105048, 1.16974, -57.6387, -358.251, -0.138768, -40.5961, -186.899, 0.002204, 0.00107454, -0.0055217, 0.00119438, 0.00119438, 0.00119438
3352, 1,0.00194942, -0.00157576, 0.00105154, 10.1923, -99.3158, 0.00539577, 29.567, 215.196, 0.0515439, 0.00108235, 0.00246973, 0.00477353, 10.4676, 142.691, 0, 0.00108374, 0.00142923, 0.00268453, 9.92309, 77.3984, 0, 0.00108489, 9.28801, -62.8756, -374.485, 9.09775, -44.129, -197.164, 0.00244831, 0.00105838, -0.00582205, 0.00141628, 0.00141628, 0.00141628
3353, 1,0.00146287, -0.00131373, 0.000879176, 1.53006, -82.6765, 0.00349644, 28.7667, 183.31, 0, 0.000980208, 0.00190182, 0.00374203, 2.1673, 116.914, 0, 0.000981265, 0.00102846, 0.00200007, 1.26565, 62.6392, 0, 0.000982129, -1.93591, -56.3831, -292.423, -2.07066, -39.1415, -146.705, 0.00179931, 0.000756094, -0.00445254, 0.000941772, 0.000941772, 0.000941772
3354, 1,0.00153827, -0.00134785, 0.000900982, 4.07686, -84.7992, 0.00403377, 67.7154, 165.186, 0, 0.00101462, 0.00198649, 0.00391082, 4.55327, 119.986, 0, 0.00101537, 0.00109101, 0.00212301, 3.64788, 64.3967, 0, 0.00101628, 4.05618, -54.5787, -309.436, 3.3918, -38.2537, -158.328, 0.00197407, 0.000834521, -0.00475556, 0.00108468, 0.00108468, 0.00108468
3355, 1,0.00162621, -0.00139292, 0.000929175, 5.18643, -87.6635, 0.00411375, 69.3224, 168.194, 0, 0.0010488, 0.00208743, 0.00409814, 5.58765, 125.173, 0, 0.00104953, 0.00116527, 0.00225189, 4.80823, 67.6763, 0, 0.00105051, 4.6292, -55.7911, -324.356, 4.08403, -39.2206, -167.892, 0.0020703, 0.000892693, -0.0049941, 0.00115342, 0.00115342, 0.00115342
3356, 1,0.00166574, -0.00144942, 0.000968336, -0.737884, -91.308, 0.00374007, 30.9272, 196.146, 0, 0.00108262, 0.00214738, 0.0042614, -0.152238, 135.892, 0, 0.00108368, 0.0011876, 0.00233994, -0.986693, 75.8744, 0, 0.00108474, -4.85388, -63.9953, -338.828, -4.81818, -45.7697, -177.035, 0.00204018, 0.00090506, -0.00515029, 0.00109594, 0.00109594, 0.00109594
3357, 1,0.00131902, -0.00119606, 0.000800843, 2.0976, -75.2712, 0.00287844, 17.4601, 159.26, 0, 0.000980087, 0.00171858, 0.00340759, 2.6467, 104.872, 0, 0.000980953, 0.000924289, 0.00182316, 1.89733, 55.4652, 0, 0.000981739, 1.30188, -53.0806, -262.838, 1.27643, -36.6115, -131.061, 0.00167851, 0.00062406, -0.00400432, 0.00089994, 0.00089994, 0.00089994
3358, 1,0.00138437, -0.00122789, 0.000820827, 2.53466, -77.2981, 0.00315512, 32.7096, 156.407, 0, 0.00101431, 0.00179271, 0.0035565, 2.98401, 109.562, 0, 0.00101508, 0.000979335, 0.00193014, 2.3074, 58.82, 0, 0.00101592, 1.86253, -51.4752, -279.075, 1.56131, -35.8726, -142.149, 0.00176372, 0.000729645, -0.00427119, 0.000958324, 0.000958324, 0.000958324
3359, 1,0.00144318, -0.00126986, 0.000848139, 1.65709, -79.9672, 0.00320395, 29.9407, 163.33, 0, 0.00104843, 0.00186259, 0.00372172, 2.04396, 115.286, 0, 0.00104925, 0.0010273, 0.00204263, 1.51775, 62.7781, 0, 0.00105015, 1.20761, -53.517, -293.548, 1.04094, -37.7228, -151.652, 0.00184163, 0.000781192, -0.00449351, 0.00101132, 0.00101132, 0.00101132
3360, 1,0.0015322, -0.00132149, 0.000883419, 2.24869, -83.27, 0.00311701, 13.4129, 180.08, 0, 0.00108247, 0.00197181, 0.00392647, 2.83986, 120.846, 0, 0.00108352, 0.00109745, 0.00217602, 2.1836, 66.1156, 0, 0.00108448, 1.25947, -57.6546, -306.142, 1.44575, -40.3649, -159.428, 0.00193174, 0.000794606, -0.00468724, 0.00107395, 0.00107395, 0.00107395
3361, 1,0.00118544, -0.00107952, 0.000723294, 1.41133, -67.9257, 0.00237642, 9.28207, 138.364, 0, 0.000979926, 0.00154649, 0.00306475, 1.98897, 95.0208, 0, 0.000980615, 0.000829518, 0.00163553, 1.23771, 50.4695, 0, 0.000981325, -0.0434505, -50.9042, -234.115, -0.0280675, -35.2282, -116.152, 0.00149498, 0.000503421, -0.00354029, 0.000793738, 0.000793738, 0.000793738
3362, 1,0.00123789, -0.00110875, 0.000741757, 1.3635, -69.8115, 0.00258883, 18.2611, 139.856, 0, 0.00101412, 0.00160676, 0.00320168, 1.79712, 99.3533, 0, 0.00101478, 0.000873389, 0.0017348, 1.23952, 53.5234, 0, 0.00101554, 0.868806, -49.7208, -249.208, 0.740806, -34.9269, -126.384, 0.0015819, 0.000598058, -0.00379213, 0.000857535, 0.000857535, 0.000857535
3363, 1,0.00129932, -0.0011467, 0.000766527, 1.15035, -72.2344, 0.00266985, 16.8688, 146.971, 0, 0.00104825, 0.00167954, 0.00335851, 1.56668, 104.366, 0, 0.00104897, 0.000924078, 0.00184266, 1.12022, 56.9296, 0, 0.00104978, 0.599583, -51.3769, -262.321, 0.613325, -36.4032, -134.999, 0.0016564, 0.000647768, -0.00399766, 0.000909757, 0.000909757, 0.000909757
3364, 1,0.00138398, -0.00119305, 0.000798093, 1.07036, -75.1796, 0.00266557, 7.69994, 159.072, 0, 0.00108233, 0.00178134, 0.00354699, 1.65342, 110.594, 0, 0.00108318, 0.00099114, 0.00196714, 0.894047, 61.2259, 0, 0.00108405, -0.904294, -56.3606, -274.517, -0.668316, -39.9681, -143.041, 0.00172404, 0.000651231, -0.00416981, 0.000951726, 0.000951726, 0.000951726
3365, 1,0.00105521, -0.000963277, 0.000645953, 1.42636, -60.597, 0.00201393, 5.40283, 120.52, 0, 0.000979734, 0.001378, 0.00272797, 1.99615, 84.4566, 0, 0.000980307, 0.000737509, 0.001453, 1.25361, 44.7586, 0, 0.000980939, 0.0049046, -47.8292, -205.545, 0.0317533, -33.0405, -101.267, 0.00132963, 0.000393015, -0.00309311, 0.000705058, 0.000705058, 0.000705058
3366, 1,0.00110364, -0.000989244, 0.000662193, 1.13045, -62.2941, 0.00217113, 10.0648, 124.328, 0, 0.00101389, 0.00143313, 0.002853, 1.57526, 88.6627, 0, 0.00101448, 0.000778772, 0.00154481, 1.04681, 47.7826, 0, 0.00101515, 0.394833, -46.6726, -219.71, 0.338047, -32.7764, -110.909, 0.00140347, 0.000486571, -0.00332874, 0.000758552, 0.000758552, 0.000758552
3367, 1,0.0011632, -0.00102294, 0.000684257, 0.933682, -64.4502, 0.00225931, 9.30546, 131.053, 0, 0.00104802, 0.00150289, 0.00299922, 1.37961, 93.4517, 0, 0.00104866, 0.00082837, 0.00164734, 0.903074, 51.1444, 0, 0.00104938, -0.106095, -48.3931, -231.856, -0.0159625, -34.3727, -119.044, 0.0014693, 0.000531778, -0.00351746, 0.000805041, 0.000805041, 0.000805041
3368, 1,0.00123944, -0.00106363, 0.00071191, 1.20694, -67.0305, 0.00230482, 4.32531, 140.69, 0, 0.00108215, 0.00159418, 0.00317343, 1.77516, 98.7365, 0, 0.00108288, 0.000889074, 0.00176509, 1.02919, 54.7613, 0, 0.00108366, -0.605047, -52.8833, -242.721, -0.352282, -37.4987, -126.433, 0.00154329, 0.000529453, -0.00367486, 0.000856237, 0.000856237, 0.000856237
3369, 1,0.000926646, -0.000847252, 0.000568778, 1.44462, -53.2763, 0.00172653, 3.61014, 104.581, 0, 0.00097952, 0.00121138, 0.00239186, 2.01127, 73.9026, 0, 0.000980008, 0.000646764, 0.00127043, 1.2522, 39.0597, 0, 0.000980562, -0.0311153, -44.4344, -177.242, -0.0099905, -30.6066, -86.5625, 0.00116262, 0.000290829, -0.00265266, 0.000614376, 0.000614376, 0.000614376
3370, 1,0.000970713, -0.000869659, 0.000582591, 1.02355, -54.761, 0.00183426, 5.31113, 109.264, 0, 0.00101367, 0.0012609, 0.00250641, 1.45746, 77.8949, 0, 0.00101418, 0.000684969, 0.00135654, 0.938494, 41.9894, 0, 0.00101478, 0.198158, -43.231, -190.652, 0.168406, -30.3358, -95.8008, 0.00122968, 0.000382627, -0.00287628, 0.000663664, 0.000663664, 0.000663664
3371, 1,0.00102532, -0.000898864, 0.00060164, 0.852937, -56.6378, 0.00191862, 4.63351, 115.689, 0, 0.0010478, 0.00132424, 0.00263971, 1.27903, 82.2537, 0, 0.00104837, 0.000730953, 0.00145197, 0.812418, 45.1034, 0, 0.001049, -0.221213, -44.8264, -201.713, -0.100259, -31.8542, -103.356, 0.0012903, 0.000423885, -0.00304887, 0.000707905, 0.000707905, 0.000707905
3372, 1,0.00109454, -0.000934094, 0.000625626, 1.13074, -58.8685, 0.00200311, 2.61874, 123.911, 0, 0.00108193, 0.00140672, 0.0027975, 1.69006, 87.0464, 0, 0.00108258, 0.000786334, 0.00156036, 0.927407, 48.4772, 0, 0.00108326, -0.710366, -49.199, -211.23, -0.459558, -34.9048, -110.067, 0.00135669, 0.000415643, -0.00318476, 0.000754726, 0.000754726, 0.000754726
3373, 1,0.000800179, -0.000731473, 0.000491845, 1.56528, -45.9625, 0.00147326, 3.28411, 88.8767, 0, 0.000979313, 0.00104717, 0.00205799, 2.14128, 63.2985, 0, 0.000979719, 0.000557767, 0.00108944, 1.33565, 33.3119, 0, 0.000980196, 0.00591618, -40.6531, -149.248, 0.0159351, -27.8644, -72.0872, 0.000996329, 0.000195925, -0.0022194, 0.000524321, 0.000524321, 0.000524321
3374, 1,0.000839282, -0.00074998, 0.000502945, 1.04521, -47.2131, 0.00154741, 2.94896, 94.1082, 0, 0.00101345, 0.00109026, 0.00216137, 1.46955, 67.0324, 0, 0.0010139, 0.000592375, 0.00116956, 0.936991, 36.117, 0, 0.0010144, 0.178365, -39.3518, -161.924, 0.157005, -27.5431, -80.965, 0.00105812, 0.000285957, -0.00243179, 0.00057086, 0.00057086, 0.00057086
3375, 1,0.000888395, -0.000774609, 0.000518882, 0.829514, -48.8052, 0.00162016, 1.98186, 100.292, 0, 0.00104758, 0.00114656, 0.00228124, 1.24296, 71.013, 0, 0.00104807, 0.000634355, 0.00125757, 0.763744, 39.0377, 0, 0.00104862, -0.269385, -40.8214, -171.948, -0.13743, -28.9873, -87.9884, 0.00111211, 0.000324011, -0.0025884, 0.000611427, 0.000611427, 0.000611427
3376, 1,0.000951082, -0.000804626, 0.000539414, 1.15358, -50.7023, 0.00174231, 2.51584, 107.5, 0, 0.00108172, 0.00122094, 0.00242342, 1.71485, 75.2575, 0, 0.00108228, 0.000684705, 0.00135694, 0.904745, 42.0987, 0, 0.00108287, -0.650975, -45.0283, -180.093, -0.408089, -31.9086, -93.9793, 0.00117209, 0.000310308, -0.00270353, 0.000655148, 0.000655148, 0.000655148
3377, 1,0.000675873, -0.000616066, 0.000415294, 1.78384, -38.662, 0.00122902, 3.51136, 73.0321, 0, 0.000979103, 0.000885536, 0.00172667, 2.3884, 52.6857, 0, 0.000979427, 0.000470497, 0.000910151, 1.49574, 27.557, 0, 0.000979826, 0.0590053, -36.5609, -121.555, 0.055949, -24.8829, -57.8442, 0.000830221, 0.000106914, -0.00179207, 0.000434434, 0.000434434, 0.000434434
3378, 1,0.000709194, -0.000630307, 0.000423377, 1.15176, -39.6571, 0.00128956, 2.37456, 78.468, 0, 0.00101322, 0.000921165, 0.00181769, 1.57935, 56.1368, 0, 0.00101358, 0.000500896, 0.000983631, 1.0051, 30.2233, 0, 0.00101401, 0.197631, -35.1318, -133.476, 0.177331, -24.4869, -66.3603, 0.000886854, 0.00019526, -0.00199303, 0.000478381, 0.000478381, 0.000478381
3379, 1,0.000752192, -0.000650301, 0.000436124, 0.876204, -40.9611, 0.00136703, 1.78134, 84.4202, 0, 0.00104733, 0.000969737, 0.00192361, 1.28628, 59.7267, 0, 0.00104775, 0.000538284, 0.00106378, 0.770613, 32.9384, 0, 0.00104821, -0.250054, -36.4566, -142.473, -0.114687, -25.8387, -72.8617, 0.000934648, 0.000230199, -0.00213399, 0.000515716, 0.000515716, 0.000515716
3380, 1,0.000809315, -0.00067544, 0.000453489, 1.24084, -42.5435, 0.00148546, 2.72948, 90.9096, 0, 0.00108148, 0.00103724, 0.00205137, 1.82202, 63.4808, 0, 0.00108196, 0.000584283, 0.0011547, 0.921841, 35.7345, 0, 0.00108245, -0.611325, -40.5083, -149.323, -0.379242, -28.6418, -78.1823, 0.000987301, 0.000211786, -0.00222912, 0.00055535, 0.00055535, 0.00055535
3381, 1,0.000555127, -0.000501316, 0.000339422, 2.16493, -31.3888, 0.000992947, 4.20107, 57.0826, 0, 0.000978902, 0.000728146, 0.00139952, 2.83074, 42.0678, 0, 0.000979141, 0.000386143, 0.000733737, 1.78694, 21.7998, 0, 0.000979463, 0.113692, -32.1988, -94.1184, 0.0967693, -21.6962, -43.8001, 0.000664062, 2.30419E-05, -0.00136974, 0.00034452, 0.00034452, 0.00034452
3382, 1,0.000581001, -0.00051082, 0.000344074, 1.36478, -32.1025, 0.00104217, 2.55624, 62.5138, 0, 0.001013, 0.000754322, 0.00147597, 1.81657, 45.213, 0, 0.00101328, 0.000410957, 0.000799064, 1.15842, 24.3125, 0, 0.00101363, 0.234357, -30.6303, -105.243, 0.21135, -21.2158, -51.9329, 0.000715516, 0.000109468, -0.00155864, 0.000385921, 0.000385921, 0.000385921
3383, 1,0.000617279, -0.000526109, 0.000353538, 1.00316, -33.1148, 0.00111616, 2.00605, 68.1975, 0, 0.00104712, 0.00079451, 0.00156733, 1.42766, 48.4188, 0, 0.00104745, 0.000443152, 0.000870792, 0.835477, 26.8282, 0, 0.00104782, -0.223081, -31.7985, -113.235, -0.0884321, -22.4651, -57.931, 0.000757029, 0.000141548, -0.00168423, 0.000419926, 0.000419926, 0.000419926
3384, 1,0.000669589, -0.000546793, 0.000368114, 1.43049, -34.4053, 0.00123012, 3.14049, 74.1663, 0, 0.00108125, 0.000856239, 0.00168209, 2.06263, 51.7013, 0, 0.00108165, 0.000485173, 0.000953878, 1.00451, 29.3697, 0, 0.00108204, -0.558028, -35.6891, -118.857, -0.338112, -25.1465, -62.6245, 0.000802771, 0.000118848, -0.00176051, 0.000455821, 0.000455821, 0.000455821
3385, 1,0.0004408, -0.000387849, 0.00026486, 2.83704, -24.1741, 0.000770819, 5.55304, 41.1168, 0, 0.000978687, 0.000578402, 0.00107996, 3.62253, 31.4463, 0, 0.000978841, 0.000307098, 0.000562599, 2.31629, 16.0413, 0, 0.000979085, 0.166982, -27.618, -66.8878, 0.136451, -18.3446, -29.9158, 0.000497817, -5.66545E-05, -0.000951451, 0.000254563, 0.000254563, 0.000254563
3386, 1,0.00045638, -0.000391909, 0.000265423, 1.75548, -24.5688, 0.00080261, 3.21899, 46.4025, 0, 0.00101279, 0.000591771, 0.00113821, 2.26994, 34.2663, 0, 0.00101299, 0.000323907, 0.000617178, 1.4526, 18.389, 0, 0.00101325, 0.272685, -25.8945, -77.177, 0.244646, -17.7657, -37.646, 0.000543854, 2.77983E-05, -0.00112768, 0.000293252, 0.000293252, 0.000293252
3387, 1,0.000484659, -0.000402366, 0.000271455, 1.25475, -25.283, 0.00086801, 2.49671, 51.7942, 0, 0.0010469, 0.000622209, 0.0012137, 1.72731, 37.089, 0, 0.00104715, 0.000349645, 0.000679289, 0.987514, 20.7064, 0, 0.00104743, -0.189866, -26.8986, -84.1786, -0.0587882, -18.9062, -43.1541, 0.000579209, 5.71294E-05, -0.00123815, 0.000324036, 0.000324036, 0.000324036
3388, 1,0.000533178, -0.000419218, 0.000283829, 1.781, -26.3136, 0.000980606, 3.90038, 57.3372, 0, 0.00108102, 0.000679745, 0.0013173, 2.52164, 39.9232, 0, 0.00108133, 0.000388125, 0.000755148, 1.18541, 23.0089, 0, 0.00108162, -0.50626, -30.6233, -88.6401, -0.299368, -21.4641, -47.2633, 0.00061824, 3.06039E-05, -0.00129662, 0.000356313, 0.000356313, 0.000356313
3389, 1,0.000340601, -0.000277234, 0.00019318, 4.15302, -17.0939, 0.000581143, 8.40487, 25.1735, 0, 0.000978481, 0.000445381, 0.000776997, 5.18214, 20.8171, 0, 0.00097855, 0.000239881, 0.000403222, 3.38124, 10.2787, 0, 0.000978718, 0.218531, -22.8606, -39.8092, 0.174413, -14.8611, -16.1494, 0.000331421, -0.000133029, -0.000536206, 0.000164511, 0.000164511, 0.000164511
3390, 1,0.000339794, -0.000274615, 0.000188466, 2.52878, -17.1069, 0.000579165, 4.68693, 30.2264, 0, 0.00101259, 0.000438952, 0.000809863, 3.19048, 23.2961, 0, 0.0010127, 0.000243276, 0.000441511, 2.0484, 12.4524, 0, 0.00101288, 0.313185, -20.9724, -49.2291, 0.277851, -14.1741, -23.461, 0.000371875, -5.06558E-05, -0.000699243, 0.000200379, 0.000200379, 0.000200379
3391, 1,0.000357136, -0.000279965, 0.000190762, 1.76148, -17.5092, 0.000629538, 3.51854, 35.301, 0, 0.00104668, 0.000456514, 0.000866366, 2.3582, 25.7369, 0, 0.00104684, 0.000259695, 0.000491166, 1.31526, 14.5725, 0, 0.00104703, -0.154519, -21.8041, -55.2522, -0.0294403, -15.1986, -28.4895, 0.000401091, -2.39309E-05, -0.000794769, 0.000227958, 0.000227958, 0.000227958
3392, 1,0.000403237, -0.000294121, 0.000202049, 2.44801, -18.336, 0.00074415, 5.32703, 40.4597, 0, 0.00108079, 0.000512303, 0.00096151, 3.42225, 28.1424, 0, 0.001081, 0.000294948, 0.000560289, 1.55432, 16.6482, 0, 0.00108121, -0.45376, -25.3595, -58.6138, -0.260307, -17.6321, -32.0522, 0.000433688, -5.39157E-05, -0.000836392, 0.000256821, 0.000256821, 0.000256821
3393, 1,0.000279567, -0.000174432, 0.000129344, 7.27685, -10.3899, 0.000492577, 15.9975, 9.26901, 0, 0.000978299, 0.00035859, 0.000520129, 8.885, 10.1787, 0, 0.000978284, 0.000205336, 0.000276438, 5.9535, 4.5108, 0, 0.000978374, 0.268692, -17.9738, -12.8308, 0.210835, -11.2827, -2.46057, 0.000164855, -0.000207001, -0.000123044, 7.43487E-05, 7.43487E-05, 7.43487E-05
3394, 1,0.000246904, -0.000162645, 0.000116899, 4.41014, -9.89583, 0.000409314, 8.70749, 14.0191, 0, 0.00101238, 0.000315104, 0.000510154, 5.47369, 12.3014, 0, 0.00101241, 0.000181174, 0.000284176, 3.50477, 6.50171, 0, 0.00101251, 0.355617, -15.9115, -21.3484, 0.310672, -10.4782, -9.33757, 0.000199559, -0.000126805, -0.000272374, 0.000107283, 0.000107283, 0.000107283
3395, 1,0.000244326, -0.00016226, 0.000114815, 2.97502, -9.95427, 0.000423584, 6.13829, 18.7459, 0, 0.00104648, 0.000310331, 0.000538215, 3.9302, 14.361, 0, 0.00104655, 0.000179668, 0.000312785, 2.11464, 8.42547, 0, 0.00104665, -0.116183, -16.5656, -26.4012, 0.000344532, -11.3817, -13.8951, 0.000222668, -0.000102604, -0.000353084, 0.000131689, 0.000131689, 0.000131689
3396, 1,0.000289788, -0.00017644, 0.000127722, 3.91498, -10.7064, 0.000543236, 8.50235, 23.5258, 0, 0.00108056, 0.00036861, 0.000629369, 5.47341, 16.356, 0, 0.00108069, 0.000211197, 0.000374819, 2.37868, 10.2857, 0, 0.0010808, -0.40168, -19.948, -28.7183, -0.222221, -13.6898, -16.9449, 0.000249047, -0.0001357, -0.000378718, 0.000157287, 0.000157287, 0.000157287
3397, 1,0.000337127, -9.77555E-05, 9.16609E-05, 16.0559, -4.95368, 0.000708436, 38.088, -6.58257, 0, 0.0009781, 0.000416769, 0.000408092, 19.4954, -0.469035, 0, 0.000978003, 0.000261881, 0.00024066, 12.8888, -1.26285, 0, 0.000978016, 0.316522, -13.0047, 14.0953, 0.245216, -7.64618, 11.1895, -1.8977E-06, -0.000279456, 0.000288939, -1.59397E-05, -1.59397E-05, -1.59397E-05
3398, 1,0.000249461, -7.56685E-05, 7.03814E-05, 10.8011, -3.88593, 0.00048756, 24.5173, -2.20289, 0, 0.00101217, 0.00031199, 0.000330833, 13.4742, 1.28078, 0, 0.00101212, 0.000188891, 0.000196456, 8.2562, 0.535774, 0, 0.00101213, 0.400183, -10.7602, 6.51769, 0.343328, -6.71596, 4.76531, 2.68867E-05, -0.000201579, 0.000153899, 1.39526E-05, 1.39526E-05, 1.39526E-05
3399, 1,0.000198702, -6.99922E-05, 6.43664E-05, 7.36552, -3.60883, 0.000383013, 16.6282, 2.13807, 0, 0.00104624, 0.000256123, 0.000301684, 9.86533, 2.95965, 0, 0.00104623, 0.000142557, 0.000177122, 4.9318, 2.26391, 0, 0.00104624, -0.0750016, -11.2331, 2.42913, 0.0304257, -7.49446, 0.672292, 4.39127E-05, -0.000179858, 8.79276E-05, 3.5207E-05, 3.5207E-05, 3.5207E-05
3400, 1,0.000237051, -8.91437E-05, 8.38272E-05, 8.27096, -4.51044, 0.000473893, 17.9569, 6.52627, 0, 0.00108031, 0.000314251, 0.000386433, 11.7715, 4.56212, 0, 0.00108035, 0.000160894, 0.000222739, 4.79583, 3.91982, 0, 0.00108036, -0.350291, -14.4413, 1.10523, -0.185178, -9.67831, -1.89596, 6.4281E-05, -0.000215776, 7.74932E-05, 5.7688E-05, 5.7688E-05, 5.7688E-05
3401, 1,0.000578637, 0.000143995, 0.000111075, 33.723, 8.41847, 0.00126347, 76.2386, -22.3707, 0, 0.000977919, 0.000718981, 0.000539935, 41.88, -11.1265, 0, 0.000977741, 0.00044075, 0.000327113, 25.7478, -7.04291, 0, 0.000977676, 0.361548, -8.00027, 41.0182, 0.277283, -3.98867, 24.8401, -0.000168856, -0.000351289, 0.000700663, -0.00010637, -0.00010637, -0.00010637
3402, 1,0.00047924, 0.000132424, 9.72073E-05, 28.0692, 7.93953, 0.00102898, 62.2789, -18.4316, 0, 0.00101197, 0.000609762, 0.000452031, 35.8686, -9.76716, 0, 0.00101183, 0.000350208, 0.00026212, 20.3829, -5.4465, 0, 0.00101176, 0.446203, -5.56717, 34.4224, 0.375398, -2.92536, 18.8895, -0.000146176, -0.000275918, 0.000580569, -7.96394E-05, -7.96394E-05, -7.96394E-05
3403, 1,0.000399688, 0.000132889, 9.66042E-05, 23.412, 8.03144, 0.00084926, 51.0086, -14.5218, 0, 0.00104602, 0.000531338, 0.000394188, 31.3749, -8.46906, 0, 0.00104592, 0.000269303, 0.000205097, 15.522, -3.91361, 0, 0.00104584, -0.0309904, -5.85695, 31.2951, 0.0608118, -3.57628, 15.2563, -0.000135205, -0.000256677, 0.00052931, -6.15116E-05, -6.15116E-05, -6.15116E-05
3404, 1,0.000393538, 0.000151959, 0.000113824, 22.36, 9.01108, 0.000807081, 46.2688, -10.5487, 0, 0.00108008, 0.000545046, 0.000428488, 31.3619, -7.24122, 0, 0.00108002, 0.00024256, 0.000202542, 13.3698, -2.45084, 0, 0.00107994, -0.300129, -8.89173, 30.9155, -0.149645, -5.63819, 13.1404, -0.000120652, -0.000295165, 0.000533339, -4.20098E-05, -4.20098E-05, -4.20098E-05
3405, 1,0.000914929, 0.000240868, 0.000168913, 55.8388, 14.8631, 0.00194024, 120.008, -38.0863, 0, 0.000977746, 0.0011529, 0.00080332, 70.4629, -21.7941, 0, 0.000977487, 0.00067903, 0.00047287, 41.3892, -12.8298, 0, 0.000977345, 0.403013, -3.008, 67.9874, 0.306377, -0.347294, 38.5304, -0.000336043, -0.000423395, 0.00111306, -0.000196963, -0.000196963, -0.000196963
3406, 1,0.000834904, 0.000240733, 0.000164975, 51.28, 14.9944, 0.00173897, 107.954, -34.662, 0, 0.00101178, 0.00107354, 0.000738842, 66.1031, -20.8439, 0, 0.00101155, 0.000597974, 0.000414004, 36.5995, -11.4464, 0, 0.0010114, 0.493229, -0.381133, 62.4197, 0.40668, 0.855499, 33.0771, -0.000319664, -0.000350764, 0.00100864, -0.000173517, -0.000173517, -0.000173517
3407, 1,0.00076921, 0.000247978, 0.00016967, 47.4285, 15.4721, 0.00157089, 97.5169, -31.2339, 0, 0.0010458, 0.00101577, 0.000695487, 62.789, -19.9269, 0, 0.00104561, 0.000524011, 0.00036079, 32.1767, -10.1084, 0, 0.00104544, 0.0151764, -0.487788, 60.2533, 0.0908928, 0.333376, 29.9008, -0.000314727, -0.000334043, 0.000972116, -0.000158499, -0.000158499, -0.000158499
3408, 1,0.000745735, 0.000266254, 0.000184617, 45.6398, 16.4712, 0.00147822, 90.5942, -27.7078, 0, 0.00107984, 0.00101156, 0.000706061, 62.0646, -19.0566, 0, 0.00107968, 0.00048039, 0.000338397, 29.2666, -8.82813, 0, 0.00107951, -0.251103, -3.3512, 60.772, -0.115587, -1.60996, 28.2099, -0.000305789, -0.000374891, 0.00098992, -0.000141833, -0.000141833, -0.000141833
3409, 1,0.00128167, 0.000349686, 0.00023868, 79.3434, 21.8689, 0.00265088, 165.276, -53.7213, 0, 0.000977566, 0.00162832, 0.00110804, 100.948, -32.4733, 0, 0.000977229, 0.000937288, 0.000638489, 57.9396, -18.625, 0, 0.00097701, 0.441526, 1.92557, 95.0527, 0.333281, 3.24174, 52.2998, -0.000503464, -0.000496668, 0.00152703, -0.000287723, -0.000287723, -0.000287723
3410, 1,0.00122231, 0.000357822, 0.000241475, 75.9696, 22.4681, 0.00248612, 155.362, -50.8877, 0, 0.00101157, 0.00157756, 0.00106547, 98.2179, -31.9504, 0, 0.00101126, 0.000869192, 0.000589096, 53.9065, -17.4645, 0, 0.00101102, 0.539749, 4.74863, 90.5627, 0.435794, 4.58805, 47.3696, -0.00049362, -0.00042706, 0.00143911, -0.000267717, -0.000267717, -0.000267717
3411, 1,0.00117318, 0.000370519, 0.000250073, 73.0851, 23.2738, 0.00234268, 146.459, -47.9987, 0, 0.00104558, 0.00154167, 0.0010378, 96.1864, -31.4163, 0, 0.0010453, 0.000806561, 0.000544051, 50.1453, -16.3224, 0, 0.00104504, 0.0638392, 4.82466, 89.3604, 0.121167, 4.19593, 44.6502, -0.000494685, -0.000412934, 0.0014174, -0.000255775, -0.000255775, -0.000255775
3412, 1,0.00115141, 0.000390502, 0.000265312, 71.5125, 24.415, 0.00224679, 139.681, -44.9539, 0, 0.00107959, 0.00154055, 0.00104589, 95.8018, -30.8855, 0, 0.00107934, 0.00076366, 0.000519553, 47.3529, -15.2131, 0, 0.00107907, -0.204474, 2.1279, 90.733, -0.0840802, 2.36571, 43.3578, -0.000491181, -0.000455971, 0.00144833, -0.000241822, -0.000241822, -0.000241822
3413, 1,0.00165993, 0.000462522, 0.000312446, 103.371, 29.063, 0.00337241, 210.985, -69.2825, 0, 0.000977401, 0.00211903, 0.00142786, 132.13, -43.1624, 0, 0.000976986, 0.00120346, 0.000811892, 74.8482, -24.4266, 0, 0.00097669, 0.472957, 6.75182, 122.262, 0.353875, 6.73993, 66.1859, -0.000671183, -0.000572003, 0.00194354, -0.000378708, -0.000378708, -0.000378708
3414, 1,0.00162031, 0.000477574, 0.000320568, 101.165, 30.0703, 0.00324497, 203.315, -67.112, 0, 0.00101138, 0.00209475, 0.00140485, 130.963, -43.0896, 0, 0.00101099, 0.00114849, 0.000772013, 71.5983, -23.5037, 0, 0.00101067, 0.58808, 9.77522, 118.906, 0.465395, 8.23613, 61.8097, -0.000668046, -0.000505735, 0.00187296, -0.000362229, -0.000362229, -0.000362229
3415, 1,0.001587, 0.000495267, 0.000332572, 99.2242, 31.1839, 0.00313034, 196.199, -64.8161, 0, 0.00104537, 0.00207956, 0.00139161, 130.174, -42.9367, 0, 0.001045, 0.00109688, 0.000734783, 68.4893, -22.5549, 0, 0.00104465, 0.111064, 10.0284, 118.671, 0.14806, 7.97047, 59.5461, -0.000675152, -0.000494324, 0.00186619, -0.000353403, -0.000353403, -0.000353403
3416, 1,0.00157193, 0.000517865, 0.000349072, 98.1225, 32.5098, 0.00304724, 190.398, -62.3128, 0, 0.00107935, 0.00208753, 0.00140343, 130.431, -42.7308, 0, 0.00107901, 0.00105856, 0.000712178, 66.0133, -21.6083, 0, 0.00107864, -0.158819, 7.49489, 120.856, -0.0535951, 6.24942, 58.629, -0.000676844, -0.000539405, 0.00190963, -0.000341981, -0.000341981, -0.000341981
3417, 1,0.00204349, 0.000577055, 0.000387886, 127.649, 36.3354, 0.00409908, 256.887, -84.7888, 0, 0.000977213, 0.00261667, 0.00175443, 163.638, -53.8697, 0, 0.000976723, 0.00147335, 0.000988901, 91.9343, -30.2431, 0, 0.000976349, 0.510568, 11.4325, 149.666, 0.381752, 10.119, 80.2284, -0.000839047, -0.00065024, 0.00236338, -0.000469762, -0.000469762, -0.000469762
3418, 1,0.00202333, 0.0005985, 0.000400745, 126.608, 37.7297, 0.00400798, 251.434, -83.3001, 0, 0.00101117, 0.00261812, 0.00174997, 164.013, -54.256, 0, 0.0010107, 0.00143165, 0.000958541, 89.4783, -29.5583, 0, 0.00101029, 0.627022, 14.6464, 147.495, 0.484882, 11.758, 76.4319, -0.000843085, -0.00058769, 0.00231115, -0.000457183, -0.000457183, -0.000457183
3419, 1,0.00200522, 0.000621001, 0.000415953, 125.597, 39.1432, 0.00392518, 246.317, -81.6818, 0, 0.00104513, 0.00262287, 0.00175029, 164.448, -54.4971, 0, 0.00104467, 0.00139057, 0.000928568, 87.0117, -28.8142, 0, 0.00104424, 0.165629, 15.0824, 148.243, 0.180752, 11.6263, 74.6355, -0.000856084, -0.000579102, 0.00231948, -0.000451321, -0.000451321, -0.000451321
3420, 1,0.00199835, 0.000646536, 0.000434089, 125.033, 40.6676, 0.00386548, 242.055, -79.7837, 0, 0.0010791, 0.00264181, 0.00176798, 165.431, -54.5916, 0, 0.00107866, 0.00135782, 0.000908974, 84.8951, -28.0121, 0, 0.0010782, -0.120231, 12.6984, 151.197, -0.0300174, 10.0012, 74.0652, -0.00086289, -0.000626155, 0.00237489, -0.000442414, -0.000442414, -0.000442414
3421, 1,0.00243018, 0.000692431, 0.000464143, 152.061, 43.6455, 0.00483297, 303.207, -100.408, 0, 0.00097704, 0.00311828, 0.00208476, 195.319, -64.5651, 0, 0.000976472, 0.00174552, 0.00116804, 109.115, -36.0442, 0, 0.00097602, 0.503073, 15.8954, 177.297, 0.366008, 13.3181, 94.4484, -0.00100766, -0.000732338, 0.00278765, -0.000561479, -0.000561479, -0.000561479
3422, 1,0.00242923, 0.000720081, 0.000481477, 152.217, 45.4208, 0.00477068, 299.512, -99.4559, 0, 0.00101097, 0.00314505, 0.0020983, 197.265, -65.4719, 0, 0.00101042, 0.00171697, 0.00114701, 107.487, -35.6502, 0, 0.00100993, 0.693028, 19.3307, 176.392, 0.531282, 15.1322, 91.2872, -0.00101831, -0.000673817, 0.0027545, -0.00055214, -0.00055214, -0.00055214
3423, 1,0.00242615, 0.000747308, 0.000499806, 152.108, 47.1309, 0.00472193, 296.5, -98.5109, 0, 0.00104491, 0.00316949, 0.00211181, 198.892, -66.0756, 0, 0.00104436, 0.00168632, 0.00112412, 105.635, -35.0787, 0, 0.00104383, 0.198651, 19.9153, 178.113, 0.191528, 15.1035, 89.9411, -0.00103775, -0.000668302, 0.00277822, -0.000549775, -0.000549775, -0.000549775
3424, 1,0.00242779, 0.000775864, 0.000519709, 152.111, 48.8563, 0.00469884, 294.685, -97.591, 0, 0.00107886, 0.00319988, 0.00213605, 200.638, -66.4753, 0, 0.00107831, 0.00165924, 0.00110776, 103.898, -34.4322, 0, 0.00107775, -0.076415, 17.69, 181.812, -0.000641571, 13.5843, 89.713, -0.00104918, -0.000717248, 0.0028451, -0.000542973, -0.000542973, -0.000542973
3425, 1,0.00281798, 0.00080824, 0.000540799, 176.595, 50.9744, 0.00558854, 350.482, -115.936, 0, 0.000976865, 0.00362149, 0.00241682, 227.145, -75.359, 0, 0.000976222, 0.00201827, 0.00134793, 126.389, -41.9391, 0, 0.000975693, 0.63649, 20.1896, 205.251, 0.492152, 16.3917, 108.933, -0.00117483, -0.000819071, 0.0032167, -0.000651654, -0.000651654, -0.000651654
3426, 1,0.00283741, 0.000842109, 0.000562541, 177.908, 53.1334, 0.00553206, 346.939, -114.819, 0, 0.00101075, 0.00367477, 0.00244906, 230.625, -76.6642, 0, 0.00101013, 0.00200404, 0.00133707, 125.546, -41.7058, 0, 0.00100956, 0.662866, 23.7373, 205.592, 0.482246, 18.2773, 106.358, -0.00119518, -0.000764893, 0.00320406, -0.000648518, -0.000648518, -0.000648518
3427, 1,0.00284885, 0.000873971, 0.000583907, 178.764, 55.1359, 0.00551497, 346.076, -114.757, 0, 0.00104467, 0.00371833, 0.0024749, 233.506, -77.7491, 0, 0.00104404, 0.00198333, 0.00132056, 124.373, -41.425, 0, 0.00104343, 0.31003, 24.555, 208.382, 0.280315, 18.4357, 105.559, -0.00121924, -0.000762522, 0.00324336, -0.000647854, -0.000647854, -0.000647854
3428, 1,0.00285928, 0.00090552, 0.000605608, 179.3, 57.06, 0.00555532, 348.206, -115.119, 0, 0.00107861, 0.00376044, 0.00250618, 235.978, -78.3801, 0, 0.00107796, 0.00196215, 0.00130771, 122.98, -40.8663, 0, 0.00107731, -0.0445903, 22.4246, 212.76, 0.0174686, 16.9621, 105.619, -0.00123606, -0.000813706, 0.00332161, -0.000643989, -0.000643989, -0.000643989
3429, 1,0.00321152, 0.00092443, 0.000617772, 201.185, 58.3187, 0.00635077, 398.732, -132.355, 0, 0.000976707, 0.00413085, 0.00275294, 259.046, -85.87, 0, 0.00097597, 0.00229629, 0.00153119, 143.697, -47.5446, 0, 0.000975363, 0.150517, 23.9572, 233.502, 0.00309315, 19.0049, 123.626, -0.00135065, -0.00091174, 0.00365574, -0.000750283, -0.000750283, -0.000750283
3430, 1,0.0032471, 0.000964438, 0.000643784, 203.839, 60.8585, 0.00628271, 392.817, -128.779, 0, 0.00101052, 0.00420641, 0.00280134, 264.247, -88.1144, 0, 0.00100986, 0.00229213, 0.0015277, 143.816, -48.007, 0, 0.0010092, 0.996933, 27.9799, 235.366, 0.796633, 21.3157, 121.909, -0.00136841, -0.000862759, 0.00366095, -0.000741075, -0.000741075, -0.000741075
3431, 1,0.0032731, 0.00100091, 0.000668211, 205.41, 63.151, 0.00628194, 392.834, -128.865, 0, 0.00104439, 0.00426905, 0.00284034, 268.127, -89.3432, 0, 0.00104372, 0.00228151, 0.00151873, 143.078, -47.6809, 0, 0.00104302, 0.342186, 28.732, 238.955, 0.292741, 21.3664, 121.383, -0.00140109, -0.000864573, 0.00371539, -0.000746057, -0.000746057, -0.000746057
3432, 1,0.00329423, 0.00103541, 0.000691693, 206.676, 65.27, 0.00639191, 401.795, -133.996, 0, 0.00107837, 0.00432477, 0.00287944, 271.519, -90.3239, 0, 0.00107761, 0.00226813, 0.00151022, 142.228, -47.3347, 0, 0.00107686, -0.0113233, 26.8058, 244.177, 0.0395548, 20.0579, 121.907, -0.0014235, -0.000917415, 0.00380656, -0.000745442, -0.000745442, -0.000745442
3433, 1,0.00359936, 0.00104069, 0.000694692, 226.371, 65.6676, 0.00712872, 441.545, -140.439, 0, 0.000976421, 0.00463484, 0.00308798, 291.565, -97.6645, 0, 0.000975744, 0.0025681, 0.00171259, 161.566, -54.4191, 0, 0.00097506, 1.98025, 28.1645, 262.849, 1.82971, 22.0875, 139.34, -0.00149782, -0.00101598, 0.00409854, -0.000820029, -0.000820029, -0.000820029
3434, 1,0.00366409, 0.00108682, 0.000724953, 229.654, 68.5867, 0.00707229, 432.801, -132.315, 0, 0.00101013, 0.00474555, 0.00316042, 297.769, -99.0998, 0, 0.00100958, 0.00258715, 0.0017246, 161.942, -53.8267, 0, 0.00100884, 0.362929, 31.4877, 265.449, 0.142428, 23.6711, 137.667, -0.00155492, -0.000969783, 0.00413274, -0.000846656, -0.000846656, -0.000846656
3435, 1,0.00369595, 0.00112776, 0.000752323, 232.224, 71.1601, 0.00706986, 433.031, -132.8, 0, 0.00104397, 0.00481847, 0.00320367, 302.924, -101.418, 0, 0.00104344, 0.00257802, 0.00171407, 161.93, -54.4056, 0, 0.00104264, 0.982944, 33.1144, 270.157, 0.912716, 24.5349, 137.769, -0.00157754, -0.000971161, 0.00419437, -0.000838695, -0.000838695, -0.000838695
3436, 1,0.00373523, 0.00116523, 0.000777698, 234.436, 73.4754, 0.00723768, 446.553, -140.402, 0, 0.00107794, 0.00489524, 0.00325878, 307.451, -102.544, 0, 0.00107728, 0.00257994, 0.00171835, 161.842, -54.0716, 0, 0.00107643, 0.310969, 30.9415, 276.38, 0.355428, 22.97, 138.889, -0.00160902, -0.00103209, 0.00430505, -0.00084475, -0.00084475, -0.00084475
3437, 1,0.0040321, 0.00115768, 0.000772089, 252.62, 73.0912, 0.00907057, 461.45, -149.998, 0.0333018, 0.000976191, 0.0051846, 0.00345473, 325.212, -108.23, 0, 0.000975485, 0.00288376, 0.00192355, 180.437, -60.0365, 0, 0.000974722, 0.0231541, 31.2844, 293.382, -0.120225, 24.2738, 155.956, -0.0017061, -0.00113218, 0.00459447, -0.000950245, -0.000950245, -0.000950245
3438, 1,0.00406644, 0.00120866, 0.000805516, 255.474, 76.3072, 0.00881376, 457.042, -143.409, 0.0279892, 0.00100988, 0.00526996, 0.00350401, 331.3, -111.331, -1.35525E-20, 0.00100931, 0.00286725, 0.00190672, 180.06, -60.9051, -1.35525E-20, 0.00100849, 2.19346, 35.7441, 296.055, 1.99181, 26.8122, 153.911, -0.00170914, -0.00108962, 0.00460527, -0.000919327, -0.000919327, -0.000919327
3439, 1,0.0041366, 0.00125381, 0.000835656, 259.66, 79.1501, 0.00895329, 457.222, -143.44, 0.0306886, 0.00104368, 0.00538538, 0.00358535, 338.337, -113.512, 0, 0.00104313, 0.00289219, 0.00192701, 181.402, -61.1746, 0, 0.00104225, 0.474536, 37.6792, 302.381, 0.406802, 28.0007, 155.116, -0.0017786, -0.00108463, 0.00470513, -0.000955862, -0.000955862, -0.000955862
3440, 1,0.00417423, 0.0012936, 0.000862233, 262.832, 81.6457, 0.0093763, 464.252, -154.086, 0.0394323, 0.00107768, 0.00546318, 0.00362977, 344.018, -115.949, 0, 0.00107695, 0.00288946, 0.00191796, 182.068, -62.006, 0, 0.00107601, 1.60821, 36.2555, 309.985, 1.66169, 27.0852, 157.271, -0.00179227, -0.00115094, 0.00482468, -0.000941683, -0.000941683, -0.000941683
3441, 1,0.0044698, 0.00127499, 0.000848818, 279.565, 80.6133, 0.0120752, 466.173, -153.776, 0.0920291, 0.000975906, 0.00574036, 0.00383031, 359.675, -119.453, 0, 0.000975231, 0.00320277, 0.00214173, 199.865, -66.1986, 0, 0.000974388, -1.02056, 34.0154, 325.365, -1.13031, 26.0337, 173.692, -0.0019057, -0.0012741, 0.00511809, -0.00106943, -0.00106943, -0.00106943
3442, 1,0.00452331, 0.00132999, 0.000885064, 282.047, 84.0655, 0.0119521, 461.672, -146.692, 0.0893092, 0.00100955, 0.00584863, 0.00389757, 365.609, -121.379, 0, 0.00100901, 0.00320187, 0.002136, 198.912, -65.7606, 0, 0.0010081, -0.749688, 37.4936, 327.392, -0.902439, 27.5969, 170.587, -0.00193029, -0.00124147, 0.00514131, -0.00105768, -0.00105768, -0.00105768
3443, 1,0.00456467, 0.00137755, 0.000916704, 285.022, 87.0801, 0.0120482, 463.825, -150.016, 0.0913201, 0.00104337, 0.00593796, 0.00395511, 371.628, -123.851, 0, 0.00104279, 0.00319502, 0.00213386, 198.831, -66.1702, 0, 0.00104182, -0.0228815, 38.5294, 333.045, -0.0346303, 27.7043, 170.841, -0.00195157, -0.00126103, 0.00522226, -0.00104354, -0.00104354, -0.00104354
3444, 1,0.00468178, 0.00142195, 0.000946414, 292.991, 89.8846, 0.0128002, 466.702, -153.807, 0.106072, 0.0010772, 0.00609957, 0.00406517, 382.388, -127.237, -3.38813E-21, 0.00107657, 0.00326762, 0.00218208, 204.028, -67.7486, -3.38813E-21, 0.00107553, -0.739511, 37.3173, 345.132, -0.702981, 27.1953, 176.753, -0.00201936, -0.00133283, 0.00541681, -0.00108188, -0.00108188, -0.00108188
3445, 1,0.00492776, 0.00139655, 0.000930185, 308.195, 88.37, 0.0183233, 470.992, -155.874, 0.21308, 0.000975671, 0.00632099, 0.00422275, 396.043, -131.333, 0, 0.00097495, 0.00353716, 0.00236893, 220.769, -73.1223, 0, 0.00097403, -0.729056, 35.4887, 359.24, -0.431169, 27.0322, 192.766, -0.00208746, -0.00146417, 0.0056827, -0.00116457, -0.00116457, -0.00116457
3446, 1,0.00497992, 0.00145331, 0.000968616, 307.52, 91.7861, 0.017823, 469.042, -153.089, 0.203313, 0.00100935, 0.00642896, 0.00432926, 398.739, -129.598, 0, 0.00100865, 0.00353439, 0.00239847, 216.782, -69.2994, 0, 0.00100766, -7.63246, 39.3139, 357.114, -6.98273, 29.0552, 185.826, -0.00220692, -0.00137518, 0.00568501, -0.00124363, -0.00124363, -0.00124363
3447, 1,0.00501724, 0.00150513, 0.00100281, 309.575, 95.023, 0.0181512, 466.288, -148.192, 0.209266, 0.00104297, 0.00651807, 0.00439271, 404.016, -131.105, 5.52742E-07, 0.00104235, 0.00352008, 0.00239386, 215.648, -68.6896, 5.52742E-07, 0.0010413, -8.76429, 41.1248, 360.953, -8.05246, 30.1556, 183.966, -0.0022501, -0.00136773, 0.00574521, -0.00125226, -0.00125226, -0.00125226
3448, 1,0.00513864, 0.00155355, 0.00103463, 319.706, 98.0238, 0.0197668, 473.353, -158.657, 0.240936, 0.00107692, 0.00668901, 0.00447156, 417.203, -137.149, 0.000219138, 0.00107611, 0.00359104, 0.00240712, 222.675, -72.5906, 9.76141E-05, 0.00107498, -4.15775, 38.9072, 376.698, -3.62973, 28.404, 192.997, -0.00225161, -0.00149992, 0.00597726, -0.00122096, -0.00122096, -0.00122096
3449, 1,0.00564383, 0.00153979, 0.00102686, 327.313, 96.4708, 0.0320612, 480.44, -161.973, 0.472443, 0.000975795, 0.00718035, 0.00485062, 423.175, -136.951, 0.0075311, 0.000974491, 0.00410972, 0.00280202, 231.949, -73.1956, 0.0069816, 0.000973478, -7.11149, 34.3029, 383.663, -6.97714, 24.9094, 201.655, -0.00249453, -0.00178021, 0.00650635, -0.00147104, -0.00147104, -0.00147104
3450, 1,0.00579059, 0.00159895, 0.00106809, 330.745, 99.4136, 0.0340346, 480.141, -161.609, 0.510188, 0.00100966, 0.0073845, 0.00498778, 429.441, -141.023, 0.00930505, 0.00100828, 0.00420046, 0.00286052, 232.662, -75.4575, 0.00840271, 0.00100721, -5.11499, 44.2889, 383.894, -4.55446, 32.7886, 198.138, -0.00256542, -0.00171007, 0.00657573, -0.00149499, -0.00149499, -0.00149499
3451, 1,0.00593853, 0.00165075, 0.00110221, 333.782, 102.389, 0.0365813, 482.325, -163.594, 0.556508, 0.00104353, 0.00758428, 0.00512925, 435.435, -143.263, 0.0113253, 0.00104196, 0.00429658, 0.00293286, 232.778, -75.5285, 0.0102573, 0.00104081, -6.11128, 47.804, 388.095, -5.80542, 35.2197, 197.171, -0.00266656, -0.00172835, 0.00673432, -0.00156378, -0.00156378, -0.00156378
3452, 1,0.00597789, 0.00169947, 0.00113274, 337.561, 105.842, 0.039093, 479.323, -155.563, 0.598929, 0.00107708, 0.007675, 0.00518001, 442.826, -145.78, 0.0117094, 0.00107556, 0.00428262, 0.00291936, 232.819, -75.3303, 0.0106719, 0.00107432, -5.06001, 42.5023, 399.897, -5.51038, 30.0737, 201.428, -0.00268388, -0.00186958, 0.00693447, -0.00155507, -0.00155507, -0.00155507
3453, 1,0.00668441, 0.00168432, 0.00112584, 340.644, 104.61, 0.0514392, 495.059, -173.627, 0.811274, 0.000976723, 0.00836452, 0.00568897, 444.649, -147.451, 0.0253238, 0.000974069, 0.00500704, 0.00344421, 237.173, -78.4074, 0.0248805, 0.000972962, -1.86838, 39.5338, 404.686, -1.12257, 29.0859, 207.259, -0.0029846, -0.00224726, 0.00765872, -0.00185383, -0.00185383, -0.00185383
3454, 1,0.00684523, 0.00174302, 0.00117366, 342.474, 106.692, 0.056123, 517.687, -209.344, 0.892146, 0.00101221, 0.00858097, 0.00585987, 448.338, -148.565, 0.0280594, 0.00100785, 0.00511429, 0.00352434, 237.365, -79.5134, 0.0272927, 0.0010067, -3.45292, 50.2423, 398.906, 0.0471177, 38.3856, 200.107, -0.00311467, -0.00210657, 0.00767025, -0.00191216, -0.00191216, -0.00191216
3455, 1,0.00687379, 0.0017887, 0.00120767, 344.908, 108.992, 0.0596426, 525.042, -218.005, 0.946445, 0.00104672, 0.00865711, 0.00590187, 453.117, -149.782, 0.0281856, 0.00104147, 0.00509413, 0.00349974, 237.433, -80.0618, 0.027232, 0.00104027, -3.93269, 51.2088, 402.069, 1.07293, 39.3353, 199.777, -0.00313807, -0.00212542, 0.00773271, -0.00188664, -0.00188664, -0.00188664
3456, 1,0.00699176, 0.0018432, 0.00123735, 347.284, 112.387, 0.061334, 514.997, -197.79, 0.96644, 0.00107968, 0.0088331, 0.00604048, 459.148, -151.081, 0.0303753, 0.00107487, 0.00515171, 0.0035688, 235.927, -78.2344, 0.0290174, 0.00107357, -5.73566, 44.2493, 414.728, -2.57594, 32.5573, 204.722, -0.00324529, -0.00231017, 0.00804919, -0.00198297, -0.00198297, -0.00198297
3457, 1,0.00783002, 0.00184748, 0.00124542, 347.319, 111.487, 0.0649643, 538.815, -191.24, 1, 0.000977839, 0.00967342, 0.00666922, 458.349, -149.719, 0.0467341, 0.000973422, 0.00598903, 0.00418666, 236.724, -77.9764, 0.0457225, 0.000972259, -5.44076, 35.9545, 418.645, -1.40612, 26.5532, 208.782, -0.00362081, -0.00278532, 0.00890053, -0.002344, -0.002344, -0.002344
3458, 1,0.00795256, 0.00192629, 0.00131728, 346.028, 112.193, 0.067112, 599.563, -210.701, 1, 0.00101285, 0.00987277, 0.00685805, 457.623, -147.786, 0.0506347, 0.00100753, 0.00603608, 0.00423401, 235.014, -77.3002, 0.047723, 0.00100634, -9.48849, 44.9068, 407.939, -1.34565, 33.1713, 200.075, -0.00379177, -0.00259595, 0.0088554, -0.00238328, -0.00238328, -0.00238328
3459, 1,0.00811085, 0.00202238, 0.00138253, 343.625, 113.65, 0.0678712, 614, -209.072, 1, 0.00104662, 0.0101279, 0.0070512, 456.686, -145.36, 0.055804, 0.00104115, 0.00609724, 0.00429349, 231.135, -72.9562, 0.0497641, 0.00103988, -13.6783, 45.2231, 404.537, -6.88174, 30.9031, 194.847, -0.00397431, -0.00260665, 0.00901538, -0.00248926, -0.00248926, -0.00248926
3460, 1,0.00833485, 0.00213536, 0.00145145, 347.753, 115.293, 0.068283, 616.217, -202.274, 1, 0.00107957, 0.0104683, 0.00725885, 462.674, -154.425, 0.0630494, 0.00107437, 0.00620265, 0.00436304, 233.203, -78.3189, 0.0525977, 0.00107298, -2.40369, 45.6997, 419.979, -0.505924, 30.7375, 204.725, -0.00403837, -0.00290434, 0.0095398, -0.0025033, -0.0025033, -0.0025033
3461, 1,0.0100892, 0.00220838, 0.00150658, 349.024, 114.589, 0.068374, 620.396, -205.416, 1, 0.000977833, 0.0122924, 0.00862983, 463.344, -155.367, 0.0985704, 0.000973078, 0.00788892, 0.0056277, 234.968, -79.5077, 0.0865704, 0.000971802, 0.165357, 38.9262, 427.008, 1.50979, 25.8563, 211.157, -0.00486821, -0.00376861, 0.0113045, -0.00327869, -0.00327869, -0.00327869
3462, 1,0.0101084, 0.00232946, 0.00160635, 345.836, 114.917, 0.0704861, 680.651, -226.589, 1, 0.00101294, 0.0124292, 0.00877278, 460.334, -149.782, 0.101606, 0.00100714, 0.00779256, 0.00557302, 231.752, -75.1484, 0.0857404, 0.00100584, -7.55298, 46.2007, 410.698, -3.09917, 29.8085, 198.736, -0.00504352, -0.00339653, 0.0110164, -0.00328912, -0.00328912, -0.00328912
3463, 1,0.010433, 0.00245398, 0.0016965, 350.001, 115.274, 0.0714255, 709.652, -239.16, 1, 0.0010473, 0.0128816, 0.00905417, 464.952, -156.809, 0.110799, 0.00104096, 0.00798752, 0.00567253, 235.376, -81.9023, 0.0902347, 0.0010396, 0.189166, 53.4331, 416.805, 4.73709, 36.5174, 204.452, -0.00521993, -0.00351322, 0.0114452, -0.00334198, -0.00334198, -0.00334198
3464, 1,0.0110308, 0.00257679, 0.00177861, 348.256, 116.239, 0.071808, 720.102, -242.923, 1, 0.00108055, 0.0136053, 0.00963318, 464.301, -155.352, 0.124518, 0.00107386, 0.00845755, 0.00608597, 232.404, -77.345, 0.0990601, 0.00107238, -3.03597, 40.9637, 428.129, -2.15874, 24.5744, 209.619, -0.00562294, -0.0041627, 0.0124945, -0.00366299, -0.00366299, -0.00366299
3465, 1,0.0149453, 0.00271578, 0.00188152, 349.309, 115.495, 0.0710793, 698.751, -234.598, 1, 0.000977889, 0.0176532, 0.0127351, 464.681, -155.532, 0.203258, 0.000972266, 0.0122407, 0.00902827, 234.054, -77.5634, 0.175982, 0.000970856, -0.441484, 30.9234, 436.114, -0.73154, 17.0817, 216.34, -0.00748488, -0.00609609, 0.0164274, -0.00541575, -0.00541575, -0.00541575
3466, 1,0.0150415, 0.00295818, 0.00205795, 352.654, 116.134, 0.0735968, 770.089, -260.246, 1, 0.00101236, 0.0179867, 0.0128945, 468.571, -161.01, 0.210625, 0.0010057, 0.0121023, 0.0088792, 236.95, -83.0922, 0.174857, 0.00100423, 13.1224, 43.6649, 426.243, 11.5221, 27.3959, 210.358, -0.0072217, -0.00588431, 0.0160665, -0.00492512, -0.00492512, -0.00492512
3467, 1,0.0153555, 0.00310505, 0.00216071, 348.828, 116.361, 0.0750307, 805.946, -268.379, 1, 0.00104642, 0.0184467, 0.0132974, 464.948, -154.608, 0.219184, 0.00103912, 0.0122709, 0.00906911, 232.942, -76.7538, 0.178192, 0.00103759, 6.16161, 36.6017, 421.061, 4.58801, 20.6655, 205.008, -0.00744775, -0.006103, 0.0164089, -0.00501977, -0.00501977, -0.00501977
3468, 1,0.01611, 0.00313729, 0.00219714, 356.046, 116.371, 0.0752207, 813.501, -272.8, 1, 0.00108042, 0.0192412, 0.0138881, 472.32, -166.784, 0.234516, 0.00107299, 0.0129815, 0.00953169, 239.869, -87.9614, 0.191951, 0.00107136, 10.9874, 44.1675, 445.196, 11.1677, 29.1133, 223.603, -0.00823753, -0.00660898, 0.0179601, -0.00573285, -0.00573285, -0.00573285
3469, 1,0.0236862, 0.00348054, 0.00242931, 357.57, 116.593, 0.0737928, 780.078, -267.844, 1, 0.000977525, 0.0271434, 0.0198966, 474.062, -168.554, 0.386232, 0.000971339, 0.0202363, 0.0151478, 241.176, -87.4409, 0.339968, 0.000969655, 19.8365, 32.886, 452.941, 14.3232, 19.9828, 228.017, -0.0114856, -0.0106488, 0.0256206, -0.00874961, -0.00874961, -0.00874961
3470, 1,0.0252017, 0.00388918, 0.00271697, 360.36, 118.105, 0.0767749, 864.474, -297.595, 1, 0.00101096, 0.0290399, 0.0218843, 478.257, -175.876, 0.425396, 0.00100372, 0.0213801, 0.0165749, 242.665, -91.069, 0.367679, 0.00100183, 46.6601, 36.8215, 444.147, 29.791, 22.7531, 220.663, -0.0106699, -0.011887, 0.0262988, -0.00780792, -0.00780792, -0.00780792
3471, 1,0.0258778, 0.00406558, 0.00284658, 360.661, 118.23, 0.0780712, 898.858, -307.304, 1, 0.0010451, 0.0298946, 0.0224747, 478.688, -175.662, 0.441277, 0.00103729, 0.0218772, 0.0168959, 242.832, -91.0868, 0.377702, 0.00103531, 45.8188, 35.6972, 445.469, 29.2197, 22.6266, 221.414, -0.0110522, -0.0123213, 0.0271548, -0.00807901, -0.00807901, -0.00807901
3472, 1,0.0252389, 0.00396388, 0.00278384, 354.017, 117.463, 0.0779024, 891.39, -301.901, 1, 0.00107992, 0.0291743, 0.0214118, 471.349, -162.136, 0.424072, 0.0010717, 0.0213134, 0.0159486, 236.811, -80.1178, 0.361819, 0.00106976, 12.369, 24.8649, 449.174, 5.8616, 11.8958, 222.596, -0.0124296, -0.0115902, 0.0274658, -0.00929118, -0.00929118, -0.00929118
3473, 1,0.0321797, 0.00437788, 0.00306281, 361.417, 118.325, 0.0764934, 851.553, -287.463, 1, 0.000975971, 0.0365442, 0.0272611, 479.7, -174.668, 0.561258, 0.000969718, 0.0278189, 0.0212069, 243.175, -89.4337, 0.493407, 0.000967661, 29.1473, 27.243, 467.613, 17.652, 14.868, 235.781, -0.015391, -0.0158315, 0.0353492, -0.0119869, -0.0119869, -0.0119869
3474, 1,0.0356342, 0.00486329, 0.00342846, 375.521, 120.545, 0.0796309, 945.336, -324.61, 1, 0.00100921, 0.0404682, 0.030985, 495.999, -202.103, 0.637835, 0.00100234, 0.0308085, 0.0242014, 255.111, -110.238, 0.559421, 0.000999851, 82.4382, 43.7413, 480.13, 53.8931, 31.4776, 245.343, -0.0141017, -0.019427, 0.0386205, -0.0107841, -0.0107841, -0.0107841
3475, 1,0.0362486, 0.00506412, 0.00358878, 376.068, 120.706, 0.0809071, 981.427, -337.244, 1, 0.00104334, 0.0412788, 0.0315291, 496.696, -202.206, 0.651774, 0.00103582, 0.0312284, 0.0244322, 255.518, -110.596, 0.567324, 0.00103321, 82.5841, 43.7073, 480.326, 53.9768, 32.4582, 245.354, -0.0143661, -0.0198075, 0.0393303, -0.0109932, -0.0109932, -0.0109932
3476, 1,0.034709, 0.00498354, 0.00350199, 366.86, 118.896, 0.0807382, 971.797, -329.951, 1, 0.00107876, 0.0396743, 0.0294258, 485.703, -182.18, 0.617672, 0.00107059, 0.0297493, 0.0224966, 248.071, -96.996, 0.532286, 0.00106816, 40.1638, 33.3336, 473.043, 27.8494, 22.8909, 240.248, -0.0163498, -0.0174309, 0.0382918, -0.0125127, -0.0125127, -0.0125127
3477, 1,0.0338956, 0.0050734, 0.00360146, 366.538, 119.963, 0.0769069, 865.493, -294.268, 1, 0.00100879, 0.0389433, 0.0291356, 486.431, -183.794, 0.604831, 0.00100245, 0.0288564, 0.0219981, 246.715, -95.0732, 0.514734, 0.00100011, 42.6826, 31.0575, 477.643, 25.664, 18.7106, 240.845, -0.0159421, -0.0175356, 0.0379799, -0.0121389, -0.0121389, -0.0121389
3478, 1,0.0374209, 0.00565362, 0.00411352, 370.338, 122.742, 0.0802105, 954.403, -319.59, 1, 0.00104169, 0.0430414, 0.0331684, 493, -194.638, 0.681774, 0.0010348, 0.0318112, 0.0250195, 247.754, -97.5783, 0.577069, 0.00103194, 74.5355, 25.1611, 484.216, 38.4085, 12.5624, 241.764, -0.0149328, -0.0219251, 0.041956, -0.0114381, -0.0114381, -0.0114381
3479, 1,0.0382755, 0.00585679, 0.00426437, 369.688, 123.001, 0.0815638, 990.716, -330.125, 1, 0.00107716, 0.0440935, 0.0339893, 492.596, -193.175, 0.699908, 0.00106967, 0.0324704, 0.0255539, 246.869, -95.9896, 0.590052, 0.00106666, 74.4272, 21.5732, 483.524, 37.3581, 10.0351, 240.576, -0.0150873, -0.0227137, 0.0429449, -0.0115379, -0.0115379, -0.0115379
3480, 1,0.0362054, 0.00564391, 0.00400951, 363.462, 121.137, 0.080851, 970.139, -324.389, 1, 0.00111431, 0.0418035, 0.0311675, 484.478, -178.198, 0.654487, 0.00110614, 0.030623, 0.0232496, 242.563, -87.5972, 0.548851, 0.00110337, 37.4392, 23.012, 474.142, 17.443, 10.1096, 235.239, -0.0169845, -0.0190429, 0.0405829, -0.0128612, -0.0128612, -0.0128612
3481, 1,0.00101334, -0.000731833, 0.000516725, 0.213252, -49.2237, 0.00225577, 6.59799, 134.362, 0, 0.00194955, 0.00131464, 0.00224953, -0.183547, 83.7185, 0, 0.00195115, 0.000712317, 0.00121659, 0.623528, 44.3919, 0, 0.00195239, -1.25702, -39.1678, -210.73, -0.17381, -19.6824, -113.32, 0.00129195, 0.000489974, -0.00314045, 0.000695477, 0.000695477, 0.000695477
3482, 1,0.00194282, -0.000815937, 0.000693056, 76.6238, -43.8252, 0.00388978, 146.766, 49.7986, 0, 0.00181744, 0.00251292, 0.00300254, 98.3039, 27.4848, 0, 0.0018181, 0.00137279, 0.00161666, 54.9468, 13.3432, 0, 0.00181852, 4.81025, 97.4155, -184.68, 2.9239, 54.3683, -97.3218, 0.000534643, 0.00249407, -0.00347472, 0.000271997, 0.000271997, 0.000271997
3483, 1,0.00233824, -0.000792148, 0.000745714, 106.81, -39.2096, 0.00456488, 202.743, 17.4615, 0, 0.00176239, 0.00303752, 0.00319285, 138.087, 7.34777, 0, 0.00176267, 0.00163897, 0.00170143, 75.5335, 2.58679, 0, 0.00176281, 3.61034, 137.951, -163.605, 2.01212, 75.4555, -85.228, 0.000192097, 0.00303465, -0.00334598, 8.32941E-05, 8.32941E-05, 8.32941E-05
3484, 1,0.00170495, 0.000514131, 0.000483635, 88.9619, 26.0993, 0.00328352, 165.52, -13.8889, 0, 0.00176861, 0.00221904, 0.00203777, 115.059, -13.6837, 0, 0.0017686, 0.0011909, 0.00107061, 62.8661, -8.84469, 0, 0.00176847, 3.81865, 113.262, -76.0298, 2.15731, 61.8169, -37.4402, -0.000134749, 0.00218098, -0.00182418, -9.36894E-05, -9.36894E-05, -9.36894E-05
3485, 1,0.00104822, 0.000283741, 0.000221679, 78.0775, 21.2093, 0.001878, 138.9, -67.3619, 0, 0.00174004, 0.00132985, 0.00103755, 99.1871, -48.8161, 0, 0.00173952, 0.000768113, 0.000597078, 57.0394, -27.8602, 0, 0.00173892, 1.47255, 63.6227, 81.3532, 0.819539, 34.4479, 48.3131, -0.000737724, 0.000577271, 0.000952607, -0.000421485, -0.000421485, -0.000421485
3486, 1,0.00301282, 0.000856276, 0.000591581, 191.3, 54.5568, 0.00548924, 350.113, -121.831, 0, 0.00171195, 0.00386906, 0.00266808, 245.855, -84.636, 0, 0.00171092, 0.0021566, 0.00148502, 136.746, -46.7823, 0, 0.00170987, -6.0008, 14.9193, 244.989, -3.4077, 7.43734, 136.317, -0.00145999, -0.00101738, 0.00385078, -0.000808929, -0.000808929, -0.000808929
3487, 1,0.00156802, -0.000525259, 0.000497296, 72.7661, -25.7876, 0.00335498, 154.62, 5.29212, 0, 0.00182941, 0.00203689, 0.00211469, 93.9622, 3.09329, 0, 0.00182947, 0.00109958, 0.00112145, 51.589, 0.50492, 0, 0.00182955, 3.21367, 82.5606, -95.0541, 1.6266, 44.6857, -47.8271, 0.00011668, 0.0017952, -0.00196207, 4.23307E-05, 4.23307E-05, 4.23307E-05
3488, 1,0.0017112, 0.000485375, 0.0003302, 108.894, 30.459, 0.00339366, 204.025, -58.6221, 0, 0.00173823, 0.00219546, 0.00146994, 139.302, -47.7484, 0, 0.00173793, 0.00122784, 0.00081264, 78.5293, -27.5442, 0, 0.00173736, 4.06213, 58.0701, 81.113, 2.69558, 31.4203, 48.5166, -0.000666101, 0.00047578, 0.000965149, -0.000376802, -0.000376802, -0.000376802
3489, 1,0.00348255, 0.00101167, 0.000689912, 222.651, 63.7387, 0.00660176, 403.693, -123.172, 0, 0.00167953, 0.00449415, 0.00305767, 286.387, -99.3937, 0, 0.00167888, 0.00247099, 0.0016781, 158.918, -56.6019, 0, 0.00167772, -2.20261, 21.1337, 279.25, 0.504102, 14.2046, 155.097, -0.00161198, -0.00111877, 0.00434364, -0.000880735, -0.000880735, -0.000880735
3490, 1,0.001319, -0.000618935, 0.000483277, 50.3125, -34.3562, 0.00307333, 112.938, 43.4079, 0, 0.00198832, 0.00166549, 0.00217234, 61.5852, 23.0061, 0, 0.00198898, 0.000973412, 0.00120891, 39.0808, 9.29112, 0, 0.00198942, 14.7527, 49.2883, -133.059, 9.31824, 30.7924, -67.9839, 0.000674461, 0.00140448, -0.00245227, 0.000343458, 0.000343458, 0.000343458
3491, 1,0.00233945, 0.000637875, 0.000511547, 128.326, 35.906, 0.00586103, 317.227, -54.0467, 0, 0.00167424, 0.00297658, 0.00237285, 164.199, -31.5992, 0, 0.00167363, 0.00170288, 0.00135168, 92.4781, -16.1258, 0, 0.00167321, -9.03039, 35.6394, 68.1887, -8.79391, 17.3732, 39.7981, -0.00068867, 0.000253318, 0.000948122, -0.000439968, -0.000439968, -0.000439968
3492, 1,0.00452053, 0.00129527, 0.000873602, 278.868, 80.8837, 0.0157166, 455.27, -131.945, 0.161214, 0.00158994, 0.00581509, 0.0039904, 359.723, -113.961, 6.77626E-21, 0.00158914, 0.00322653, 0.00224577, 198.036, -61.1184, 6.77626E-21, 0.00158778, -11.9816, 6.86653, 346.998, -9.18428, 0.998862, 191.541, -0.00204676, -0.00165226, 0.0055483, -0.00115531, -0.00115531, -0.00115531
3493, 1,0.00769283, 0.00172214, 0.00118231, 329.166, 100.739, 0.042101, 507.441, -200.448, 0.655797, 0.0014516, 0.00941394, 0.00670688, 429.888, -124.86, 0.0457278, 0.00144717, 0.00597227, 0.00434656, 228.46, -64.4695, 0.0448153, 0.00144572, -25.3916, -14.4799, 414.453, -16.5796, -9.60843, 219.596, -0.0035962, -0.00330714, 0.00898254, -0.00241037, -0.00241037, -0.00241037
3494, 1,0.0171749, 0.00288079, 0.00200372, 354.987, 115.154, 0.0679411, 633.102, -232.314, 1, 0.00128733, 0.0200477, 0.0146009, 470.096, -164.075, 0.249757, 0.00128035, 0.0143051, 0.01068, 239.925, -86.796, 0.219171, 0.00127845, 15.8002, 19.3793, 457.047, 11.8774, 16.4006, 232.11, -0.00816152, -0.0080048, 0.01926, -0.00618107, -0.00618107, -0.00618107
3495, 1,0.0280849, 0.0045099, 0.00320303, 361.629, 119.438, 0.0746311, 794.201, -261.622, 1, 0.00113454, 0.0325513, 0.0243003, 480.927, -177.211, 0.487698, 0.00112814, 0.0236341, 0.0179797, 242.468, -89.2498, 0.4096, 0.00112581, 35.8452, 25.6386, 470.148, 18.635, 14.299, 234.815, -0.0131954, -0.0143602, 0.0315066, -0.0099553, -0.0099553, -0.0099553
3496, 1,0.00334832, 0.000813343, 0.000681375, 189.628, 44.051, 0.0145142, 435.586, -105.378, 0.138754, 0.00147285, 0.00416101, 0.0033566, 233.649, -49.6104, -2.71051E-20, 0.00147131, 0.00253603, 0.00199479, 145.626, -34.5418, -2.71051E-20, 0.00147095, -1.48004, 29.4944, 120.817, 0.79685, 25.0875, 77.7412, -0.000811544, -0.000169243, 0.00178583, -0.000526056, -0.000526056, -0.000526056
3497, 1,0.00533417, 0.00108467, 0.000848198, 279.181, 60.9891, 0.0294668, 485.41, -179.056, 0.433356, 0.00123189, 0.00641493, 0.0049077, 340.043, -77.7784, 0.00914922, 0.00122873, 0.00425539, 0.00322236, 218.389, -50.3224, 0.00892032, 0.00122818, -16.6869, 1.63332, 248.389, -12.3768, 2.22276, 161.121, -0.00173114, -0.00135937, 0.00435912, -0.00120674, -0.00120674, -0.00120674
3498, 1,0.0114032, 0.00138838, 0.000974374, 346.83, 80.2995, 0.0342228, 446.573, -112.183, 0.517132, 0.00107627, 0.0127794, 0.00943168, 427.034, -154.126, 0.123897, 0.00107641, 0.0100302, 0.00750853, 266.689, -101.311, 0.123897, 0.00107541, 32.9596, 32.8045, 396.615, 29.9982, 27.0597, 246.874, -0.00436729, -0.00445422, 0.0115083, -0.00346779, -0.00346779, -0.00346779
3499, 1,0.00120362, -0.000858609, 0.000589728, 4.12049, -55.7617, 0.00313044, 25.2301, 164.861, 0, 0.00157961, 0.00150191, 0.0027327, 3.04218, 91.2899, 0, 0.0015815, 0.000915743, 0.00158187, 5.68814, 50.4981, 0, 0.00158255, -10.8541, -12.5494, -250.466, -8.95214, -1.96675, -140.576, 0.00120816, 0.00117195, -0.00386151, 0.000605931, 0.000605931, 0.000605931
3500, 1,0.00136381, -0.00109702, 0.000756678, -20.8341, -74.2839, 0.00383363, -20.4608, 270.896, 0, 0.00106927, 0.00177609, 0.00356689, -23.7795, 144.697, 0, 0.00107146, 0.000963133, 0.00206501, -17.363, 84.4239, 0, 0.00107251, -29.0906, -49.6285, -355.371, -22.0957, -22.6236, -208.552, 0.001664, 0.00123015, -0.00524218, 0.000862703, 0.000862703, 0.000862703
3501, 1,0.0017881, -0.001252, 0.000867771, -19.9938, -85.5535, 0.00495941, -2.41601, 318.132, 0, 0.000925152, 0.00226181, 0.0041637, -23.9416, 175.528, 0, 0.000927296, 0.00132169, 0.00244449, -15.7238, 104.692, 0, 0.000928362, -44.7109, -66.7582, -415.114, -32.469, -36.7329, -244.873, 0.00182006, 0.00136577, -0.00603417, 0.000963446, 0.000963446, 0.000963446
3502, 1,0.00826335, -0.00376953, 0.00251833, -36.5183, -196.082, 0.0303918, -61.5986, 362.843, 0.852289, 0.000675391, 0.00949471, 0.0164291, -48.2288, 311.098, 0.208802, 0.000679126, 0.00704017, 0.0114395, -24.6387, 161.08, 0.19267, 0.00068102, -69.2242, -103.359, -760.711, -40.3461, -54.398, -388.497, 0.00858644, 0.00718585, -0.0214864, 0.00612058, 0.00612058, 0.00612058
3503, 1,0.00462927, -0.00269947, 0.0018273, 11.2072, -168.748, 0.0177861, -84.1222, 369.43, 0.494568, 0.000677749, 0.00558281, 0.00962747, 9.79191, 248.426, 0.0514977, 0.000680553, 0.00367635, 0.00597601, 12.6442, 126.287, 0.0510072, 0.000681944, 7.33243, -163.618, -588.993, 11.2394, -86.5884, -303.511, 0.00551726, 0.000939746, -0.0106076, 0.00363301, 0.00363301, 0.00363301
3504, 1,0.00224794, -0.00165194, 0.001165, 6.65932, -108.361, 0.00582475, 44.4611, 244.302, 0.0334017, 0.00100076, 0.00292304, 0.00502858, 8.27772, 174.478, 0, 0.00100197, 0.00157529, 0.00270477, 5.15542, 93.0988, 0, 0.00100329, 5.43112, -213.016, -315.848, 2.65972, -115.974, -165.982, 0.00286308, -0.00175357, -0.00394081, 0.00152272, 0.00152272, 0.00152272
3505, 1,0.00182924, -0.000971032, 0.00075244, 20.6355, -65.942, 0.00398905, 60.9133, 171.445, 0, 0.00121566, 0.00236287, 0.00328708, 25.805, 115.359, 0, 0.00121677, 0.00129579, 0.00178279, 15.4749, 61.4866, 0, 0.00121783, 24.9636, -226.794, -144.246, 14.8762, -121.55, -77.786, 0.0023452, -0.00298115, -0.00123601, 0.00128327, 0.00128327, 0.00128327
3506, 1,0.0012601, -0.000687978, 0.00052557, 9.76916, -47.5252, 0.0027883, 40.0694, 123.206, 0, 0.00201462, 0.00162324, 0.00231189, 11.9208, 87.0492, 0, 0.0020158, 0.000896983, 0.00126082, 7.61838, 46.7174, 0, 0.00201712, 11.6508, -72.0236, -200.775, 7.44128, -39.2927, -108.301, 0.00161751, -0.000152721, -0.00287736, 0.000893209, 0.000893209, 0.000893209
3507, 1,0.00158685, -0.000774604, 0.000622664, 55.0723, -42.9316, 0.00296027, 99.143, 54.7609, 0, 0.00188001, 0.00205755, 0.00270386, 70.9949, 35.2608, 0, 0.0018806, 0.00111617, 0.00145862, 39.1507, 18.2713, 0, 0.00188112, 7.7146, 70.5427, -184.04, 4.69803, 38.8666, -98.3785, 0.00071855, 0.00204795, -0.00333868, 0.000387138, 0.000387138, 0.000387138
3508, 1,0.00207176, -0.000774287, 0.000696741, 88.0474, -39.7902, 0.0038913, 162.733, 28.4446, 0, 0.00182343, 0.00269096, 0.00301017, 114.114, 17.5489, 0, 0.00182376, 0.00145257, 0.0016167, 61.9804, 8.95967, 0, 0.00182401, 3.63098, 114.052, -170.33, 1.9563, 61.9479, -90.7832, 0.000353183, 0.00268964, -0.00332759, 0.000182467, 0.000182467, 0.000182467
3509, 1,0.00149255, 0.000448524, 0.000446975, 73.1977, 21.7225, 0.00270522, 127.27, 0.780905, 0, 0.00182971, 0.00194107, 0.00191788, 94.92, -4.27639, 0, 0.00182986, 0.00104404, 0.00102395, 51.4755, -2.86618, 0, 0.00182982, 4.30184, 93.939, -85.4117, 2.44407, 50.9383, -44.7839, 2.36402E-05, 0.00192028, -0.00187452, 6.54213E-06, 6.54213E-06, 6.54213E-06
3510, 1,0.000826418, 0.000239448, 0.000187794, 62.7169, 18.1491, 0.00123767, 94.4167, -48.2593, 0, 0.00180002, 0.00106549, 0.00083166, 80.8482, -40.9639, 0, 0.0017998, 0.000587654, 0.000456611, 44.5999, -22.6056, 0, 0.00179927, 2.2493, 52.8433, 67.7991, 1.44799, 28.3735, 37.9952, -0.000597594, 0.000472861, 0.000789467, -0.000325404, -0.000325404, -0.000325404
3511, 1,0.00283795, 0.000842218, 0.000585312, 179.102, 53.1918, 0.00485088, 302.735, -98.711, 0, 0.00177088, 0.00368015, 0.00255294, 232.293, -78.4088, 0, 0.0017703, 0.00199578, 0.00138238, 125.912, -42.4374, 0, 0.00176926, -9.00216, 12.4643, 231.764, -4.75135, 6.4025, 125.661, -0.00142539, -0.000971247, 0.003669, -0.000768895, -0.000768895, -0.000768895
3512, 1,0.00120647, -0.000485937, 0.000427824, 49.9036, -25.1791, 0.00226068, 91.1664, 21.0579, 0, 0.00189235, 0.00157613, 0.00181877, 65.1611, 12.5324, 0, 0.00189262, 0.000836853, 0.000963272, 34.6481, 6.58578, 0, 0.0018928, 4.17225, 59.0752, -100.845, 2.10309, 31.2289, -53.0893, 0.000285638, 0.00144704, -0.00193605, 0.000148197, 0.000148197, 0.000148197
3513, 1,0.00128855, 0.000381975, 0.000253329, 82.6253, 24.3909, 0.00214381, 120.191, -25.3566, 0, 0.00179778, 0.00167019, 0.00111133, 107.001, -37.7019, 0, 0.00179814, 0.000907198, 0.000610393, 58.2631, -20.6716, 0, 0.00179765, 2.14856, 43.8564, 67.1008, 0.6918, 23.4628, 37.8603, -0.000548312, 0.000333473, 0.00082664, -0.000310908, -0.000310908, -0.000310908
3514, 1,0.00329028, 0.000982983, 0.000674703, 205.797, 61.5721, 0.0060905, 356.307, -91.9708, 0, 0.00173709, 0.0042731, 0.00296429, 267.362, -87.8652, 0, 0.00173698, 0.0023076, 0.00161567, 144.239, -47.2524, 0, 0.00173583, -12.1634, 12.7314, 263.027, -7.86145, 7.71312, 141.906, -0.00164111, -0.0011149, 0.00418183, -0.000910431, -0.000910431, -0.000910431
3515, 1,0.00079121, -0.000548443, 0.000388034, 18.7589, -32.4764, 0.00142257, 21.9107, 60.8899, 0, 0.00205469, 0.00101847, 0.00168358, 22.9434, 33.8458, 0, 0.0020556, 0.000564214, 0.000908146, 14.5869, 16.2298, 0, 0.00205618, 19.6265, 13.1975, -134.361, 12.3049, 9.12426, -70.1185, 0.000948316, 0.000812012, -0.00230955, 0.000515944, 0.000515944, 0.000515944
3516, 1,0.00156975, 0.00045437, 0.000362299, 84.6382, 25.5306, 0.00458938, 239.268, -30.0646, 0, 0.00173109, 0.00202353, 0.00161252, 110.143, -19.4829, 0, 0.00173079, 0.00111645, 0.000892068, 59.1549, -8.58423, 0, 0.00173049, -9.5794, 13.2057, 54.8225, -8.7417, 4.25519, 30.2392, -0.000509447, -2.96884E-05, 0.00085529, -0.000320069, -0.000320069, -0.000320069
3517, 1,0.00437135, 0.00125584, 0.000862413, 264.103, 77.5375, 0.0160372, 441.655, -109.853, 0.166419, 0.00164455, 0.005626, 0.00394849, 341.591, -101.59, -4.23516E-22, 0.00164403, 0.00311768, 0.00222555, 186.657, -52.7329, -4.23516E-22, 0.00164273, -29.1918, -1.55718, 335.52, -21.774, -3.97558, 183.948, -0.00221704, -0.00163438, 0.00549997, -0.00129058, -0.00129058, -0.00129058
3518, 1,0.00707794, 0.0017106, 0.00119995, 325.074, 98.4941, 0.0453974, 541.324, -258.273, 0.724013, 0.00150531, 0.00878589, 0.00619917, 423.516, -117.294, 0.0334275, 0.00149767, 0.00537162, 0.00380365, 226.677, -62.2287, 0.0322545, 0.0014963, -39.3812, -26.5494, 417.811, -20.1989, -16.6411, 223.526, -0.00351562, -0.00318691, 0.00864207, -0.00217459, -0.00217459, -0.00217459
3519, 1,0.0173006, 0.00301432, 0.00210003, 360.923, 115.85, 0.0710632, 736.995, -276.66, 1, 0.00133233, 0.0203137, 0.0153878, 476.767, -177.783, 0.257685, 0.00132331, 0.014288, 0.0111977, 245.088, -98.1953, 0.222222, 0.00132126, 56.4192, 2.72396, 474.206, 42.4713, 8.4947, 243.62, -0.00665034, -0.0101359, 0.0201557, -0.00456717, -0.00456717, -0.00456717
3520, 1,0.0309438, 0.0050077, 0.00365291, 373.956, 122.264, 0.078356, 910.161, -309.991, 1, 0.00117296, 0.0359213, 0.0278645, 496.134, -204.38, 0.556094, 0.00116527, 0.0259771, 0.0206254, 251.864, -106.5, 0.462434, 0.00116239, 91.2733, 29.0789, 492.787, 51.7692, 18.5502, 249.179, -0.0116804, -0.0190795, 0.0355688, -0.00869208, -0.00869208, -0.00869208
3521, 1,0.00248286, 0.000597491, 0.000490836, 135.481, 31.6209, 0.0132367, 450.004, -127.233, 0.113618, 0.00152508, 0.00307905, 0.00235657, 167.049, -28.8559, 0, 0.00152244, 0.00188751, 0.00138844, 103.949, -19.7739, 0, 0.00152221, -25.1277, -10.6662, 122.362, -18.6978, -1.28446, 79.3038, -0.000985879, -0.000688355, 0.00214249, -0.00070679, -0.00070679, -0.00070679
3522, 1,0.00458349, 0.000983292, 0.000730406, 254.285, 55.9847, 0.0293786, 508.557, -218.647, 0.436194, 0.00127595, 0.00556154, 0.00401212, 310.077, -64.0011, 7.59476E-05, 0.0012713, 0.00360839, 0.00257352, 198.602, -38.3157, 1.81372E-05, 0.00127077, -49.6755, -45.8651, 287.544, -40.4208, -31.7632, 187.131, -0.00206, -0.00200893, 0.00510754, -0.00145837, -0.00145837, -0.00145837
3523, 1,0.0124106, 0.00156502, 0.00105907, 353.956, 91.0974, 0.0347064, 430.055, -103.283, 0.534226, 0.00111251, 0.0139648, 0.010329, 445.006, -183.996, 0.149412, 0.00111347, 0.010859, 0.00827927, 262.944, -119.058, 0.149412, 0.00111219, 77.0006, 32.773, 442.216, 64.1259, 31.3472, 261.702, -0.0041803, -0.00640649, 0.0138441, -0.00315938, -0.00315938, -0.00315938
3524, 1,0.00129261, -0.000787047, 0.000574988, 5.16496, -53.9342, 0.00249066, -11.2752, 173.292, 0, 0.00162973, 0.00165492, 0.0025993, 5.55163, 97.6217, 0, 0.00163173, 0.000930798, 0.00145208, 4.80229, 52.6523, 0, 0.00163292, 5.12828, -61.6085, -236.385, 4.38491, -32.8792, -129.463, 0.00164598, 0.000235119, -0.00346523, 0.000921976, 0.000921976, 0.000921976
3525, 1,0.00158469, -0.00105604, 0.000745908, -21.3156, -75.4834, 0.00398572, -15.5321, 273.938, 0, 0.00111427, 0.00202009, 0.00354877, -26.3068, 163.598, 0, 0.00111627, 0.00114953, 0.00206548, -16.3131, 94.8961, 0, 0.00111751, -27.4582, -114.148, -349.187, -17.0368, -66.7696, -200.882, 0.00199567, 0.000168517, -0.00481894, 0.00113413, 0.00113413, 0.00113413
3526, 1,0.00169903, -0.001226, 0.000827043, -17.1398, -85.2596, 0.00537314, -7.37804, 316.682, 0.0172867, 0.000961665, 0.00212037, 0.00397858, -24.5085, 167.373, 0, 0.000964046, 0.0012823, 0.00233843, -9.55936, 94.0313, 0, 0.000965194, -37.4759, -89.6869, -374.956, -20.6147, -49.9605, -211.519, 0.00184347, 0.000764363, -0.00532384, 0.00104512, 0.00104512, 0.00104512
3527, 1,0.00974695, -0.00388627, 0.00254768, -40.8821, -211.557, 0.0352576, -79.9784, 455.37, 0.831766, 0.00070493, 0.0109435, 0.0173315, -55.8906, 373.22, 0.200973, 0.000709861, 0.0085556, 0.0122665, -25.7421, 200.873, 0.187927, 0.000712121, -174.42, -128.446, -816.794, -110.537, -69.6485, -422.434, 0.00599958, 0.00802834, -0.0208495, 0.0038208, 0.0038208, 0.0038208
3528, 1,0.00462521, -0.00290706, 0.00193046, -39.2582, -183.709, 0.0219983, -107.992, 470.561, 0.509248, 0.000705026, 0.00544413, 0.0103286, -52.868, 310.902, 0.0623672, 0.000708873, 0.00382776, 0.00664073, -24.9178, 170.246, 0.0618885, 0.000710551, -78.3422, -238.801, -615.564, -55.1491, -134.668, -320.92, 0.00473337, 0.000312329, -0.0102727, 0.00283337, 0.00283337, 0.00283337
3529, 1,0.00278735, -0.00183288, 0.001289, 21.8013, -120.489, 0.00732226, 6.91363, 291.309, 0.0841527, 0.00103088, 0.00353189, 0.00587637, 23.1246, 193.194, 0, 0.00103276, 0.00204323, 0.00330297, 20.4977, 102.206, 0, 0.00103429, 22.9588, -283.993, -318.548, 20.2737, -159.814, -167.076, 0.00352838, -0.0029592, -0.00370421, 0.00203849, 0.00203849, 0.00203849
3530, 1,0.0021759, -0.00112259, 0.000869064, 32.4318, -74.199, 0.00510347, 124.381, 156.935, 0, 0.00124701, 0.00279141, 0.0038747, 40.3769, 122.99, 0, 0.00124769, 0.00156042, 0.00213673, 24.4878, 66.178, 0, 0.00124885, 40.3672, -273.163, -136.174, 24.4784, -149.363, -73.6491, 0.0027912, -0.00384202, -0.000944973, 0.00156022, 0.00156022, 0.00156022
3531, 1,0.00128267, -0.000718917, 0.000540826, 8.17605, -49.453, 0.00275821, 37.5799, 124.64, 0, 0.00208066, 0.0016454, 0.00241448, 9.84284, 91.2487, 0, 0.00208179, 0.000919933, 0.00133294, 6.50931, 49.6658, 0, 0.00208319, 8.63376, -72.8062, -209.574, 5.83162, -40.4422, -114.387, 0.00161985, -0.00010312, -0.00299745, 0.000905632, 0.000905632, 0.000905632
3532, 1,0.00161935, -0.000813507, 0.000646004, 51.7263, -45.8367, 0.00298953, 95.5438, 61.454, 0, 0.00194294, 0.00209783, 0.00283793, 66.9503, 43.2519, 0, 0.00194351, 0.00114088, 0.00154597, 36.503, 23.3971, 0, 0.00194414, 4.27331, 66.737, -200.766, 2.73367, 36.3749, -109.3, 0.000771594, 0.00209329, -0.00356674, 0.000426305, 0.000426305, 0.000426305
3533, 1,0.00212496, -0.000826705, 0.000728498, 84.5853, -43.6111, 0.00394417, 158.802, 37.0834, 0, 0.0018846, 0.00275524, 0.00318854, 109.833, 27.3826, 0, 0.00188489, 0.00149469, 0.00173159, 59.3386, 15.1836, 0, 0.00188527, -0.463231, 109.796, -191.481, -0.581581, 59.3184, -104.288, 0.000421428, 0.00275447, -0.00362024, 0.000226789, 0.000226789, 0.000226789
3534, 1,0.00155057, -0.000489913, 0.000475462, 71.309, -23.6337, 0.00276225, 125.374, 6.9488, 0, 0.00189096, 0.00201153, 0.00208306, 92.6142, 3.29565, 0, 0.00189107, 0.00108966, 0.00113222, 50.006, 2.00597, 0, 0.00189111, 1.77504, 91.84, -103.502, 0.997834, 49.5786, -56.5943, 8.94289E-05, 0.00199512, -0.00213803, 5.26715E-05, 5.26715E-05, 5.26715E-05
3535, 1,0.00074836, 0.000229058, 0.000181146, 56.2949, 17.2205, 0.00121402, 91.941, -46.4325, 0, 0.0018602, 0.000977343, 0.000769967, 73.5117, -36.702, 0, 0.00185991, 0.000519445, 0.00040789, 39.0812, -19.5194, 0, 0.00185939, 0.832095, 52.3063, 56.9677, 0.614475, 27.9212, 30.0225, -0.000560459, 0.00052862, 0.000627414, -0.000294436, -0.000294436, -0.000294436
3536, 1,0.00281828, 0.000856459, 0.000595004, 178.248, 54.1084, 0.00496368, 311.494, -103.316, 0, 0.00183004, 0.00367474, 0.00255183, 232.356, -78.836, 0, 0.00182931, 0.00196184, 0.00136193, 124.14, -42.2104, 0, 0.00182823, -8.82403, 13.5099, 231.822, -4.56089, 7.32355, 123.868, -0.00142834, -0.000955857, 0.00366349, -0.000761278, -0.000761278, -0.000761278
3537, 1,0.00125236, -0.000522015, 0.000450898, 48.0472, -27.7046, 0.00231555, 90.7716, 25.0721, 0, 0.00195574, 0.00163208, 0.00195846, 62.959, 19.0449, 0, 0.00195593, 0.000872714, 0.00105677, 33.1383, 10.8939, 0, 0.00195619, 1.96307, 58.5725, -117.67, 0.891375, 30.7975, -64.3705, 0.000341454, 0.00153899, -0.00218949, 0.000190401, 0.000190401, 0.000190401
3538, 1,0.00122712, 0.00037213, 0.000248459, 77.6342, 23.5963, 0.00207147, 114.275, -22.0055, 0, 0.00185786, 0.00159923, 0.00106853, 101.229, -34.4514, 0, 0.00185823, 0.000855034, 0.000576239, 54.0403, -18.3059, 0, 0.00185774, 1.09776, 45.7447, 56.5117, 0.0786545, 24.7805, 30.0586, -0.000519383, 0.000424615, 0.000653821, -0.000286655, -0.000286655, -0.000286655
3539, 1,0.0033066, 0.000997623, 0.000684037, 205.159, 62.5779, 0.00618704, 356.973, -86.7466, 0, 0.0017948, 0.00430412, 0.00298608, 267.732, -86.3971, 0, 0.00179479, 0.00230918, 0.00161847, 142.59, -44.9409, 0, 0.00179358, -14.4179, 9.81331, 263.796, -10.2671, 4.52524, 140.565, -0.00166574, -0.00115352, 0.00422126, -0.000924979, -0.000924979, -0.000924979
3540, 1,0.000785744, -0.000585868, 0.000403485, 15.4503, -34.6964, 0.00147069, 20.7158, 65.5401, 0, 0.00212215, 0.00100671, 0.00179494, 18.8855, 38.552, 0, 0.00212308, 0.000564856, 0.000988177, 12.0187, 19.7236, 0, 0.00212373, 17.7685, 16.2014, -149.626, 11.2437, 10.4002, -80.8146, 0.00098314, 0.000949748, -0.00255848, 0.000548536, 0.000548536, 0.000548536
3541, 1,0.00150832, 0.000445299, 0.000357997, 79.3211, 24.7849, 0.00475363, 244.871, -27.1755, 0, 0.00178837, 0.00195318, 0.00157133, 104.086, -15.8146, 0, 0.00178804, 0.00106383, 0.000856845, 54.572, -5.76783, 0, 0.00178775, -12.1007, 14.6176, 44.927, -10.7891, 4.75194, 23.3407, -0.00050512, 5.78803E-05, 0.000703869, -0.00031913, -0.00031913, -0.00031913
3542, 1,0.00426987, 0.00126856, 0.00086873, 260.379, 78.4382, 0.0178518, 444.505, -113.784, 0.202144, 0.00169939, 0.00553766, 0.00388258, 338.787, -103.39, 0, 0.0016987, 0.00300274, 0.00214776, 181.996, -53.7273, 0, 0.00169733, -28.0992, 4.97763, 333.29, -20.8879, 2.45739, 179.612, -0.00222286, -0.00152385, 0.00542445, -0.0012881, -0.0012881, -0.0012881
3543, 1,0.00713113, 0.00172566, 0.00120746, 329.077, 98.9117, 0.0493787, 555.629, -278.777, 0.792715, 0.00155782, 0.00885387, 0.00617866, 427.936, -123.398, 0.0347825, 0.00154839, 0.00541019, 0.00378689, 230.264, -68.3944, 0.0334398, 0.00154698, -31.1532, -23.2604, 424.606, -11.2246, -12.3062, 228.714, -0.00346568, -0.00326419, 0.00877192, -0.002096, -0.002096, -0.002096
3544, 1,0.0177395, 0.00310302, 0.00217137, 357.28, 116.025, 0.0722091, 751.896, -265.976, 1, 0.00137618, 0.0208413, 0.0158513, 473.298, -171.797, 0.267455, 0.00136728, 0.0146383, 0.0115115, 241.27, -91.8918, 0.228944, 0.00136514, 53.5423, -10.1874, 472.037, 38.0192, -2.82321, 240.48, -0.00663958, -0.0108466, 0.0207631, -0.00448986, -0.00448986, -0.00448986
3545, 1,0.031693, 0.00518007, 0.00377667, 373.164, 122.289, 0.0791648, 931.314, -315.749, 1, 0.00121239, 0.0368454, 0.0285297, 495.374, -202.126, 0.572179, 0.0012042, 0.0265505, 0.0210402, 251.032, -104.777, 0.473377, 0.00120119, 90.9761, 22.7909, 492.611, 51.3482, 14.2266, 248.756, -0.0117332, -0.0200015, 0.0365533, -0.00863176, -0.00863176, -0.00863176
3546, 1,0.00236136, 0.000595338, 0.000489137, 128.11, 31.4479, 0.0146858, 463.498, -148.369, 0.143249, 0.00157739, 0.00295605, 0.00226194, 159.527, -26.5081, 0, 0.00157395, 0.00176706, 0.00128598, 96.7129, -17.6184, 0, 0.00157372, -24.4206, -5.4952, 109.44, -17.971, 3.20427, 67.6219, -0.000934164, -0.000543021, 0.00190734, -0.000657682, -0.000657682, -0.000657682
3547, 1,0.00450178, 0.00100711, 0.000749594, 249.401, 57.6628, 0.0304396, 504.506, -211.616, 0.456053, 0.00131825, 0.00550243, 0.00398973, 306.827, -63.2934, 2.65434E-06, 0.00131354, 0.00350502, 0.00254307, 192.118, -36.2999, 1.79426E-07, 0.00131296, -50.3245, -44.4128, 284.617, -42.4896, -30.1229, 181.512, -0.00206146, -0.0019686, 0.00505714, -0.00147047, -0.00147047, -0.00147047
3548, 1,0.0124371, 0.00161157, 0.00110133, 356.326, 93.8391, 0.0346879, 427.804, -97.6994, 0.534187, 0.00114883, 0.0140373, 0.0104179, 450.115, -184.712, 0.148793, 0.00114999, 0.0108399, 0.0082949, 262.578, -117.811, 0.148793, 0.00114863, 79.9094, 27.0593, 447.167, 64.7116, 27.2624, 261.458, -0.00401012, -0.00663381, 0.0139127, -0.0030109, -0.0030109, -0.0030109
3549, 1,0.00134256, -0.000830869, 0.0005983, 5.55067, -56.3072, 0.00247948, -14.1632, 176.454, 0, 0.0016807, 0.00170812, 0.00275782, 5.78897, 100.675, 0, 0.00168277, 0.000977143, 0.00156451, 5.31914, 54.8948, 0, 0.00168402, 5.11193, -57.103, -250.035, 5.01277, -30.9885, -138.709, 0.00169387, 0.000378483, -0.00370604, 0.000970737, 0.000970737, 0.000970737
3550, 1,0.00173786, -0.00108919, 0.000771128, -20.7313, -77.2337, 0.00403632, -10.9185, 270.942, 0, 0.00115815, 0.00219046, 0.00384479, -25.093, 172.776, 0, 0.00116, 0.00128563, 0.00231419, -16.3519, 103.582, 0, 0.0011613, -26.2023, -118.486, -373.641, -17.1365, -71.7725, -221.837, 0.00216711, 0.000221198, -0.005192, 0.00126913, 0.00126913, 0.00126913
3551, 1,0.00185376, -0.00125955, 0.000858812, -15.5013, -87.1906, 0.00575078, 7.74464, 305.823, 0.0240233, 0.000997175, 0.00230662, 0.0042919, -21.7299, 175.514, 0, 0.000999353, 0.00140514, 0.00258665, -9.07716, 101.245, 0, 0.00100056, -28.8887, -99.133, -398.519, -15.4074, -56.5937, -231.735, 0.0021537, 0.000693249, -0.00569506, 0.00126924, 0.00126924, 0.00126924
3552, 1,0.0105263, -0.00400115, 0.00261745, -35.0641, -212.01, 0.0362903, -77.2165, 449.106, 0.862903, 0.000734578, 0.0117437, 0.0183791, -50.2678, 365.65, 0.226581, 0.000739935, 0.00931459, 0.0131807, -19.7268, 192.807, 0.211805, 0.000742339, -165.82, -129.186, -801.943, -101.903, -67.6037, -408.915, 0.00660786, 0.00835058, -0.0217508, 0.00432951, 0.00432951, 0.00432951
3553, 1,0.00467433, -0.00292641, 0.00195548, -42.3102, -184.027, 0.0217419, -108.096, 470.396, 0.502197, 0.000732231, 0.00550312, 0.0104538, -55.2218, 314.559, 0.0643285, 0.000736131, 0.0038761, 0.0067437, -28.3735, 174.674, 0.063803, 0.000737867, -83.8033, -249.882, -609.992, -61.9533, -143.459, -318.611, 0.00470191, 9.24062E-05, -0.0100888, 0.00276314, 0.00276314, 0.00276314
3554, 1,0.00287315, -0.0018227, 0.00128738, 28.7619, -119.069, 0.00734098, 20.6492, 276.234, 0.0823437, 0.00106124, 0.00362446, 0.00594663, 31.3434, 188.017, 0, 0.00106299, 0.00212235, 0.00337703, 26.2048, 99.5487, 0, 0.00106451, 26.4761, -276.873, -313.653, 22.8738, -156.666, -164.854, 0.00352154, -0.00289063, -0.00368192, 0.00205196, 0.00205196, 0.00205196
3555, 1,0.00216848, -0.00109065, 0.000850246, 35.7766, -71.431, 0.00499938, 128.442, 144.867, 0, 0.00127892, 0.00277833, 0.00380589, 44.7124, 116.334, 0, 0.00127952, 0.00155864, 0.00210548, 26.8409, 62.9032, 0, 0.00128063, 42.3623, -258.521, -132.844, 25.5478, -141.923, -72.3349, 0.00272867, -0.00363713, -0.000979322, 0.00153135, 0.00153135, 0.00153135
3556, 1,0.00111195, -0.00081523, 0.000562219, -3.70219, -54.7593, 0.00224436, 2.20365, 139.541, 0, 0.00214759, 0.00142111, 0.0025474, -5.32145, 97.3818, 0, 0.00214906, 0.00080281, 0.00142311, -2.08148, 53.7721, 0, 0.00215058, -6.56274, -46.1298, -239.453, -2.87201, -25.7805, -132.664, 0.00139496, 0.000557917, -0.00353312, 0.000786208, 0.000786208, 0.000786208
3557, 1,0.00198254, -0.000946275, 0.00076255, 62.3372, -53.5591, 0.00388253, 129.778, 72.1601, 0, 0.00200632, 0.00256131, 0.00339763, 80.8531, 54.0019, 0, 0.00200691, 0.00140382, 0.00187263, 43.8235, 30.2573, 0, 0.00200768, -2.6593, 80.5944, -239.941, -1.47784, 43.6661, -132.96, 0.000794242, 0.0025558, -0.00422635, 0.000445267, 0.000445267, 0.000445267
3558, 1,0.00242008, -0.000964418, 0.000838884, 91.2978, -51.6952, 0.00461433, 184.403, 45.2396, 0, 0.00194578, 0.00313341, 0.00371568, 118.894, 39.2193, 0, 0.00194597, 0.00170677, 0.00203794, 63.702, 22.7866, 0, 0.00194649, -4.24135, 118.843, -232.26, -3.14038, 63.6739, -128.893, 0.000527939, 0.00313232, -0.00429668, 0.000292419, 0.000292419, 0.000292419
3559, 1,0.00182137, -0.00059824, 0.000567112, 79.6843, -29.7132, 0.00330694, 151.121, 6.94294, 0, 0.00195244, 0.00235731, 0.00252413, 103.574, 10.5269, 0, 0.00195233, 0.00128545, 0.00138996, 55.7963, 6.65842, 0, 0.00195245, -0.141049, 102.635, -134.075, -0.187328, 55.2838, -75.0717, 0.000162808, 0.00233741, -0.00267104, 0.0001009, 0.0001009, 0.0001009
3560, 1,0.000846461, 0.000254088, 0.000194099, 60.2861, 18.4118, 0.00172105, 125.449, -59.2569, 0, 0.00192055, 0.00110009, 0.000830228, 78.6759, -35.8462, 0, 0.00191982, 0.000593202, 0.000442729, 41.9139, -18.6412, 0, 0.00191928, 0.212642, 61.5299, 45.7959, 0.0674807, 33.1281, 22.7281, -0.000560063, 0.000737229, 0.000404521, -0.000292156, -0.000292156, -0.000292156
3561, 1,0.00289536, 0.000882135, 0.000609012, 184.205, 56.1974, 0.00583014, 372.6, -130.394, 0, 0.00188938, 0.00377749, 0.00261301, 240.402, -83.1225, 0, 0.00188793, 0.00201323, 0.00139503, 128.008, -44.1444, 0, 0.00188674, -6.57103, 16.5076, 239.431, -3.84827, 8.80861, 127.473, -0.00144817, -0.000959959, 0.00375698, -0.00077665, -0.00077665, -0.00077665
3562, 1,0.00164894, -0.000640112, 0.000561835, 64.1883, -33.9645, 0.00342545, 147.469, 19.3705, 0, 0.00201968, 0.00213248, 0.00250621, 83.3287, 23.4519, 0, 0.00201955, 0.00116542, 0.00138258, 45.0488, 13.4779, 0, 0.00201987, -0.138765, 77.3338, -147.551, 0.145704, 41.7073, -82.2868, 0.000366415, 0.00200526, -0.00275224, 0.000215345, 0.000215345, 0.000215345
3563, 1,0.00152169, 0.000453576, 0.000320657, 93.0433, 27.9041, 0.00336379, 199.811, -54.8653, 0, 0.00191872, 0.00197501, 0.00141696, 120.935, -37.0631, 0, 0.00191816, 0.00106859, 0.000776277, 65.1629, -19.6854, 0, 0.00191762, 3.27892, 60.354, 47.5563, 2.11428, 32.8686, 24.0735, -0.000514341, 0.000692323, 0.000423451, -0.000265285, -0.000265285, -0.000265285
3564, 1,0.00342806, 0.00104882, 0.00071473, 217.649, 66.1115, 0.00702567, 424.411, -124.099, 0, 0.00185338, 0.00447686, 0.00303759, 283.759, -96.9608, 0, 0.00185256, 0.00237928, 0.00160843, 151.539, -52.5111, 0, 0.00185123, -3.20616, 17.7348, 276.354, -0.377202, 10.449, 147.462, -0.00159486, -0.00115244, 0.00432071, -0.000834916, -0.000834916, -0.000834916
3565, 1,0.00145784, -0.00071913, 0.000554594, 48.3722, -40.3949, 0.00329612, 115.713, 53.819, 0, 0.00219086, 0.00184758, 0.00257073, 60.3835, 36.1899, 0, 0.00219148, 0.00106832, 0.00146199, 36.3716, 18.9729, 0, 0.0021921, 13.4219, 57.1198, -179.111, 8.46893, 34.5048, -99.8925, 0.000854029, 0.00177798, -0.00321928, 0.000478067, 0.000478067, 0.000478067
3566, 1,0.00221962, 0.000615872, 0.000507318, 117.138, 33.9046, 0.00653756, 350.634, -55.9995, 0, 0.0018467, 0.00283476, 0.0023626, 151.008, -22.8692, 0, 0.00184571, 0.00160504, 0.00134927, 83.2941, -9.97951, 0, 0.00184532, -9.66048, 40.9828, 37.2853, -8.66625, 21.1588, 17.4459, -0.000564424, 0.000503439, 0.00043209, -0.000340371, -0.000340371, -0.000340371
3567, 1,0.00449286, 0.00134922, 0.000906389, 277.4, 84.387, 0.0220798, 461.167, -136.939, 0.283862, 0.00175456, 0.00584193, 0.00400134, 361.784, -114.876, 0, 0.00175319, 0.0031439, 0.00219434, 193.02, -59.4729, 0, 0.00175162, -12.3544, 7.75978, 349.222, -9.98956, 1.9348, 186.473, -0.00206832, -0.00164834, 0.00558078, -0.00114568, -0.00114568, -0.00114568
3568, 1,0.00822618, 0.00180498, 0.00123737, 336.366, 104.651, 0.0532491, 532.422, -234.128, 0.845895, 0.00160635, 0.0100304, 0.00707281, 441.005, -132.065, 0.0554015, 0.00159836, 0.00642243, 0.00461505, 231.738, -69.663, 0.0542942, 0.00159669, -24.3056, -8.20966, 428.709, -13.7743, -2.1258, 224.889, -0.00395965, -0.00350147, 0.00967255, -0.00271021, -0.00271021, -0.00271021
3569, 1,0.0182691, 0.00322149, 0.00224329, 358.074, 116.179, 0.0717144, 715.827, -238.555, 1, 0.00142049, 0.0214803, 0.0156774, 474.195, -169.771, 0.277511, 0.0014127, 0.0150622, 0.0112595, 242.013, -90.6703, 0.235083, 0.00141049, 26.2723, 19.2696, 463.771, 19.784, 16.7182, 235.509, -0.00850562, -0.00904099, 0.0208064, -0.00620545, -0.00620545, -0.00620545
3570, 1,0.0299009, 0.00496646, 0.00353238, 361.392, 119.726, 0.0778977, 888.028, -296.167, 1, 0.00125384, 0.0348238, 0.0259299, 480.979, -175.426, 0.528708, 0.00124529, 0.0249945, 0.0189498, 241.942, -87.8816, 0.436441, 0.00124262, 36.2325, 18.8337, 471.211, 18.6619, 10.1305, 234.852, -0.0138789, -0.0159033, 0.0338203, -0.0102959, -0.0102959, -0.0102959
3571, 1,0.00324336, 0.000819705, 0.000690638, 176.52, 44.0285, 0.0184579, 462.913, -145.572, 0.217071, 0.00162918, 0.00405971, 0.00338021, 220.374, -38.0508, 0, 0.00162581, 0.00242932, 0.0020076, 132.786, -23.8526, 0, 0.00162543, -5.56803, 31.6316, 88.0887, -2.91781, 26.1966, 48.2792, -0.000715448, 5.40132E-05, 0.0012789, -0.000435738, -0.000435738, -0.000435738
3572, 1,0.00508047, 0.00118386, 0.000910925, 277.756, 66.5323, 0.0323313, 478.211, -166.106, 0.486837, 0.00135903, 0.00626088, 0.00481765, 344.155, -80.3116, 0.00505378, 0.00135578, 0.00390214, 0.00300449, 211.439, -48.2816, 0.0039756, 0.00135508, -3.8667, 1.37171, 243.43, -2.99187, -0.493476, 148.33, -0.00141872, -0.00135887, 0.00408451, -0.000877337, -0.000877337, -0.000877337
3573, 1,0.0112964, 0.00153848, 0.00107015, 334.298, 88.662, 0.0349835, 444.94, -110.486, 0.532674, 0.00118595, 0.0128138, 0.00955416, 422.808, -145.864, 0.123645, 0.00118594, 0.00978542, 0.00746219, 245.903, -87.1434, 0.123645, 0.00118472, 34.6333, 9.52246, 393.437, 26.9381, 5.82261, 228.669, -0.00394347, -0.00511481, 0.0116007, -0.00299495, -0.00299495, -0.00299495
3574, 1,0.00139551, -0.000991054, 0.000662807, 4.43769, -63.2141, 0.00369516, 41.3191, 179.092, 0, 0.00173251, 0.0017215, 0.00325254, 3.46938, 104.66, 0, 0.00173461, 0.00107145, 0.00193787, 5.49911, 60.6634, 0, 0.00173585, -12.9227, 0.905767, -301.962, -9.76345, 4.32306, -176.55, 0.00137532, 0.00166712, -0.00474078, 0.000749244, 0.000749244, 0.000749244
3575, 1,0.00176024, -0.00121863, 0.000833288, -21.8009, -81.2465, 0.0039869, -12.1586, 269.461, 0, 0.00120143, 0.00220411, 0.00434532, -24.4741, 172.794, 0, 0.00120331, 0.00132063, 0.00269368, -18.9205, 109.258, 0, 0.00120455, -28.6616, -58.0234, -431.698, -22.9432, -34.0684, -270.762, 0.00211631, 0.0014946, -0.00641489, 0.00123665, 0.00123665, 0.00123665
3576, 1,0.0022511, -0.00134502, 0.000936714, -17.9356, -91.7453, 0.00549952, 17.5347, 325.599, 0, 0.00103058, 0.00277304, 0.00504518, -21.4148, 204.671, 0, 0.0010326, 0.00173358, 0.00318068, -14.2543, 129.012, 0, 0.00103387, -32.5693, -87.0857, -494.357, -23.9557, -51.3151, -311.764, 0.00253655, 0.00139584, -0.00725364, 0.00152725, 0.00152725, 0.00152725
3577, 1,0.00963277, -0.0041344, 0.0027792, -39.7329, -198.673, 0.0322756, -70.7449, 371.604, 0.916385, 0.000763289, 0.010999, 0.0187578, -52.5608, 316.876, 0.264101, 0.000768123, 0.00827953, 0.0132717, -26.6749, 163.697, 0.239921, 0.000770402, -71.3478, -117.035, -762.245, -41.4529, -61.5203, -388.119, 0.0100837, 0.00791644, -0.024031, 0.00728706, 0.00728706, 0.00728706
3578, 1,0.00533843, -0.00275354, 0.00187961, 13.3215, -170.427, 0.0184108, -77.5174, 369.135, 0.500204, 0.000759823, 0.00634406, 0.010563, 13.2994, 253.286, 0.071083, 0.000762891, 0.00433284, 0.00680845, 13.3451, 129.463, 0.070688, 0.000764489, 4.20195, -186.546, -577.514, 8.25228, -100.958, -295.684, 0.00608266, 0.000549029, -0.0109116, 0.00415621, 0.00415621, 0.00415621
3579, 1,0.0023392, -0.0016469, 0.00116261, 11.7793, -106.864, 0.00557487, 59.4872, 228.93, 0.0225998, 0.00109222, 0.00301347, 0.00515373, 14.6177, 171.69, -2.71051E-20, 0.00109328, 0.00166794, 0.00283744, 9.08272, 93.6921, -2.71051E-20, 0.00109467, 4.16955, -204.423, -314.816, 1.24352, -114.848, -167.472, 0.00279287, -0.00161703, -0.0039619, 0.00150252, 0.00150252, 0.00150252
3580, 1,0.00178245, -0.00092057, 0.000709906, 24.2247, -61.3399, 0.00366258, 63.723, 146.938, 0, 0.00131182, 0.00228162, 0.00319334, 29.9831, 104.585, 0, 0.00131272, 0.00128333, 0.00177372, 18.4691, 56.671, 0, 0.00131374, 27.1823, -199.176, -141.763, 16.7609, -109.054, -77.7193, 0.00222257, -0.00256669, -0.00135302, 0.00124742, 0.00124742, 0.00124742
3581, 1,0.00452779, 0.0013017, 0.000877083, 279.475, 81.3525, 0.0160427, 453.796, -129.192, 0.167321, 0.00159247, 0.00582881, 0.00399968, 360.799, -114.564, 0, 0.00159175, 0.00322733, 0.0022482, 198.172, -61.2776, 0, 0.00159037, -11.5638, 6.95423, 348.301, -8.99779, 1.0744, 191.756, -0.00204782, -0.00166, 0.00556687, -0.00115426, -0.00115426, -0.00115426
3582, 1,0.00348817, 0.00101616, 0.000692639, 222.883, 63.9946, 0.0065752, 403.033, -123.978, 0, 0.00167772, 0.0045043, 0.00306152, 286.876, -99.4137, 0, 0.00167705, 0.00247206, 0.00167639, 158.891, -56.5048, 0, 0.00167588, -2.10267, 20.5904, 279.753, 0.630158, 13.7986, 155.085, -0.00161027, -0.00113058, 0.00435407, -0.000876633, -0.000876633, -0.000876633
3583, 1,0.00301614, 0.000858122, 0.0005927, 191.584, 54.6925, 0.00548958, 349.898, -121.521, 0, 0.00171467, 0.00387424, 0.0026716, 246.275, -84.8721, 0, 0.00171365, 0.00215806, 0.00148625, 136.893, -46.8882, 0, 0.00171259, -5.94307, 15.1516, 245.408, -3.4053, 7.61046, 136.459, -0.0014625, -0.00101618, 0.00385592, -0.000810556, -0.000810556, -0.000810556
3584, 1,0.00235031, 0.000643284, 0.000514786, 128.821, 36.2143, 0.00585725, 318.702, -56.2776, 0, 0.00166612, 0.0029928, 0.00238403, 165, -31.6627, 0, 0.00166546, 0.0017084, 0.00135637, 92.6682, -16.0477, 0, 0.00166504, -9.44719, 34.0684, 70.3669, -9.00359, 16.3633, 40.7834, -0.000698649, 0.000219085, 0.000993364, -0.00044333, -0.00044333, -0.00044333
3585, 1,0.00172345, 0.000488813, 0.000331655, 109.957, 30.7415, 0.00338293, 203.932, -59.1856, 0, 0.00171612, 0.0022112, 0.00147703, 140.649, -48.5665, 0, 0.00171583, 0.00123655, 0.000818312, 79.3038, -28.0397, 0, 0.00171526, 4.2644, 58.4116, 83.0235, 2.81096, 31.7331, 49.5749, -0.000674769, 0.000470124, 0.000992749, -0.000382225, -0.000382225, -0.000382225
3586, 1,0.00105466, 0.000285638, 0.000222928, 78.4021, 21.3154, 0.00186695, 138.644, -67.7254, 0, 0.00173404, 0.00133824, 0.00104317, 99.6205, -48.8695, 0, 0.00173351, 0.00077256, 0.000600117, 57.2534, -27.8692, 0, 0.00173292, 1.3673, 63.1954, 82.0457, 0.740108, 34.2034, 48.6642, -0.0007408, 0.000567392, 0.000966428, -0.000423317, -0.000423317, -0.000423317
3587, 1,0.00134347, -0.000616712, 0.000485147, 52.6117, -34.0738, 0.0030904, 114.542, 42.3283, 0, 0.00196361, 0.00169587, 0.00217777, 64.3416, 21.2214, 0, 0.00196428, 0.000992013, 0.00121076, 40.9248, 7.98288, 0, 0.00196471, 14.949, 51.7019, -130.315, 9.58776, 32.4412, -65.9776, 0.000650491, 0.00142741, -0.00242227, 0.000328543, 0.000328543, 0.000328543
3588, 1,0.00156668, -0.000521884, 0.000495133, 72.9888, -25.5774, 0.00335033, 155.038, 4.43053, 0, 0.00182248, 0.0020346, 0.00210302, 94.1911, 2.63786, 0, 0.00182253, 0.00109917, 0.00111409, 51.8054, 0.18581, 0, 0.0018226, 2.99244, 82.6493, -93.5553, 1.43216, 44.8416, -46.8312, 0.000104815, 0.0017899, -0.00193752, 3.31801E-05, 3.31801E-05, 3.31801E-05
3589, 1,0.00170195, 0.000512977, 0.000481769, 89.0218, 26.081, 0.0032715, 165.074, -14.0529, 0, 0.00176868, 0.00221489, 0.00202928, 115.101, -14.0041, 0, 0.00176867, 0.00118904, 0.00106585, 62.9441, -9.06769, 0, 0.00176853, 3.88706, 113.249, -75.1234, 2.21286, 61.8692, -36.879, -0.00013835, 0.00217565, -0.00181005, -9.60271E-05, -9.60271E-05, -9.60271E-05
3590, 1,0.00233849, -0.000791475, 0.000745265, 106.949, -39.1677, 0.00456579, 202.907, 17.2988, 0, 0.00175127, 0.00303755, 0.00319, 138.225, 7.16279, 0, 0.00175156, 0.00163944, 0.00169948, 75.6735, 2.42867, 0, 0.00175169, 3.62612, 138.089, -163.203, 2.02809, 75.5953, -84.9094, 0.00018952, 0.00303465, -0.0033404, 8.11445E-05, 8.11445E-05, 8.11445E-05
3591, 1,0.00194867, -0.000814329, 0.000692579, 77.3786, -43.6846, 0.003902, 147.767, 49.2294, 0, 0.0018203, 0.00251942, 0.00299759, 99.1542, 26.755, 0, 0.00182096, 0.00137799, 0.00161266, 55.6061, 12.787, 0, 0.00182138, 4.84513, 98.2629, -183.373, 2.90568, 55.0274, -96.2942, 0.000523888, 0.0025005, -0.00345855, 0.000262854, 0.000262854, 0.000262854
3592, 1,0.000997392, -0.00072899, 0.000513871, 0.48147, -48.9992, 0.00223585, 6.22506, 133.594, 0, 0.00195357, 0.00129564, 0.00222822, 0.0308659, 82.2208, 0, 0.0019552, 0.000699609, 0.00120135, 0.95412, 43.1365, 0, 0.00195644, -1.14631, -36.8216, -208.694, 0.0358943, -17.7762, -111.669, 0.00127071, 0.00051602, -0.00312095, 0.000680143, 0.000680143, 0.000680143
3593, 1,0.0018402, -0.000956425, 0.000743398, 22.9502, -65.2072, 0.00401108, 60.5666, 173.3, 0, 0.00122898, 0.00237033, 0.00325573, 27.999, 112.879, 0, 0.00123018, 0.00131027, 0.00176965, 17.911, 59.1267, 0, 0.00123126, 27.057, -222.889, -142.806, 17.2204, -118.428, -76.1722, 0.00235043, -0.00293763, -0.00124453, 0.00129569, 0.00129569, 0.00129569
3594, 1,0.00201264, -0.00157197, 0.00111686, -3.4232, -103.586, 0.00516928, 53.9058, 235.514, 0.0101576, 0.00108593, 0.00267011, 0.00465681, -1.64156, 171.721, 0, 0.00108708, 0.00135936, 0.00243198, -5.00885, 93.0165, 0, 0.00108847, -4.84963, -199.167, -311.147, -8.01106, -107.913, -163.125, 0.00260222, -0.00150438, -0.00388441, 0.00129573, 0.00129573, 0.00129573
3595, 1,0.00462526, -0.00253634, 0.00172215, 21.7542, -158.889, 0.0176992, -79.5205, 363.314, 0.491726, 0.000818203, 0.00553213, 0.00931764, 20.5626, 232.355, 0.0497461, 0.000821686, 0.00371879, 0.00587478, 22.96, 116.5, 0.0491151, 0.000823277, 18.5412, -143.774, -571.831, 21.8642, -72.6905, -298.672, 0.00547831, 0.00112974, -0.0104862, 0.00368534, 0.00368534, 0.00368534
3596, 1,0.00751499, -0.00360735, 0.00241647, -34.0925, -194.699, 0.0303226, -63.7724, 368.805, 0.842252, 0.000722669, 0.00870709, 0.0152169, -44.8917, 306.244, 0.18021, 0.00072685, 0.006334, 0.0104298, -23.0514, 157.954, 0.167375, 0.000728813, -62.2962, -104.554, -751.881, -36.2273, -54.1981, -383.438, 0.0080077, 0.00637892, -0.0199119, 0.00562764, 0.00562764, 0.00562764
3597, 1,0.00173916, -0.00120347, 0.000835549, -16.8432, -81.8566, 0.005035, 11.2959, 304.483, 0, 0.000924007, 0.00219399, 0.00404047, -20.2751, 166.273, 0, 0.000926082, 0.00129417, 0.00239047, -12.9745, 99.2068, 0, 0.00092709, -41.3791, -57.0863, -400.355, -30.4908, -30.0354, -237.094, 0.00174511, 0.00142306, -0.00586634, 0.000919227, 0.000919227, 0.000919227
3598, 1,0.010344, 0.00134396, 0.000942153, 341.882, 78.7201, 0.0329457, 444.629, -110.148, 0.493796, 0.00109092, 0.0116763, 0.00859382, 420.487, -146.635, 0.102238, 0.00109098, 0.00901497, 0.00673527, 263.351, -94.9596, 0.102238, 0.00109001, 24.4664, 26.8881, 388.55, 22.2782, 20.4752, 242.125, -0.00397914, -0.00396385, 0.0104664, -0.00309649, -0.00309649, -0.00309649
3599, 1,0.0270985, 0.00443401, 0.00314839, 359.471, 119.334, 0.0743573, 786.665, -259.153, 1, 0.00116653, 0.0314886, 0.0235172, 478.653, -173.676, 0.467714, 0.0011599, 0.0227245, 0.0173054, 240.437, -86.1541, 0.391091, 0.00115755, 31.0881, 22.6106, 467.329, 14.697, 11.4355, 232.33, -0.0128309, -0.0137883, 0.030433, -0.00963024, -0.00963024, -0.00963024
3600, 1,0.00115159, -0.00098894, 0.000677176, -16.9617, -65.7082, 0.00341482, -16.543, 239.025, 0, 0.00102375, 0.00151147, 0.00315178, -18.9184, 121.354, 0, 0.0010257, 0.00089513, 0.00185627, -10.2258, 70.3969, 0, 0.00102655, -22.8691, -35.9, -305.292, -18.1967, -15.0144, -177.98, 0.00142824, 0.00115053, -0.00454801, 0.00072454, 0.00072454, 0.00072454
3601, 1,0.00548016, 0.00109604, 0.000849612, 281.586, 62.0772, 0.0305808, 483.895, -176.549, 0.454881, 0.00120416, 0.00657246, 0.00500104, 343.539, -79.5242, 0.0113865, 0.0012011, 0.00438966, 0.00331303, 219.7, -50.7458, 0.0112756, 0.00120054, -17.7244, 1.99764, 254.299, -13.4885, 3.12669, 162.599, -0.00182368, -0.00141487, 0.00453727, -0.00128207, -0.00128207, -0.00128207
3602, 1,0.0168073, 0.00291062, 0.00202331, 355.277, 115.496, 0.0683423, 640.446, -230.903, 1, 0.00127131, 0.0197098, 0.0143053, 470.724, -164.932, 0.243177, 0.00126448, 0.013908, 0.010336, 239.881, -86.9239, 0.211017, 0.00126259, 16.2384, 20.9322, 457.625, 11.7594, 17.0496, 231.963, -0.00802878, -0.00780919, 0.0189346, -0.00601875, -0.00601875, -0.00601875
3603, 1,0.00117204, -0.000816893, 0.000557798, 3.68824, -53.3814, 0.00313799, 35.3541, 151.73, 0, 0.00145382, 0.00144933, 0.00261667, 2.02296, 89.2807, 0, 0.0014553, 0.000902409, 0.00152713, 5.71443, 49.587, 0, 0.00145624, -15.8902, -13.3277, -238.624, -12.1792, -2.17192, -134.41, 0.00107002, 0.00112346, -0.00364226, 0.000523362, 0.000523362, 0.000523362
3604, 1,0.00340017, 0.000823892, 0.000683428, 193.374, 44.9581, 0.0148525, 434.56, -103.856, 0.145517, 0.0014393, 0.00422327, 0.00338075, 238.294, -51.9475, 0, 0.00143788, 0.00257756, 0.00201514, 148.478, -35.7809, 0, 0.0014375, -1.55247, 27.5203, 129.875, 0.68697, 24.0663, 82.5893, -0.000850167, -0.000248106, 0.00194124, -0.000548164, -0.000548164, -0.000548164
3605, 1,0.0078336, 0.00173181, 0.0011872, 330.581, 101.368, 0.0433638, 511.587, -206.571, 0.678369, 0.00143638, 0.0095643, 0.00680013, 431.928, -125.953, 0.0481605, 0.00143166, 0.0061035, 0.00443043, 229.25, -65.2915, 0.0474238, 0.00143021, -24.7182, -14.1913, 416.769, -15.6664, -8.90294, 220.444, -0.00365867, -0.00337673, 0.00913572, -0.00246532, -0.00246532, -0.00246532
3606, 1,0.00435708, 0.00126016, 0.000864391, 264.108, 77.8644, 0.0162579, 441.184, -108.981, 0.170675, 0.00164936, 0.00561601, 0.00393584, 341.921, -102.705, 0, 0.00164889, 0.00309915, 0.00220929, 186.337, -53.5172, 0, 0.00164757, -27.3424, -0.476033, 335.934, -20.1537, -2.96168, 183.667, -0.00219608, -0.00162908, 0.00549179, -0.00126926, -0.00126926, -0.00126926
3607, 1,0.00330319, 0.000985611, 0.000675996, 206.207, 61.7407, 0.00607333, 355.022, -91.3506, 0, 0.00173619, 0.00428853, 0.00297192, 267.935, -87.6701, 0, 0.00173609, 0.00231806, 0.00162089, 144.489, -46.938, 0, 0.00173494, -12.3988, 11.9256, 263.484, -8.1708, 6.9391, 142.046, -0.00164319, -0.00112888, 0.00419473, -0.000912201, -0.000912201, -0.000912201
3608, 1,0.00284085, 0.000843472, 0.000586116, 179.487, 53.2849, 0.00484663, 302.504, -98.6731, 0, 0.00177361, 0.00368431, 0.00255544, 232.772, -78.7899, 0, 0.00177304, 0.0019974, 0.00138324, 126.203, -42.7278, 0, 0.001772, -8.75753, 12.8985, 232.229, -4.53595, 6.78411, 125.935, -0.00142625, -0.000968062, 0.00367286, -0.000768942, -0.000768942, -0.000768942
3609, 1,0.00159743, 0.000461989, 0.000367984, 85.9215, 25.9279, 0.00459339, 240.636, -31.6589, 0, 0.00172389, 0.00205865, 0.0016375, 111.815, -19.515, 0, 0.00172356, 0.00113684, 0.000905696, 60.0565, -8.51642, 0, 0.00172325, -10.4057, 12.5843, 56.3664, -9.36828, 3.71226, 31.2053, -0.000527613, -4.33285E-05, 0.000887616, -0.000332435, -0.000332435, -0.000332435
3610, 1,0.00129955, 0.000385398, 0.000255647, 83.4471, 24.6402, 0.00212384, 119.327, -25.4699, 0, 0.00177455, 0.00168466, 0.00111903, 108.074, -38.2304, 0, 0.00177492, 0.000914702, 0.000614393, 58.8318, -20.965, 0, 0.00177442, 2.36395, 44.5138, 67.8135, 0.798195, 23.9387, 38.1582, -0.000552154, 0.000339065, 0.000833466, -0.000313354, -0.000313354, -0.000313354
3611, 1,0.000833782, 0.000241936, 0.00018932, 63.0549, 18.2791, 0.00122716, 94.0835, -48.4812, 0, 0.00179234, 0.00107535, 0.000837851, 81.3167, -40.97, 0, 0.00179212, 0.000592509, 0.000459739, 44.807, -22.5785, 0, 0.00179159, 2.14427, 52.5108, 68.2549, 1.36744, 28.1664, 38.2016, -0.000599925, 0.00046573, 0.000799027, -0.000326695, -0.000326695, -0.000326695
3612, 1,0.000790291, -0.000550605, 0.000389203, 19.0178, -32.4394, 0.00142061, 23.4353, 58.7095, 0, 0.00202755, 0.0010177, 0.00168916, 23.3488, 33.243, 0, 0.00202839, 0.000563172, 0.000911423, 14.7003, 16.0009, 0, 0.00202896, 19.0671, 15.542, -134.338, 11.8441, 10.3761, -70.223, 0.000927006, 0.00085211, -0.00231856, 0.00050261, 0.00050261, 0.00050261
3613, 1,0.00120978, -0.000485435, 0.000427965, 50.1629, -25.1434, 0.00225809, 91.5285, 20.4052, 0, 0.00188123, 0.00158023, 0.00181902, 65.47, 12.3769, 0, 0.00188148, 0.000839351, 0.000963203, 34.8572, 6.46244, 0, 0.00188166, 4.05421, 59.3559, -100.541, 2.04604, 31.4545, -52.8878, 0.0002807, 0.00145053, -0.00193208, 0.000145055, 0.000145055, 0.000145055
3614, 1,0.00149102, 0.000447964, 0.000446057, 73.2407, 21.7167, 0.0026964, 126.976, 0.615262, 0, 0.00182713, 0.00193898, 0.00191291, 94.9572, -4.45967, 0, 0.00182728, 0.00104306, 0.00102081, 51.5244, -2.994, 0, 0.00182724, 4.31675, 93.923, -84.8607, 2.44001, 50.9621, -44.4201, 2.10729E-05, 0.00191705, -0.00186575, 4.44669E-06, 4.44669E-06, 4.44669E-06
3615, 1,0.00207263, -0.000774549, 0.0006969, 88.1046, -39.8009, 0.00389229, 162.899, 28.2847, 0, 0.00181067, 0.00269188, 0.00300996, 114.176, 17.5246, 0, 0.00181098, 0.00145338, 0.00161616, 62.0333, 8.94016, 0, 0.00181123, 3.58342, 114.113, -170.27, 1.87782, 62.0007, -90.699, 0.000351807, 0.00269054, -0.00332672, 0.000180511, 0.000180511, 0.000180511
3616, 1,0.00159367, -0.000775396, 0.000623846, 55.5549, -42.9467, 0.00297231, 100.129, 54.2009, 0, 0.0018803, 0.00206594, 0.00270737, 71.5742, 35.0151, 0, 0.00188089, 0.00112141, 0.00145974, 39.5364, 18.0856, 0, 0.00188141, 7.67787, 71.1228, -183.846, 4.63251, 39.2562, -98.1456, 0.000713933, 0.00205635, -0.00333849, 0.000382855, 0.000382855, 0.000382855
3617, 1,0.00124437, -0.000687501, 0.000523873, 9.21224, -47.4804, 0.00274659, 39.7609, 120.971, 0, 0.00201079, 0.00160461, 0.002301, 11.2492, 86.768, 0, 0.00201191, 0.000884123, 0.00125327, 7.17529, 46.496, 0, 0.00201322, 11.0399, -70.7226, -200.621, 7.05376, -38.3732, -108.169, 0.00160019, -0.000129631, -0.00287857, 0.000881564, 0.000881564, 0.000881564
3618, 1,0.00214577, -0.00110868, 0.000860399, 31.059, -73.4555, 0.00508961, 125.159, 155.004, 0, 0.00125703, 0.00275785, 0.00382185, 38.9284, 122.802, 0, 0.00125768, 0.00153372, 0.00210119, 23.1909, 66.2225, 0, 0.00125884, 38.9246, -271.035, -136.297, 23.1863, -147.962, -73.8914, 0.00275777, -0.00379999, -0.000950531, 0.00153363, 0.00153363, 0.00153363
3619, 1,0.00273482, -0.00174801, 0.00123617, 23.2592, -115.561, 0.0072899, 31.4125, 273.697, 0.0723978, 0.00111744, 0.00345842, 0.00565761, 24.5107, 186.646, 0, 0.00111923, 0.00201172, 0.00318946, 22.031, 98.1221, 0, 0.00112084, 24.306, -267.644, -316.601, 21.7681, -149.639, -166.495, 0.00345404, -0.00271665, -0.00376616, 0.00200608, 0.00200608, 0.00200608
3620, 1,0.00387909, -0.00273494, 0.00182119, -44.6498, -174.892, 0.0203213, -118.928, 477.009, 0.471973, 0.000850177, 0.00467307, 0.00926806, -58.0968, 303.612, 0.0430032, 0.000854832, 0.00312867, 0.00578991, -29.5861, 168.745, 0.0421887, 0.000856752, -70.3674, -235.383, -605.086, -49.528, -136.071, -320.637, 0.00435401, 0.000125994, -0.00952796, 0.00254662, 0.00254662, 0.00254662
3621, 1,0.00870868, -0.00372582, 0.0024257, -48.3414, -209.434, 0.0352151, -95.2397, 470.704, 0.84119, 0.000756161, 0.00981752, 0.0161194, -64.2322, 371.771, 0.176674, 0.000762011, 0.007607, 0.0113102, -32.2616, 202.478, 0.166776, 0.000764353, -161.815, -146.356, -807.14, -104.704, -83.2134, -419.517, 0.00598647, 0.00670757, -0.0193869, 0.00385125, 0.00385125, 0.00385125
3622, 1,0.00169759, -0.00118997, 0.000805884, -14.3135, -82.6465, 0.00592818, 11.0859, 298.753, 0.0310335, 0.000963334, 0.00211333, 0.00392197, -21.0321, 162.226, 0, 0.000965553, 0.0012858, 0.00232192, -7.4169, 91.3301, 0, 0.000966665, -33.261, -82.2893, -371.127, -17.7796, -44.6901, -211.521, 0.00185176, 0.000839101, -0.00532334, 0.00106274, 0.00106274, 0.00106274
3623, 1,0.0111976, 0.00148963, 0.0010092, 344.52, 88.1524, 0.0326081, 413.303, -91.4368, 0.499549, 0.00113112, 0.0126792, 0.00929887, 432.628, -170.022, 0.124406, 0.00113215, 0.0097182, 0.0073355, 256.446, -107.704, 0.124406, 0.00113092, 57.9683, 22.7803, 429.318, 47.9331, 20.3124, 254.865, -0.00398691, -0.00559834, 0.0125501, -0.0030121, -0.0030121, -0.0030121
3624, 1,0.0298512, 0.00491115, 0.00357933, 373.275, 121.851, 0.0778698, 897.923, -306.994, 1, 0.0012081, 0.0347336, 0.0269058, 495.04, -202.838, 0.533893, 0.00120017, 0.0249793, 0.0198094, 251.598, -106.282, 0.442073, 0.0011973, 89.1418, 27.7937, 491.579, 51.5324, 18.4828, 248.832, -0.0113227, -0.0183713, 0.0343824, -0.00834077, -0.00834077, -0.00834077
3625, 1,0.0013756, -0.000902345, 0.000643662, -16.1954, -64.4258, 0.00360598, -9.43293, 241.612, 0, 0.00106472, 0.00175957, 0.00299225, -19.824, 138.333, 0, 0.0010665, 0.00099228, 0.00171511, -12.5364, 79.8223, 0, 0.00106752, -21.0306, -96.303, -297.664, -13.4467, -56.4634, -169.557, 0.0017339, 0.000145692, -0.00412436, 0.000972833, 0.000972833, 0.000972833
3626, 1,0.00454813, 0.00098744, 0.000730383, 256.407, 56.4014, 0.029691, 510.507, -221.975, 0.442711, 0.00125331, 0.0055313, 0.00394046, 312.657, -69.2584, 1.08726E-05, 0.00124873, 0.00356741, 0.0025183, 200.244, -43.1318, 1.89542E-06, 0.0012482, -45.735, -38.3878, 291.898, -36.3631, -23.878, 189.636, -0.00205792, -0.00193304, 0.00511484, -0.00144793, -0.00144793, -0.00144793
3627, 1,0.0169223, 0.00300987, 0.00209924, 360.95, 116.062, 0.0713315, 741.092, -274.511, 1, 0.00131992, 0.0199308, 0.0150377, 477.004, -177.868, 0.249982, 0.00131107, 0.0139144, 0.0108496, 244.905, -97.8006, 0.21416, 0.00130904, 54.7853, 4.32429, 474.495, 40.8643, 9.10393, 243.434, -0.0066062, -0.00982017, 0.0197806, -0.00453541, -0.00453541, -0.00453541
3628, 1,0.0011799, -0.000737134, 0.000536294, 2.42884, -51.0596, 0.00225567, -7.80326, 153.694, 0, 0.00150106, 0.00151494, 0.00240741, 2.0419, 93.4389, 0, 0.00150252, 0.000845233, 0.0013371, 2.83347, 49.8549, 0, 0.00150359, 1.66009, -58.167, -223.81, 2.50418, -30.0261, -122.043, 0.00150683, 0.000241635, -0.00326473, 0.000838242, 0.000838242, 0.000838242
3629, 1,0.00253598, 0.000614362, 0.000499594, 138.841, 32.8527, 0.0135538, 450.055, -127.124, 0.119844, 0.00149082, 0.00314883, 0.00240934, 171.629, -30.6085, 0, 0.00148826, 0.00192411, 0.0014258, 106.095, -20.3589, 0, 0.00148802, -24.3025, -12.4592, 128.587, -18.108, -2.99692, 82.1817, -0.000996234, -0.000754012, 0.00224694, -0.000703733, -0.000703733, -0.000703733
3630, 1,0.00705994, 0.00171482, 0.00120152, 324.886, 98.8832, 0.0462431, 544.761, -263.493, 0.739177, 0.00149215, 0.00877155, 0.0061894, 423.703, -116.437, 0.0327694, 0.00148419, 0.0053503, 0.00379162, 226.125, -61.1724, 0.0316889, 0.00148283, -40.2408, -28.5846, 418.135, -21.1808, -18.2955, 222.993, -0.00350218, -0.00320553, 0.00863236, -0.00216328, -0.00216328, -0.00216328
3631, 1,0.00430246, 0.00127014, 0.0008686, 261.276, 78.641, 0.0178936, 443.179, -111.579, 0.202823, 0.00170652, 0.00557198, 0.00389558, 339.894, -102.699, 0, 0.00170588, 0.00303346, 0.00216077, 182.678, -52.6931, 0, 0.00170449, -28.2527, 2.13697, 334.214, -21.4648, -0.623235, 180.167, -0.00221531, -0.00157311, 0.00545495, -0.00128408, -0.00128408, -0.00128408
3632, 1,0.0033119, 0.000998349, 0.000684376, 205.872, 62.6121, 0.00617302, 356.565, -87.0858, 0, 0.00179493, 0.0043102, 0.00298754, 268.482, -87.0215, 0, 0.00179493, 0.00231363, 0.00161902, 143.264, -45.5655, 0, 0.00179372, -13.8278, 10.5215, 264.371, -9.6833, 5.25996, 141.12, -0.00166316, -0.00114838, 0.00422365, -0.000922527, -0.000922527, -0.000922527
3633, 1,0.00282308, 0.000857094, 0.000595425, 178.486, 54.1661, 0.00496389, 311.349, -103.11, 0, 0.00183274, 0.00368015, 0.00255575, 232.651, -78.8915, 0, 0.00183202, 0.00196602, 0.00136506, 124.322, -42.1913, 0, 0.00183093, -8.89432, 13.474, 232.095, -4.66816, 7.21433, 124.028, -0.00143073, -0.00095749, 0.00366842, -0.000763279, -0.000763279, -0.000763279
3634, 1,0.00152745, 0.000450855, 0.000363283, 80.8227, 25.0232, 0.00472279, 245.025, -29.3358, 0, 0.00178218, 0.00197801, 0.00158827, 105.833, -16.5812, 0, 0.00178182, 0.00107712, 0.00086315, 55.8229, -6.59966, 0, 0.00178153, -11.7167, 16.4652, 44.9952, -10.2695, 6.53065, 23.5379, -0.00050899, 8.49366E-05, 0.000693122, -0.000321159, -0.000321159, -0.000321159
3635, 1,0.00123079, 0.000374952, 0.000250674, 77.7833, 23.8055, 0.00204584, 113.063, -22.0054, 0, 0.00183348, 0.0016057, 0.00107673, 101.587, -34.5246, 0, 0.00183385, 0.000855906, 0.000578633, 53.9813, -18.1755, 0, 0.00183337, 1.31693, 45.8617, 56.3952, 0.13015, 24.5844, 29.8119, -0.000515888, 0.000425948, 0.000650181, -0.000283501, -0.000283501, -0.000283501
3636, 1,0.000757909, 0.000231309, 0.000182515, 56.7834, 17.3254, 0.00120478, 91.6142, -46.5869, 0, 0.00185076, 0.000989112, 0.000777319, 74.1038, -36.7557, 0, 0.00185046, 0.000526801, 0.000412573, 39.4674, -19.5769, 0, 0.00184995, 0.750439, 52.2512, 57.2653, 0.577696, 27.9781, 30.1751, -0.00056304, 0.000526612, 0.000632874, -0.00029613, -0.00029613, -0.00029613
3637, 1,0.000782209, -0.000590017, 0.000407046, 14.8701, -34.8053, 0.0014816, 22.3424, 64.0507, 0, 0.00209242, 0.00100456, 0.00180287, 18.4586, 38.9831, 0, 0.00209327, 0.000560693, 0.000990984, 11.3212, 20.3892, 0, 0.0020939, 16.6972, 17.209, -150.855, 10.3753, 10.2763, -81.8192, 0.000967378, 0.00097786, -0.00257783, 0.000540758, 0.000540758, 0.000540758
3638, 1,0.00126208, -0.000524319, 0.000452979, 48.5726, -27.8358, 0.00231388, 91.1567, 24.4473, 0, 0.00194015, 0.0016436, 0.00196752, 63.5475, 18.9848, 0, 0.00194033, 0.000880674, 0.00106174, 33.6028, 10.774, 0, 0.00194058, 1.85976, 59.1425, -117.957, 0.823855, 31.2482, -64.3941, 0.000338382, 0.00155011, -0.00219656, 0.000187142, 0.000187142, 0.000187142
3639, 1,0.00154814, -0.000489337, 0.000475086, 71.1536, -23.5707, 0.00275286, 124.984, 6.87716, 0, 0.00188559, 0.0020089, 0.00207944, 92.4855, 3.30089, 0, 0.0018857, 0.00108743, 0.00112937, 49.8246, 2.10741, 0, 0.00188574, 1.69162, 91.6597, -103.254, 0.804546, 49.3667, -56.4935, 8.77619E-05, 0.00199139, -0.00213271, 5.01947E-05, 5.01947E-05, 5.01947E-05
3640, 1,0.00212675, -0.000827459, 0.000728991, 84.6302, -43.637, 0.00394536, 158.966, 36.9373, 0, 0.00187012, 0.00275726, 0.00318986, 109.898, 27.4231, 0, 0.00187041, 0.00149626, 0.0017319, 59.3628, 15.2502, 0, 0.00187078, -0.568151, 109.86, -191.561, -0.77694, 59.3411, -104.315, 0.000419872, 0.00275645, -0.00362132, 0.00022373, 0.00022373, 0.00022373
3641, 1,0.0016261, -0.000815971, 0.000648273, 51.8676, -45.9309, 0.00299956, 96.3409, 61.0197, 0, 0.00194047, 0.00210664, 0.00284429, 67.2106, 43.4613, 0, 0.00194103, 0.0011456, 0.00154781, 36.5261, 23.6661, 0, 0.00194165, 3.79291, 66.9993, -201.176, 2.11139, 36.3976, -109.507, 0.0007648, 0.00210214, -0.0035722, 0.000417446, 0.000417446, 0.000417446
3642, 1,0.00126628, -0.000719456, 0.000539353, 7.39149, -49.4785, 0.00271795, 37.223, 122.56, 0, 0.00206898, 0.00162552, 0.00240471, 8.89328, 91.2604, 0, 0.00207003, 0.000907041, 0.0013261, 5.88995, 49.6776, 0, 0.00207142, 7.75534, -71.6218, -209.915, 5.2428, -39.706, -114.569, 0.00160156, -7.78824E-05, -0.00300459, 0.000893465, 0.000893465, 0.000893465
3643, 1,0.00214247, -0.00107336, 0.000838652, 34.5013, -70.5055, 0.00499054, 129.383, 143.042, 0, 0.00128557, 0.0027464, 0.0037586, 43.2662, 116.249, 0, 0.00128612, 0.00153856, 0.00208137, 25.737, 63.1102, 0, 0.00128723, 41.0101, -257.047, -132.711, 24.5173, -141.272, -72.5755, 0.00269881, -0.00360732, -0.0009779, 0.0015129, 0.0015129, 0.0015129
3644, 1,0.00279971, -0.00173846, 0.00123347, 28.003, -114.266, 0.00721403, 42.0909, 261.196, 0.0688084, 0.00114895, 0.00352727, 0.00571898, 30.2839, 183.277, 0, 0.0011506, 0.00207273, 0.00325612, 25.7496, 97.0169, 0, 0.00115221, 25.8226, -260.819, -314.835, 22.7853, -146.79, -167.046, 0.00343308, -0.00262577, -0.0037814, 0.00201021, 0.00201021, 0.00201021
3645, 1,0.00406674, -0.00275414, 0.00184508, -43.999, -175.217, 0.0201331, -115.989, 470.928, 0.469538, 0.000882369, 0.00489268, 0.00955779, -55.7783, 304.554, 0.0486515, 0.000887036, 0.00329434, 0.0060309, -30.3133, 170.493, 0.0479694, 0.000889023, -73.3732, -238.795, -601.492, -53.7708, -138.472, -319.237, 0.00442738, 8.9097E-05, -0.00959649, 0.00258594, 0.00258594, 0.00258594
3646, 1,0.00913275, -0.00383571, 0.00249499, -45.4805, -210.279, 0.0359318, -96.5385, 468.418, 0.867675, 0.000790238, 0.0102687, 0.0167271, -61.7489, 368.749, 0.191368, 0.000796617, 0.00800384, 0.0117805, -29.0334, 198.616, 0.178998, 0.000799105, -157.178, -150.295, -798.776, -100.098, -83.976, -411.775, 0.0063771, 0.00677543, -0.0198519, 0.00414768, 0.00414768, 0.00414768
3647, 1,0.00194496, -0.00123323, 0.000844422, -9.72943, -85.0574, 0.00653216, 18.3623, 296.374, 0.0455504, 0.0010013, 0.00239489, 0.00432351, -15.2051, 172.357, 0, 0.00100344, 0.00149873, 0.00264569, -4.08224, 100.48, 0, 0.00100461, -23.5996, -92.1277, -401.344, -11.6711, -52.7036, -237.065, 0.00221586, 0.00079175, -0.00580449, 0.00133621, 0.00133621, 0.00133621
3648, 1,0.0109353, 0.00151362, 0.00103982, 342.778, 89.5187, 0.0323404, 413.703, -92.036, 0.496133, 0.00117204, 0.0124336, 0.00917195, 432.204, -167.543, 0.118872, 0.00117303, 0.00944128, 0.0071839, 253.422, -104.122, 0.118872, 0.00117174, 60.4528, 12.4823, 429.693, 47.9, 11.8724, 252.595, -0.00365422, -0.00577509, 0.0123412, -0.00270905, -0.00270905, -0.00270905
3649, 1,0.030722, 0.00507501, 0.00369862, 374.272, 121.796, 0.0786116, 916.881, -311.587, 1, 0.00125074, 0.0357666, 0.0276576, 495.979, -203.548, 0.552463, 0.00124243, 0.0256886, 0.0203312, 252.655, -107.691, 0.456183, 0.00123942, 92.6334, 25.146, 492.865, 54.8289, 18.1383, 250.105, -0.0113528, -0.0193166, 0.0354447, -0.0082854, -0.0082854, -0.0082854
3650, 1,0.00151767, -0.000943038, 0.000673317, -15.9773, -66.8033, 0.00369236, -2.88087, 238.31, 0, 0.00110469, 0.00192103, 0.00325454, -19.1443, 147.681, 0, 0.00110631, 0.00111445, 0.00191903, -12.8041, 87.9496, 0, 0.00110738, -19.8261, -102.406, -320.81, -13.1891, -62.6884, -187.971, 0.00190674, 0.000163783, -0.00446699, 0.00110641, 0.00110641, 0.00110641
3651, 1,0.00433481, 0.000995543, 0.000740273, 245.451, 56.8145, 0.03009, 504.841, -212.555, 0.449719, 0.0013008, 0.00532571, 0.00382529, 302.104, -68.1637, 0, 0.00129625, 0.0033469, 0.00243562, 188.902, -41.9865, 0, 0.0012957, -45.8229, -30.5354, 280.849, -37.1662, -15.546, 178.672, -0.00204296, -0.0017514, 0.00490047, -0.00144749, -0.00144749, -0.00144749
3652, 1,0.0171062, 0.00306738, 0.00214492, 355.533, 116.113, 0.0721992, 750.162, -263.464, 1, 0.00136762, 0.0201729, 0.015336, 471.643, -169.209, 0.254249, 0.00135879, 0.0140399, 0.0110475, 239.428, -89.1356, 0.21639, 0.00135668, 50.6069, -13.4865, 470.508, 35.0984, -6.45619, 238.765, -0.00641175, -0.0104932, 0.0201047, -0.00428807, -0.00428807, -0.00428807
3653, 1,0.00123419, -0.00078753, 0.000563017, 3.30184, -53.7847, 0.00227319, -9.18779, 156.672, 0, 0.00154868, 0.00157233, 0.0025857, 2.71858, 96.1737, 0, 0.0015502, 0.000896378, 0.00146362, 3.90023, 51.6672, 0, 0.00155132, 2.19278, -51.9192, -238.795, 3.67453, -26.7457, -131.93, 0.0015613, 0.000416934, -0.00353887, 0.000891678, 0.000891678, 0.000891678
3654, 1,0.00242133, 0.000604277, 0.000493011, 129.325, 32.1942, 0.0148183, 461.242, -144.585, 0.145627, 0.00154252, 0.00302534, 0.00234461, 161.508, -24.787, 0, 0.00153921, 0.00181748, 0.00135953, 97.1481, -15.027, 0, 0.00153896, -26.0502, -12.6281, 113.039, -19.964, -4.02623, 69.0713, -0.000941387, -0.000666729, 0.00201034, -0.000658885, -0.000658885, -0.000658885
3655, 1,0.00693974, 0.00172288, 0.00120344, 330.079, 99.0705, 0.0498109, 558.409, -283.056, 0.8003, 0.00154684, 0.00865906, 0.00606527, 429.081, -125.034, 0.030934, 0.00153722, 0.00522269, 0.00366837, 231.137, -70.0038, 0.0296919, 0.00153582, -31.8236, -18.9189, 425.843, -11.6639, -8.01831, 229.694, -0.00342231, -0.00309431, 0.00858122, -0.0020637, -0.0020637, -0.0020637
3656, 1,0.00452238, 0.0013459, 0.000903567, 277.835, 84.255, 0.0218769, 460.172, -135.406, 0.279881, 0.00176395, 0.0058681, 0.00400907, 362.084, -113.595, 0, 0.0017626, 0.00317681, 0.00221142, 193.589, -58.1269, 0, 0.00176102, -12.2398, 3.54602, 349.48, -10.1312, -2.54474, 187.057, -0.00204534, -0.00171732, 0.005606, -0.00112709, -0.00112709, -0.00112709
3657, 1,0.0034329, 0.00104762, 0.000713825, 218.317, 66.0109, 0.00700562, 423.787, -124.529, 0, 0.00185445, 0.00448046, 0.00304414, 284.324, -97.491, 0, 0.00185363, 0.0023854, 0.00161682, 152.313, -53.16, 0, 0.0018523, -3.27581, 19.2284, 276.521, -0.420187, 11.9811, 147.919, -0.00160476, -0.00112919, 0.00431596, -0.000846119, -0.000846119, -0.000846119
3658, 1,0.00289948, 0.000882094, 0.000609, 184.42, 56.2111, 0.00583253, 372.681, -130.354, 0, 0.00189209, 0.00378156, 0.00261455, 240.63, -83.1717, 0, 0.00189064, 0.0020174, 0.00139662, 128.209, -44.1517, 0, 0.00188945, -6.48974, 16.3871, 239.618, -3.79773, 8.60721, 127.645, -0.00144727, -0.000963282, 0.0037602, -0.000775741, -0.000775741, -0.000775741
3659, 1,0.00221134, 0.000615967, 0.000509771, 117.583, 33.8044, 0.00643323, 347.277, -58.0942, 0, 0.00184132, 0.00282653, 0.00236443, 151.35, -23.839, 0, 0.0018403, 0.00159673, 0.00134643, 83.8439, -11.2303, 0, 0.00183992, -7.27926, 43.2731, 35.5231, -6.3071, 23.5149, 16.4831, -0.000529202, 0.000536735, 0.000379309, -0.000310043, -0.000310043, -0.000310043
3660, 1,0.00151682, 0.000456552, 0.000323278, 92.4554, 28.0738, 0.00333185, 198.001, -54.4647, 0, 0.00189333, 0.0019731, 0.00141974, 120.516, -36.6256, 0, 0.00189278, 0.00106077, 0.000773799, 64.4059, -19.1701, 0, 0.00189225, 3.0592, 60.2319, 46.5858, 1.83946, 32.4338, 23.2369, -0.000512116, 0.000696656, 0.000409796, -0.000262998, -0.000262998, -0.000262998
3661, 1,0.000858636, 0.000256775, 0.000195408, 61.0595, 18.5437, 0.00171839, 125.526, -59.5362, 0, 0.00190942, 0.00111486, 0.000837071, 79.577, -36.1229, 0, 0.0019087, 0.000602853, 0.000447091, 42.563, -18.9047, 0, 0.00190816, 0.471105, 61.8051, 46.0926, 0.308241, 33.4896, 22.9162, -0.000558977, 0.000738698, 0.000406457, -0.000291235, -0.000291235, -0.000291235
3662, 1,0.00145057, -0.000723148, 0.000560916, 47.4718, -40.6325, 0.00325051, 113.187, 54.3152, 0, 0.00215841, 0.00184869, 0.00257327, 59.8317, 37.0006, 0, 0.00215902, 0.00105286, 0.00145233, 35.1318, 19.6556, 0, 0.00215963, 12.4101, 56.6803, -180.092, 8.048, 33.3495, -100.364, 0.000845439, 0.00178148, -0.00322734, 0.000479958, 0.000479958, 0.000479958
3663, 1,0.00165681, -0.000643184, 0.000564649, 64.3876, -34.0394, 0.00342159, 147.657, 18.8699, 0, 0.00199943, 0.00214287, 0.00251595, 83.7174, 23.5882, 0, 0.00199928, 0.00117079, 0.00138673, 45.0599, 13.8031, 0, 0.00199959, -0.397982, 77.8023, -148.169, -0.448322, 41.7929, -82.7538, 0.000363109, 0.00201733, -0.00276321, 0.000207928, 0.000207928, 0.000207928
3664, 1,0.00181899, -0.000597798, 0.000567066, 79.4258, -29.67, 0.00329847, 150.663, 7.02032, 0, 0.00194425, 0.00235527, 0.00252264, 103.353, 10.6928, 0, 0.00194414, 0.00128275, 0.00138859, 55.5004, 6.88396, 0, 0.00194426, -0.336478, 102.37, -134.112, -0.399042, 54.9758, -75.2286, 0.000161288, 0.00233441, -0.00266922, 9.99746E-05, 9.99746E-05, 9.99746E-05
3665, 1,0.00242062, -0.00096481, 0.000839364, 91.1674, -51.6902, 0.00461551, 184.488, 45.1998, 0, 0.00192985, 0.00313451, 0.00371688, 118.814, 39.3971, 0, 0.00193004, 0.00170674, 0.00203819, 63.5213, 23.0276, 0, 0.00193055, -4.49415, 118.762, -232.46, -3.47239, 63.4936, -129.104, 0.000525406, 0.00313341, -0.00429812, 0.000289204, 0.000289204, 0.000289204
3666, 1,0.00198369, -0.000948201, 0.000764873, 61.8529, -53.5331, 0.00388845, 130.1, 72.1035, 0, 0.00200119, 0.00256519, 0.00340123, 80.6151, 54.568, 0, 0.00200176, 0.00140222, 0.00187154, 43.0923, 31.1379, 0, 0.00200252, -3.5212, 80.3658, -240.549, -2.74054, 42.9461, -133.619, 0.000784978, 0.00255989, -0.00423035, 0.000432473, 0.000432473, 0.000432473
3667, 1,0.00108912, -0.000815914, 0.000560538, -5.03617, -54.7392, 0.00222334, 1.55561, 139.072, 0, 0.00212815, 0.00139396, 0.00253016, -6.80757, 97.6504, 0, 0.00212958, 0.000784507, 0.0014096, -3.25385, 54.1812, 0, 0.00213108, -8.06442, -45.0971, -239.79, -4.19164, -25.4331, -132.919, 0.00136748, 0.00058399, -0.00353608, 0.000764792, 0.000764792, 0.000764792
3668, 1,0.00178859, -0.000902172, 0.000695936, 24.8527, -60.4465, 0.00366812, 62.5449, 148.872, 0, 0.00131459, 0.0022781, 0.00317057, 30.1779, 104.1, 0, 0.00131555, 0.00129924, 0.00177923, 19.5348, 56.2491, 0, 0.00131657, 27.3552, -197.938, -141.716, 17.6925, -108.569, -77.8712, 0.00221863, -0.00254816, -0.00135972, 0.00126053, 0.00126053, 0.00126053
3669, 1,0.00215507, -0.00157494, 0.00111597, 4.78133, -102.836, 0.00493588, 69.0021, 217.677, 0.00149503, 0.00118087, 0.00280755, 0.00485607, 7.21766, 168.559, 0, 0.00118181, 0.00150656, 0.00263323, 2.53134, 92.2469, 0, 0.00118328, -2.55422, -188.547, -314.576, -4.79799, -104.64, -167.302, 0.00260134, -0.00133053, -0.00400607, 0.00135196, 0.00135196, 0.00135196
3670, 1,0.00513201, -0.00259871, 0.00177662, 16.021, -161.448, 0.0180808, -75.6281, 365.44, 0.49123, 0.000915259, 0.00608639, 0.0101125, 16.3362, 244.15, 0.0649035, 0.000918982, 0.0041777, 0.00656495, 15.7078, 127.049, 0.0646326, 0.000920796, 8.61407, -170.055, -571.01, 11.4003, -94.0346, -298.513, 0.00586864, 0.000779022, -0.0107585, 0.00403345, 0.00403345, 0.00403345
3671, 1,0.00872115, -0.00396012, 0.00267039, -40.9313, -197.595, 0.0327577, -74.683, 380.722, 0.919714, 0.000823198, 0.0100703, 0.0172684, -52.2527, 319.324, 0.22639, 0.000828785, 0.00738301, 0.0119713, -29.3945, 167.571, 0.205069, 0.000831158, -65.7902, -131.103, -761.081, -39.8257, -72.1096, -390.778, 0.00946792, 0.00660571, -0.0220047, 0.00675854, 0.00675854, 0.00675854
3672, 1,0.00233047, -0.00133931, 0.000932224, -8.23514, -90.3532, 0.00631287, 21.014, 315.638, 0.0262206, 0.00103745, 0.00284178, 0.00516218, -11.0813, 195.111, 0, 0.00103956, 0.00182868, 0.00331658, -4.95508, 122.469, 0, 0.00104079, -25.1627, -63.3911, -496.778, -18.3578, -32.6772, -316.373, 0.00254259, 0.00174664, -0.00745535, 0.00154254, 0.00154254, 0.00154254
3673, 1,0.00985023, 0.00144214, 0.00100521, 326.347, 84.5647, 0.0332051, 448.944, -118.748, 0.501154, 0.00121399, 0.0112699, 0.00831998, 410.705, -138.424, 0.0955789, 0.00121362, 0.00843772, 0.00635801, 242.135, -82.4585, 0.0955789, 0.00121246, 25.6769, 9.3378, 380.257, 19.1488, 3.74462, 224.482, -0.00353349, -0.00424596, 0.0101522, -0.0026696, -0.0026696, -0.0026696
3674, 1,0.0292291, 0.00485773, 0.00345571, 364.562, 119.376, 0.0772808, 869.419, -288.473, 1, 0.00129532, 0.0340363, 0.0253033, 483.779, -180.545, 0.514784, 0.00128695, 0.024441, 0.0184958, 245.507, -93.9682, 0.425929, 0.00128424, 42.0953, 26.7322, 472.809, 25.6825, 18.6404, 237.582, -0.0135213, -0.0152951, 0.0329272, -0.0100264, -0.0100264, -0.0100264
3675, 1,0.00152433, -0.00112592, 0.000764111, -23.4691, -73.7751, 0.00368641, -8.64582, 245.686, 0, 0.00114401, 0.00192343, 0.0039263, -25.1699, 155.922, 0, 0.00114568, 0.00112854, 0.00240801, -21.6068, 100.685, 0, 0.00114671, -28.4325, -50.0599, -389.273, -24.7283, -32.0475, -245.28, 0.00185514, 0.00139546, -0.00578078, 0.00106357, 0.00106357, 0.00106357
3676, 1,0.00470367, 0.00114845, 0.000887241, 274.332, 65.4175, 0.0314979, 474.149, -160.897, 0.471997, 0.00134705, 0.00585012, 0.00445992, 339.664, -85.7876, 0.000359002, 0.00134416, 0.00355853, 0.00269278, 209.054, -55.236, 0.000140372, 0.00134349, 4.27925, 12.7072, 240.376, 5.99177, 12.0975, 147.619, -0.00126146, -0.00113713, 0.00379097, -0.0007406, -0.0007406, -0.0007406
3677, 1,0.0176573, 0.003169, 0.00220458, 355.755, 116.31, 0.0714988, 711.03, -237.924, 1, 0.00141583, 0.020818, 0.0152128, 472.013, -166.37, 0.264521, 0.00140797, 0.0145002, 0.0108721, 239.55, -86.8383, 0.223358, 0.00140578, 21.1608, 16.5828, 461.367, 14.4571, 13.0733, 232.985, -0.00831187, -0.00867518, 0.0201543, -0.00606078, -0.00606078, -0.00606078
3678, 1,0.00143669, -0.000964517, 0.000647695, 7.82667, -61.9012, 0.00377371, 54.3512, 166.575, 0, 0.00159647, 0.0017637, 0.00321471, 6.96392, 102.629, 0, 0.00159813, 0.00111113, 0.00192577, 8.76099, 58.7899, 0, 0.00159927, -17.2902, 4.13949, -294.735, -11.6291, 7.45379, -172.194, 0.00125088, 0.00170347, -0.00461974, 0.00068021, 0.00068021, 0.00068021
3679, 1,0.00326299, 0.000814603, 0.000684914, 172.555, 43.9831, 0.0183039, 458.038, -138.042, 0.21388, 0.00159359, 0.00407613, 0.00343623, 216.461, -31.7776, 0, 0.00159036, 0.00245081, 0.00206988, 128.701, -17.0533, 0, 0.00158998, -11.3583, 17.9296, 88.7614, -9.36102, 12.4743, 48.0466, -0.000738796, -0.000136421, 0.00139088, -0.000464621, -0.000464621, -0.000464621
3680, 1,0.00777916, 0.0017928, 0.00122955, 337.12, 104.389, 0.0533445, 532.763, -234.621, 0.847481, 0.00159747, 0.00957127, 0.00674228, 441.501, -133.754, 0.0466233, 0.00158951, 0.00598745, 0.00430365, 232.747, -71.7392, 0.0455446, 0.00158787, -23.4231, -5.15264, 429.836, -12.6334, 1.26725, 226.584, -0.00375854, -0.00326135, 0.00924833, -0.00252244, -0.00252244, -0.00252244
3681, 1,0.00105754, -0.000825427, 0.000560878, -5.44203, -55.2045, 0.0021097, -2.39963, 137.203, 0, 0.00206447, 0.00135353, 0.00252688, -7.64774, 96.2449, 0, 0.00206584, 0.000761783, 0.00140561, -3.2233, 52.7356, 0, 0.0020673, -7.78173, -38.7564, -242.196, -3.30799, -21.2819, -133.617, 0.00135117, 0.000696937, -0.00360989, 0.000760588, 0.000760588, 0.000760588
3682, 1,0.00197732, -0.000958707, 0.000766848, 60.8748, -54.6079, 0.00392815, 128.303, 77.0401, 0, 0.00195199, 0.00255226, 0.00340797, 78.7489, 56.2538, 0, 0.00195265, 0.00140242, 0.00187436, 43.0027, 31.2713, 0, 0.00195344, -0.944348, 75.2954, -243.113, -0.774543, 40.9544, -133.994, 0.000866176, 0.00247936, -0.00425837, 0.000476316, 0.000476316, 0.000476316
3683, 1,0.00240835, -0.000978487, 0.000843244, 89.5068, -52.9285, 0.00464552, 180.834, 52.0144, 0, 0.0019162, 0.00311633, 0.00372559, 116.283, 41.6437, 0, 0.00191652, 0.00170038, 0.00203914, 62.7317, 23.6846, 0, 0.00191708, -0.848671, 111.745, -235.828, -1.20827, 60.1434, -129.989, 0.000637819, 0.00302045, -0.00433401, 0.000347365, 0.000347365, 0.000347365
3684, 1,0.00181581, -0.000613318, 0.000573625, 78.5471, -30.8864, 0.00335124, 150.436, 10.6799, 0, 0.00192281, 0.00234971, 0.00253959, 101.879, 12.3197, 0, 0.00192276, 0.00128193, 0.00139239, 55.2161, 7.21421, 0, 0.00192292, 3.13591, 97.2064, -137.301, 1.73285, 52.5405, -75.9159, 0.000260155, 0.00225105, -0.00271111, 0.000150061, 0.000150061, 0.000150061
3685, 1,0.000837803, 0.000247528, 0.000187197, 59.4696, 17.7919, 0.00166112, 121.734, -58.0657, 0, 0.00190127, 0.00108518, 0.000813908, 77.2537, -34.8896, 0, 0.00190056, 0.000590551, 0.000439795, 41.6917, -18.5173, 0, 0.00190005, 2.46594, 58.9344, 43.2685, 1.38491, 31.8672, 22.2999, -0.000497505, 0.000697589, 0.000366084, -0.000262515, -0.000262515, -0.000262515
3686, 1,0.00286707, 0.000865575, 0.000597719, 182.565, 55.1505, 0.00570917, 364.769, -127.554, 0, 0.00188051, 0.00373264, 0.00258052, 237.715, -82.3586, 0, 0.00187913, 0.0020015, 0.00138513, 127.415, -44.0907, 0, 0.00187797, -5.37619, 15.7128, 236.739, -3.00318, 8.4041, 126.871, -0.00141094, -0.000964679, 0.00371207, -0.00075801, -0.00075801, -0.00075801
3687, 1,0.00164953, -0.000653578, 0.000568958, 63.5592, -34.8869, 0.00345425, 147.246, 21.5084, 0, 0.00194899, 0.00213384, 0.00251997, 82.4501, 24.7166, 0, 0.00194889, 0.00116525, 0.00138213, 44.67, 13.9754, 0, 0.00194923, 2.32704, 73.653, -150.13, 1.2064, 39.6645, -82.7972, 0.000438543, 0.00194759, -0.0027872, 0.000245669, 0.000245669, 0.000245669
3688, 1,0.00149381, 0.000442667, 0.000315614, 91.5553, 27.103, 0.0032232, 191.32, -52.4063, 0, 0.00187761, 0.00193627, 0.00139263, 118.648, -36.4738, 0, 0.00187713, 0.0010515, 0.000761823, 64.4718, -19.8634, 0, 0.00187662, 5.74208, 58.5305, 45.1488, 3.91605, 32.0525, 23.6217, -0.000452753, 0.000663018, 0.000381611, -0.000229772, -0.000229772, -0.000229772
3689, 1,0.00340872, 0.00103235, 0.000703139, 216.403, 65.0509, 0.00688869, 418.16, -124.386, 0, 0.00183506, 0.004441, 0.0030138, 281.451, -96.1409, 0, 0.00183422, 0.00237648, 0.00160808, 151.357, -52.4491, 0, 0.00183292, -3.09349, 17.615, 273.901, -0.548792, 10.7979, 147.098, -0.00157946, -0.00114227, 0.00428184, -0.000837474, -0.000837474, -0.000837474
3690, 1,0.00150153, -0.000723636, 0.000563513, 51.0317, -40.8535, 0.00338139, 120.158, 53.253, 0, 0.00204736, 0.0019047, 0.00259234, 63.4318, 35.7282, 0, 0.00204794, 0.0010985, 0.00146565, 38.6404, 17.8532, 0, 0.00204853, 13.59, 56.572, -177.347, 9.50413, 34.309, -97.3727, 0.000850219, 0.00175996, -0.00318994, 0.000482253, 0.000482253, 0.000482253
3691, 1,0.0021569, 0.000601966, 0.000498477, 112.979, 32.9827, 0.0062925, 339.14, -56.1852, 0, 0.00180116, 0.00275829, 0.00230488, 145.937, -20.9624, 0, 0.00180014, 0.00155592, 0.00130895, 80.0394, -8.78345, 0, 0.00179978, -10.5785, 37.1923, 36.2735, -9.88615, 18.672, 17.5644, -0.000553234, 0.00045355, 0.000439852, -0.00034676, -0.00034676, -0.00034676
3692, 1,0.00448546, 0.00133262, 0.000895267, 276.796, 83.3664, 0.0208339, 456.788, -130.495, 0.259622, 0.0017408, 0.00581794, 0.0039796, 360.158, -114.211, 0, 0.00173972, 0.00315309, 0.00219596, 193.437, -59.4416, 0, 0.00173817, -10.3081, 5.29772, 347.644, -7.91101, -0.60836, 186.844, -0.00201381, -0.00169037, 0.0055575, -0.00110046, -0.00110046, -0.00110046
3693, 1,0.00809415, 0.00178219, 0.00121866, 334.12, 103.883, 0.0523175, 532.007, -234.14, 0.830913, 0.00158862, 0.0098757, 0.00697359, 437.995, -129.06, 0.0527214, 0.00158081, 0.00631294, 0.00454609, 230.253, -66.9265, 0.0518345, 0.00157917, -24.4568, -14.7813, 426.418, -15.0201, -8.19293, 223.993, -0.00382293, -0.00356342, 0.00954412, -0.00259926, -0.00259926, -0.00259926
3694, 1,0.0174633, 0.00313669, 0.00218266, 358.478, 115.975, 0.0714805, 712.12, -239.973, 1, 0.00141213, 0.0205954, 0.0149902, 474.423, -170.4, 0.260455, 0.00140428, 0.0143333, 0.0106757, 242.565, -91.7831, 0.220147, 0.00140213, 20.7395, 25.0524, 465.407, 16.7787, 21.3473, 237.223, -0.0085059, -0.00829839, 0.0200396, -0.00625908, -0.00625908, -0.00625908
3695, 1,0.0290506, 0.00484396, 0.00344203, 362.103, 119.646, 0.0776164, 879.615, -292.848, 1, 0.001258, 0.0338613, 0.0252155, 481.637, -177.006, 0.511203, 0.00124955, 0.0242526, 0.0183959, 242.68, -89.3675, 0.421639, 0.00124691, 32.0433, 26.1357, 472.84, 16.7425, 14.9476, 236.412, -0.014107, -0.0148623, 0.0329881, -0.0105298, -0.0105298, -0.0105298
3696, 1,0.00330252, 0.000797331, 0.000670821, 181.53, 42.954, 0.0179459, 454.167, -132.06, 0.206604, 0.0015875, 0.00409747, 0.00338654, 224.363, -41.1268, 0, 0.00158472, 0.0025091, 0.00205072, 138.774, -26.9729, 0, 0.00158436, -5.7811, 31.5356, 97.6257, -2.99643, 26.4998, 57.4154, -0.000767827, 5.52927E-06, 0.00142968, -0.000485982, -0.000485982, -0.000485982
3697, 1,0.00509516, 0.0011471, 0.000881968, 280.035, 65.5912, 0.0327488, 475.129, -161.372, 0.494931, 0.00134468, 0.00623875, 0.0048179, 345.493, -76.3276, 0.00264492, 0.00134148, 0.00395361, 0.00306271, 214.656, -45.4256, 0.00259124, 0.00134081, -17.5155, -0.158905, 246.657, -12.7391, -2.76874, 151.785, -0.00161148, -0.00129185, 0.00414375, -0.00102143, -0.00102143, -0.00102143
3698, 1,0.0107473, 0.00148961, 0.00103457, 345.448, 87.1477, 0.0349366, 447.423, -114.596, 0.53213, 0.00119401, 0.0122186, 0.00907217, 432.438, -150.114, 0.108738, 0.00119395, 0.0092817, 0.0070515, 258.569, -91.6188, 0.108738, 0.00119274, 24.6381, 22.3702, 403.334, 20.7132, 13.0351, 241.108, -0.00416173, -0.00434542, 0.0111005, -0.00316779, -0.00316779, -0.00316779
3699, 1,0.00148746, -0.000951716, 0.000648756, 14.0312, -60.184, 0.00396781, 76.2736, 149.387, 0, 0.00166508, 0.00183131, 0.00321318, 15.0843, 96.0826, 0, 0.00166652, 0.00114459, 0.00191968, 13.0239, 55.2357, 0, 0.00166763, -12.064, 9.20187, -285.386, -8.44965, 9.60628, -166.864, 0.00125842, 0.00170878, -0.00452634, 0.000691589, 0.000691589, 0.000691589
3700, 1,0.00149673, -0.00110072, 0.000748952, -17.2057, -72.6565, 0.00347823, -6.38073, 229.246, 0, 0.00116996, 0.00189169, 0.00379005, -19.1768, 145.878, 0, 0.00117154, 0.00110378, 0.00230072, -15.1402, 90.4524, 0, 0.0011726, -25.0801, -42.001, -370.553, -19.2532, -23.3446, -228.759, 0.0017677, 0.00140914, -0.00554403, 0.00101807, 0.00101807, 0.00101807
3701, 1,0.00214223, -0.00125377, 0.000875768, -11.3182, -85.0085, 0.0052339, 27.2565, 295.762, 0, 0.00104487, 0.00263235, 0.00473326, -13.8541, 185.44, 0, 0.00104674, 0.00165732, 0.00299241, -8.55339, 116.3, 0, 0.00104792, -35.9409, -60.9252, -459.455, -25.7895, -33.2931, -289.817, 0.00216143, 0.00164441, -0.00681501, 0.00128728, 0.00128728, 0.00128728
3702, 1,0.00893944, -0.003906, 0.00263706, -39.6256, -196.66, 0.032201, -70.5066, 379.037, 0.893703, 0.000842886, 0.0102487, 0.01754, -50.9047, 316.726, 0.233914, 0.000848264, 0.00764823, 0.0123386, -28.0107, 166.034, 0.214837, 0.000850684, -68.1874, -120.366, -761.624, -42.0137, -64.3296, -391.759, 0.00945761, 0.00714986, -0.0225187, 0.00677278, 0.00677278, 0.00677278
3703, 1,0.0053151, -0.00265088, 0.00180944, 12.8087, -163.186, 0.0181459, -80.7092, 368.453, 0.500612, 0.000929098, 0.0062829, 0.0104765, 12.7201, 246.533, 0.0737279, 0.000932938, 0.00434738, 0.00685975, 12.9007, 128.196, 0.072934, 0.000934809, 11.3939, -167.388, -583.604, 12.1974, -90.5345, -306.252, 0.00624484, 0.000988136, -0.0114052, 0.00432343, 0.00432343, 0.00432343
3704, 1,0.00216168, -0.00159121, 0.00112386, 4.85654, -104.1, 0.00498652, 63.2101, 216.515, 0.00782379, 0.00132812, 0.00281463, 0.00489029, 6.82003, 169.633, 0, 0.00132915, 0.00151197, 0.00264965, 3.04436, 91.9941, 0, 0.00133083, 6.67114, -190.192, -325.38, 2.76718, -106.188, -172.562, 0.00281221, -0.00134435, -0.00422055, 0.00150683, 0.00150683, 0.00150683
3705, 1,0.00176594, -0.00090519, 0.000695355, 21.6207, -61.5758, 0.00357364, 53.9802, 154.418, 0, 0.0015373, 0.00225133, 0.00314425, 25.7645, 108.349, 0, 0.00153845, 0.00128065, 0.00175389, 17.4829, 57.8488, 0, 0.00153971, 22.693, -193.803, -153.937, 15.9377, -105.472, -84.0123, 0.00218626, -0.00239161, -0.00155287, 0.00124797, 0.00124797, 0.00124797
3706, 1,0.00119798, -0.000716488, 0.000528285, 6.76091, -48.6864, 0.00253251, 32.2381, 117.47, 0, 0.00200099, 0.00153806, 0.00235127, 8.00902, 86.8888, 0, 0.00200199, 0.000857901, 0.00129475, 5.51341, 47.0584, 0, 0.00200328, 5.15291, -57.2374, -208.582, 3.86414, -31.44, -113.599, 0.00147824, 0.000158219, -0.00304642, 0.000823656, 0.000823656, 0.000823656
3707, 1,0.00163372, -0.000817435, 0.000649223, 52.0336, -46.2051, 0.00304926, 97.5793, 62.5123, 0, 0.00189052, 0.00211471, 0.00284935, 67.1932, 43.9972, 0, 0.00189109, 0.00115277, 0.00155096, 36.8754, 23.6521, 0, 0.00189171, 5.29005, 64.4669, -201.749, 3.23144, 35.2924, -109.48, 0.000805329, 0.0020571, -0.00357638, 0.000441346, 0.000441346, 0.000441346
3708, 1,0.00212558, -0.000832565, 0.000730777, 84.1258, -44.1102, 0.00396999, 158.397, 39.2669, 0, 0.00185583, 0.00275456, 0.00319662, 109.09, 28.3377, 0, 0.00185616, 0.0014966, 0.00173508, 59.1622, 15.542, 0, 0.00185654, 3.33033, 104.676, -193.019, 1.51045, 56.6822, -104.819, 0.000516729, 0.00266125, -0.0036378, 0.000276697, 0.000276697, 0.000276697
3709, 1,0.00155085, -0.000495428, 0.000478187, 71.0217, -24.0472, 0.00277169, 124.791, 8.33638, 0, 0.00186228, 0.00201175, 0.00208974, 92.1717, 3.90626, 0, 0.00186241, 0.00108998, 0.00113342, 49.8734, 2.20644, 0, 0.00186246, 5.59973, 87.3058, -104.624, 3.16169, 47.0904, -56.8714, 0.000179826, 0.00190895, -0.00215216, 0.00010147, 0.00010147, 0.00010147
3710, 1,0.000743537, 0.000226823, 0.000179442, 56.0098, 17.029, 0.00118457, 90.2529, -46.0266, 0, 0.00184144, 0.000970314, 0.000765505, 73.0366, -36.5007, 0, 0.00184115, 0.000516802, 0.000406761, 38.9849, -19.5488, 0, 0.00184064, 3.92401, 49.1675, 56.4104, 2.41086, 26.2241, 30.0116, -0.000492006, 0.000465485, 0.00061883, -0.000257033, -0.000257033, -0.000257033
3711, 1,0.0028123, 0.000852462, 0.000592223, 177.987, 53.8787, 0.00491659, 308.534, -102.321, 0, 0.00182147, 0.00366475, 0.00254464, 231.865, -78.8122, 0, 0.00182077, 0.00195986, 0.00136026, 124.108, -42.2964, 0, 0.00181969, -7.38623, 12.5105, 231.312, -3.72159, 6.78785, 123.823, -0.00139754, -0.0009766, 0.00365304, -0.000744875, -0.000744875, -0.000744875
3712, 1,0.00127631, -0.000527108, 0.000456713, 49.383, -27.9949, 0.00235623, 93.1444, 24.4725, 0, 0.00188751, 0.00166257, 0.00197784, 64.5546, 18.8397, 0, 0.00188768, 0.000890105, 0.0010645, 34.2141, 10.5559, 0, 0.00188793, 4.13796, 57.4507, -118.108, 2.16907, 30.281, -64.1179, 0.000384448, 0.00151207, -0.00220222, 0.000212323, 0.000212323, 0.000212323
3713, 1,0.00122311, 0.000371303, 0.000248342, 77.6777, 23.5554, 0.00200005, 110.818, -21.8863, 0, 0.00181803, 0.0015944, 0.00107157, 101.233, -34.7591, 0, 0.00181841, 0.000851822, 0.000577122, 54.1232, -18.6185, 0, 0.00181794, 3.70166, 44.0129, 56.5627, 1.74774, 23.8165, 30.2912, -0.000468805, 0.000382906, 0.000649946, -0.000255932, -0.000255932, -0.000255932
3714, 1,0.00330262, 0.000995137, 0.000682161, 204.929, 62.4057, 0.00611088, 354.445, -88.1188, 0, 0.00177717, 0.00429765, 0.00297542, 267.328, -86.238, 0, 0.00177712, 0.00230768, 0.00161141, 142.536, -44.9291, 0, 0.00177593, -13.2684, 8.62881, 263.353, -9.48565, 3.79217, 140.481, -0.00163835, -0.00117633, 0.00421409, -0.000907701, -0.000907701, -0.000907701
3715, 1,0.000837572, -0.000578784, 0.00040891, 19.5989, -34.0012, 0.00157339, 29.6555, 60.0207, 0, 0.00198156, 0.00107654, 0.00180624, 24.2448, 35.8075, 0, 0.00198234, 0.000598656, 0.000988522, 14.9565, 17.9484, 0, 0.00198291, 15.5836, 21.6729, -144.679, 10.2503, 13.4079, -77.5033, 0.000893955, 0.00102257, -0.00249758, 0.000499832, 0.000499832, 0.000499832
3716, 1,0.00150581, 0.000451575, 0.000360685, 79.7582, 25.1513, 0.00464134, 241.886, -30.2821, 0, 0.00174342, 0.00195684, 0.00156024, 104.885, -16.6556, 0, 0.00174303, 0.00105525, 0.000841663, 54.653, -6.42105, 0, 0.00174274, -11.3138, 13.1894, 48.0914, -10.0041, 3.8098, 25.4575, -0.000501006, 1.41528E-05, 0.00075713, -0.000312097, -0.000312097, -0.000312097
3717, 1,0.00427681, 0.00126703, 0.000866251, 260.319, 78.4393, 0.0173063, 440.642, -107.743, 0.191204, 0.00168547, 0.00554338, 0.00388103, 338.741, -102.921, 0, 0.00168498, 0.00301064, 0.00215014, 181.913, -53.0623, 0, 0.00168362, -27.0507, 2.79078, 333.022, -20.2811, 0.141846, 179.326, -0.00219203, -0.00156338, 0.00542552, -0.00126352, -0.00126352, -0.00126352
3718, 1,0.0070231, 0.00171927, 0.00119979, 328.909, 98.9823, 0.0489263, 557.787, -282.687, 0.785579, 0.0015402, 0.00873905, 0.00611, 427.828, -123.193, 0.032524, 0.00153078, 0.00530922, 0.00372792, 230.047, -67.9253, 0.0313386, 0.00152938, -33.673, -21.7626, 425.013, -13.831, -11.273, 228.88, -0.00346942, -0.0031669, 0.00867234, -0.00211111, -0.00211111, -0.00211111
3719, 1,0.0172829, 0.0030517, 0.00213429, 357.617, 115.969, 0.0722379, 754.406, -268.082, 1, 0.00136753, 0.0203321, 0.0154163, 473.576, -172.274, 0.257474, 0.00135856, 0.0142347, 0.0111519, 241.67, -92.4734, 0.220399, 0.00135646, 50.0219, -5.79976, 472.599, 36.0761, 0.309457, 241.035, -0.00670292, -0.0103055, 0.020273, -0.00457723, -0.00457723, -0.00457723
3720, 1,0.0310366, 0.00509342, 0.00370961, 373.898, 122.16, 0.0790647, 927.002, -312.657, 1, 0.00121613, 0.0361061, 0.0279701, 495.987, -203.638, 0.559081, 0.00120803, 0.0259757, 0.0206061, 251.879, -106.465, 0.462256, 0.00120505, 91.1942, 26.2184, 493.502, 52.5464, 17.0315, 249.816, -0.0116487, -0.0194028, 0.0358545, -0.00854716, -0.00854716, -0.00854716
3721, 1,0.00249254, 0.000604655, 0.000490884, 135.74, 32.2002, 0.0144389, 457.241, -138.159, 0.137764, 0.00153663, 0.00309681, 0.00234426, 167.921, -28.8736, 0, 0.00153362, 0.00188851, 0.00136772, 103.571, -19.1449, 0, 0.00153338, -27.6098, -5.32205, 119.553, -20.4458, 2.97829, 74.9022, -0.00103809, -0.000576401, 0.00208303, -0.000733276, -0.000733276, -0.000733276
3722, 1,0.00460404, 0.00101975, 0.000754617, 257.955, 58.6455, 0.0307998, 504.353, -211.145, 0.462812, 0.00130367, 0.00562103, 0.00407071, 316.511, -68.7512, 1.41462E-05, 0.00129911, 0.00358869, 0.00260641, 199.453, -40.6932, 3.12147E-06, 0.00129852, -52.5334, -33.5893, 292.376, -42.7004, -21.6528, 186.433, -0.00219363, -0.0018263, 0.00513558, -0.00154341, -0.00154341, -0.00154341
3723, 1,0.0118709, 0.00159975, 0.0010948, 363.155, 94.6432, 0.0348811, 440.043, -105.715, 0.533277, 0.00115641, 0.0134632, 0.00982663, 457.764, -190.383, 0.13554, 0.00115746, 0.0102807, 0.00771534, 268.575, -122.424, 0.13554, 0.00115608, 74.6559, 42.232, 454.261, 63.028, 37.1102, 267.133, -0.00421595, -0.00576573, 0.0133239, -0.00315325, -0.00315325, -0.00315325
3724, 1,0.00116662, -0.00075503, 0.000536894, 4.82525, -50.6073, 0.00212215, -3.77805, 139.811, 0, 0.00160895, 0.00148509, 0.00246808, 4.95777, 87.6453, 0, 0.00161031, 0.000848406, 0.00139836, 4.70151, 47.5503, 0, 0.00161136, 3.51435, -39.1804, -227.27, 4.06701, -20.3628, -126.355, 0.00145492, 0.000552436, -0.00342959, 0.000835127, 0.000835127, 0.000835127
3725, 1,0.00149396, -0.000912539, 0.000653131, -12.4403, -65.0637, 0.00338154, -11.2772, 229.943, 0, 0.00113893, 0.00188696, 0.00316465, -15.7957, 141.028, 0, 0.00114057, 0.00110147, 0.00187148, -9.0614, 82.099, 0, 0.00114166, -21.6852, -91.7644, -309.633, -13.0475, -53.2097, -180.04, 0.00176242, 0.000284049, -0.00433495, 0.00101706, 0.00101706, 0.00101706
3726, 1,0.00173245, -0.00112744, 0.00077473, -12.1419, -77.9911, 0.00520237, 36.5944, 281.244, 0, 0.00101608, 0.00214443, 0.00387679, -17.3447, 159.325, 0, 0.00101809, 0.00132693, 0.00234442, -6.63543, 92.9909, 0, 0.00101918, -36.7079, -78.2355, -363.03, -23.0808, -43.4528, -212.439, 0.00173279, 0.000876352, -0.00519453, 0.000976368, 0.000976368, 0.000976368
3727, 1,0.00930647, -0.00374298, 0.00242635, -44.1687, -208.205, 0.0350584, -94.1221, 466.236, 0.843212, 0.000820576, 0.010388, 0.0168712, -59.8259, 365.885, 0.195406, 0.000826859, 0.00823118, 0.0120697, -28.3563, 198.142, 0.18596, 0.000829405, -159.014, -139.601, -799.04, -103.039, -76.9769, -414.411, 0.00628934, 0.00721318, -0.0201666, 0.00407576, 0.00407576, 0.00407576
3728, 1,0.00414148, -0.00276247, 0.00185043, -47.642, -174.938, 0.0201347, -122.535, 479.435, 0.469971, 0.000905078, 0.00496324, 0.00972547, -59.8351, 307.343, 0.0533396, 0.000909984, 0.00337847, 0.00620055, -33.4033, 173.227, 0.052452, 0.000912028, -70.9932, -246.373, -604.661, -51.6265, -146.168, -321.886, 0.00466316, -2.46679E-05, -0.00977882, 0.00281355, 0.00281355, 0.00281355
3729, 1,0.0027675, -0.0017033, 0.00121033, 28.7077, -112.612, 0.0070064, 47.9353, 258.878, 0.0588448, 0.00128584, 0.00348406, 0.00558175, 30.4606, 180.324, 0, 0.00128767, 0.00205143, 0.00316509, 26.9799, 94.0472, 0, 0.00128947, 27.2938, -253.299, -314.969, 25.5235, -142.182, -165.483, 0.00341661, -0.00251075, -0.00383204, 0.00202029, 0.00202029, 0.00202029
3730, 1,0.0020862, -0.0010312, 0.000809244, 31.9793, -68.6445, 0.00480609, 117.862, 146.797, 0, 0.00147872, 0.00267348, 0.00362281, 39.8259, 116.224, 0, 0.00147945, 0.00149892, 0.00200437, 24.1331, 62.732, 0, 0.00148073, 31.2558, -238.853, -141.076, 19.2541, -130.78, -76.6697, 0.00249207, -0.00322115, -0.00115693, 0.00139563, 0.00139563, 0.00139563
3731, 1,0.00117473, -0.000679506, 0.000507662, 9.581, -45.9672, 0.00255915, 36.5504, 113.362, 0, 0.00193834, 0.00151053, 0.00224331, 11.5978, 80.3103, 0, 0.00193938, 0.000838939, 0.00122804, 7.56538, 43.0892, 0, 0.00194055, 8.01156, -51.6113, -197.331, 5.50924, -28.0276, -106.749, 0.00143462, 0.000173229, -0.00291107, 0.000795446, 0.000795446, 0.000795446
3732, 1,0.00161121, -0.000768324, 0.000622853, 56.707, -42.4315, 0.00299288, 102.133, 52.8143, 0, 0.00182929, 0.00208857, 0.00271065, 73.1478, 34.3375, 0, 0.00182984, 0.00113386, 0.00146501, 40.2669, 17.8947, 0, 0.00183033, 8.61224, 71.015, -182.64, 5.13256, 39.1169, -97.9336, 0.000723383, 0.00204336, -0.00332393, 0.000390785, 0.000390785, 0.000390785
3733, 1,0.00208029, -0.000770169, 0.000695389, 88.6057, -39.4866, 0.00387801, 162.773, 27.5476, 0, 0.00179556, 0.0027009, 0.00301212, 114.849, 17.1935, 0, 0.00179586, 0.00145968, 0.00162135, 62.3628, 8.89757, 0, 0.0017961, 7.33934, 110.889, -169.809, 3.96156, 60.2064, -90.8607, 0.000426043, 0.00261713, -0.00332217, 0.000223914, 0.000223914, 0.000223914
3734, 1,0.00149567, 0.000449368, 0.000444594, 73.6389, 21.8977, 0.00267326, 126.644, -0.408051, 0, 0.00180195, 0.00194503, 0.00191157, 95.5367, -4.85308, 0, 0.00180208, 0.0010463, 0.00102239, 51.7412, -3.07922, 0, 0.00180203, 7.10804, 91.6747, -84.2234, 3.97397, 49.6616, -44.3979, 7.38402E-05, 0.00186332, -0.0018584, 3.54662E-05, 3.54662E-05, 3.54662E-05
3735, 1,0.000829703, 0.000245158, 0.00019254, 63.1384, 18.5966, 0.0012412, 95.6823, -49.7091, 0, 0.00178186, 0.00107454, 0.000841711, 81.72, -41.5495, 0, 0.00178163, 0.000585131, 0.000457088, 44.5693, -22.7143, 0, 0.00178108, 4.16586, 51.12, 69.3627, 2.41344, 27.3137, 38.4159, -0.000566336, 0.000427167, 0.000813405, -0.000306762, -0.000306762, -0.000306762
3736, 1,0.00285125, 0.000849588, 0.000590398, 180.301, 53.6812, 0.00487071, 304.182, -99.4031, 0, 0.00176265, 0.00370083, 0.00256711, 233.981, -79.3703, 0, 0.00176208, 0.00200169, 0.00138633, 126.621, -43.0205, 0, 0.00176104, -7.82779, 12.5133, 233.425, -3.9819, 6.69106, 126.352, -0.00141556, -0.000985376, 0.00368889, -0.000761675, -0.000761675, -0.000761675
3737, 1,0.00123751, -0.000479597, 0.000429056, 52.3706, -24.563, 0.0022728, 94.2147, 17.7369, 0, 0.00182642, 0.00161599, 0.00182931, 68.3615, 10.7668, 0, 0.00182662, 0.000859052, 0.000971285, 36.3809, 5.67049, 0, 0.00182678, 5.18513, 61.2245, -98.7098, 2.68044, 32.4985, -52.1904, 0.000279467, 0.00146445, -0.00191862, 0.000146206, 0.000146206, 0.000146206
3738, 1,0.00130846, 0.000389779, 0.000258605, 84.4229, 25.0253, 0.00213776, 121.343, -27.294, 0, 0.00175931, 0.001698, 0.00113547, 109.438, -39.1956, 0, 0.00175965, 0.000919152, 0.000621264, 59.4175, -21.4519, 0, 0.00175914, 3.35532, 44.2739, 69.9576, 1.36413, 23.8132, 39.1784, -0.000545946, 0.000318287, 0.000863697, -0.000308615, -0.000308615, -0.000308615
3739, 1,0.00332753, 0.000992114, 0.000680587, 207.009, 62.1596, 0.00607227, 355.867, -92.598, 0, 0.00172006, 0.00431944, 0.00299254, 269.162, -87.3505, 0, 0.00171992, 0.00233579, 0.00163216, 144.861, -46.3196, 0, 0.00171877, -12.7689, 9.98237, 264.838, -8.81976, 5.20482, 142.574, -0.00164482, -0.00116528, 0.00422756, -0.000915031, -0.000915031, -0.000915031
3740, 1,0.000803895, -0.000533208, 0.000380114, 21.5912, -30.9797, 0.00147675, 30.4336, 52.8857, 0, 0.00191685, 0.00103081, 0.00166444, 26.5367, 29.8126, 0, 0.00191757, 0.000577075, 0.000904566, 16.6493, 14.2837, 0, 0.00191805, 15.2272, 22.7762, -127.441, 9.6176, 14.3304, -66.7992, 0.000791733, 0.000950765, -0.00222627, 0.000428458, 0.000428458, 0.000428458
3741, 1,0.00163198, 0.000472509, 0.000370388, 88.787, 26.748, 0.00459831, 242.827, -34.3226, 0, 0.00168648, 0.00210343, 0.0016466, 115.488, -21.5844, 0, 0.00168613, 0.00116142, 0.000910594, 62.1241, -9.71874, 0, 0.0016858, -11.0756, 13.0598, 62.7692, -9.78109, 3.79313, 35.1442, -0.000573672, -6.66004E-05, 0.000990528, -0.000359397, -0.000359397, -0.000359397
3742, 1,0.00432344, 0.00126456, 0.000866756, 263.3, 78.1763, 0.0159471, 439.615, -106.571, 0.164432, 0.00163056, 0.00558691, 0.00391235, 341.435, -103.881, 0, 0.00163021, 0.00306087, 0.00218085, 185.201, -54.4146, 0, 0.0016289, -26.7864, 3.22004, 335.208, -19.8584, 0.705839, 182.396, -0.00220111, -0.00156951, 0.0054563, -0.00127544, -0.00127544, -0.00127544
3743, 1,0.00690124, 0.00171472, 0.00120135, 325.656, 99.0217, 0.0457827, 545.557, -265.096, 0.731361, 0.00148796, 0.00861299, 0.00606656, 424.62, -117.759, 0.0296279, 0.00148006, 0.0051914, 0.0036723, 226.744, -62.4792, 0.0285341, 0.00147871, -38.3466, -27.088, 418.71, -18.8378, -17.1474, 223.423, -0.00340186, -0.00311995, 0.00846482, -0.00205266, -0.00205266, -0.00205266
3744, 1,0.0171032, 0.00300739, 0.00209655, 359.954, 115.992, 0.0716765, 749.405, -276.029, 1, 0.00132321, 0.0201074, 0.0151871, 475.932, -176.172, 0.253329, 0.00131423, 0.0141003, 0.0110099, 243.992, -96.1954, 0.217846, 0.00131219, 58.34, -2.48943, 472.665, 42.7871, 3.76578, 242.033, -0.0063414, -0.0102317, 0.0199026, -0.00427193, -0.00427193, -0.00427193
3745, 1,0.0299996, 0.00493737, 0.003598, 373.215, 122.12, 0.0784565, 912.358, -310.267, 1, 0.00117637, 0.0349095, 0.0270995, 495.252, -203.332, 0.53761, 0.00116854, 0.0250997, 0.0199645, 251.261, -105.903, 0.445002, 0.00116571, 95.3657, 23.2495, 491.382, 54.4794, 14.9354, 248.294, -0.0107381, -0.0190565, 0.0345083, -0.00782814, -0.00782814, -0.00782814
3746, 1,0.0025002, 0.000627483, 0.000505126, 139.163, 33.6808, 0.0132475, 449.844, -126.496, 0.11355, 0.00148563, 0.00312642, 0.00235645, 172.794, -33.6131, 0, 0.00148319, 0.00187482, 0.00136559, 105.566, -22.8053, 0, 0.00148293, -22.6229, -7.18539, 130.648, -15.6507, 1.74052, 82.3259, -0.00100751, -0.000689987, 0.00224294, -0.000689764, -0.000689764, -0.000689764
3747, 1,0.0046813, 0.00102782, 0.000753346, 261.534, 59.2857, 0.0301466, 507.919, -217.001, 0.450454, 0.00126119, 0.00570428, 0.00406923, 320.646, -69.0002, 1.66358E-05, 0.00125668, 0.00366111, 0.00259434, 202.523, -40.2501, 6.64417E-06, 0.00125609, -48.7054, -43.2587, 298.965, -41.105, -29.7142, 191.57, -0.00211637, -0.00203227, 0.00526833, -0.00150251, -0.00150251, -0.00150251
3748, 1,0.0118762, 0.00158196, 0.00107112, 362.59, 93.3688, 0.0353057, 439.131, -105.63, 0.54105, 0.00111921, 0.0134506, 0.00986775, 455.921, -184.557, 0.134225, 0.00112009, 0.0103038, 0.0077975, 269.289, -117.794, 0.134225, 0.00111878, 75.4827, 26.47, 451.719, 61.2453, 24.9719, 267.164, -0.00388011, -0.0061621, 0.0132796, -0.00288459, -0.00288459, -0.00288459
3749, 1,0.00107415, -0.000695345, 0.00050126, 4.51716, -47.0614, 0.00195962, -6.38488, 133.003, 0, 0.00155372, 0.00138102, 0.00223424, 4.82111, 81.2378, 0, 0.00155503, 0.000767559, 0.00123378, 4.22745, 43.0898, 0, 0.00155599, 1.53173, -39.0534, -206.192, 2.08635, -19.1767, -112.179, 0.0013114, 0.000452982, -0.00308265, 0.0007223, 0.0007223, 0.0007223
3750, 1,0.00132204, -0.000852491, 0.000608663, -15.0438, -61.3268, 0.0032528, -16.5807, 228.775, 0, 0.00110715, 0.00168626, 0.00286636, -18.864, 132.411, 0, 0.00110888, 0.000958283, 0.00165752, -11.2029, 75.8946, 0, 0.0011099, -19.3517, -91.4725, -286.408, -11.3947, -52.1315, -164.158, 0.0016757, 0.000152917, -0.00397728, 0.000953932, 0.000953932, 0.000953932
3751, 1,0.00152336, -0.00106032, 0.000720902, -15.2946, -73.793, 0.00476113, 12.5385, 285.388, 0, 0.000984945, 0.00189971, 0.00353299, -21.1573, 148.828, 0, 0.00098713, 0.00115075, 0.00210567, -9.26391, 85.2427, 0, 0.000988149, -26.4297, -85.3587, -334.696, -14.2415, -49.621, -191.866, 0.00178561, 0.000558538, -0.00475921, 0.00104202, 0.00104202, 0.00104202
3752, 1,0.00870879, -0.00358664, 0.00232606, -48.4367, -207.268, 0.0345679, -94.8509, 472.625, 0.81977, 0.000797041, 0.00973916, 0.0159452, -63.688, 373.31, 0.17176, 0.000802992, 0.00768676, 0.0113574, -32.9691, 206.403, 0.166019, 0.00080541, -160.711, -148.804, -810.415, -106.43, -87.2212, -425.558, 0.0059813, 0.00655113, -0.0192325, 0.00390749, 0.00390749, 0.00390749
3753, 1,0.00381091, -0.00268132, 0.00178747, -41.9784, -171.887, 0.0198365, -122.308, 480.49, 0.458893, 0.000881962, 0.00462283, 0.00911994, -53.7419, 298.452, 0.0404002, 0.00088685, 0.00304195, 0.00567379, -28.6153, 166.291, 0.0397527, 0.000888799, -74.2831, -217.144, -603.927, -52.218, -123.412, -323.243, 0.00409154, 0.000473427, -0.00951972, 0.00235916, 0.00235916, 0.00235916
3754, 1,0.00267934, -0.00166539, 0.0011829, 22.4483, -110.639, 0.00693598, 42.1543, 266.559, 0.0566352, 0.00124456, 0.0033794, 0.00547484, 23.6071, 182.813, 4.1621E-07, 0.00124643, 0.00197955, 0.00311197, 21.2997, 97.0223, 4.1621E-07, 0.00124817, 11.0315, -245.104, -314.368, 13.2493, -136.781, -167.536, 0.00311069, -0.00229932, -0.00377793, 0.0018064, 0.0018064, 0.0018064
3755, 1,0.00210592, -0.0010402, 0.000815293, 31.1365, -69.7313, 0.00492534, 115.622, 157.348, 0, 0.00142105, 0.00269623, 0.00365688, 38.4634, 119.493, 0, 0.00142193, 0.00151569, 0.00202651, 23.8136, 64.2236, 0, 0.0014232, 27.206, -242.969, -142.715, 17.7616, -133.023, -77.4092, 0.00245696, -0.00325726, -0.00113875, 0.00138663, 0.00138663, 0.00138663
3756, 1,0.000942469, -0.000722242, 0.000497318, 1.93406, -47.1681, 0.00207609, 7.20536, 122.154, 0, 0.00187637, 0.00121422, 0.00219115, 1.74267, 74.7712, 0, 0.00187782, 0.000671245, 0.0011975, 2.15042, 39.7498, 0, 0.00187888, -3.56829, -15.9954, -204.75, -1.41178, -7.08256, -110.755, 0.00110218, 0.000839125, -0.00315463, 0.000596218, 0.000596218, 0.000596218
3757, 1,0.00198197, -0.000799211, 0.000690906, 80.0183, -42.3539, 0.00389532, 151.149, 44.264, 0, 0.00176832, 0.00256451, 0.00300584, 102.968, 24.4965, 0, 0.00176888, 0.00139947, 0.00162419, 57.0712, 12.1842, 0, 0.00176924, 7.31525, 99.614, -180.419, 4.24509, 55.1807, -95.9785, 0.000540805, 0.00249332, -0.00343163, 0.000281927, 0.000281927, 0.000281927
3758, 1,0.00235909, -0.000777142, 0.000741038, 108.65, -38.0248, 0.00451752, 203.328, 13.668, 0, 0.00173534, 0.00306403, 0.00319044, 140.669, 5.5609, 0, 0.00173556, 0.00165416, 0.00170837, 76.6303, 2.07791, 0, 0.00173566, 7.91693, 136.207, -160.807, 4.34964, 74.2141, -84.7975, 0.0002551, 0.00296957, -0.0033149, 0.000124764, 0.000124764, 0.000124764
3759, 1,0.00171195, 0.00051655, 0.000476036, 90.1767, 26.682, 0.00320559, 164.547, -17.5276, 0, 0.00174134, 0.00222849, 0.0020184, 116.858, -15.5003, 0, 0.00174128, 0.00119544, 0.00106638, 63.4963, -9.40289, 0, 0.00174111, 6.05583, 112.847, -72.4018, 3.31823, 61.3348, -36.4444, -0.000115967, 0.00214348, -0.00177598, -7.78572E-05, -7.78572E-05, -7.78572E-05
3760, 1,0.00106248, 0.00029676, 0.000232605, 79.5368, 22.2535, 0.00192705, 143.631, -70.5438, 0, 0.00172238, 0.00135776, 0.00106365, 101.721, -50.4159, 0, 0.00172182, 0.000768323, 0.000600551, 57.4058, -28.3079, 0, 0.0017212, 2.1566, 63.5621, 85.529, 1.09613, 34.2578, 49.5697, -0.000748362, 0.000550658, 0.00101582, -0.000422601, -0.000422601, -0.000422601
3761, 1,0.00305151, 0.00087661, 0.000605286, 194.037, 55.868, 0.00559404, 356.39, -123.607, 0, 0.001704, 0.00392808, 0.00270801, 249.903, -86.328, 0, 0.00170297, 0.00217495, 0.00149752, 138.171, -47.5342, 0, 0.0017019, -5.86379, 15.8097, 249.038, -3.28953, 8.14565, 137.747, -0.00148354, -0.00102528, 0.00390968, -0.000818081, -0.000818081, -0.000818081
3762, 1,0.00160046, -0.000506968, 0.000493521, 76.0227, -24.2321, 0.00332093, 157.323, -0.477834, 0, 0.00176567, 0.00208021, 0.00210871, 98.4243, -0.135679, 0, 0.00176566, 0.00112099, 0.0011226, 53.6343, -0.867271, 0, 0.00176568, 4.19879, 86.0994, -89.8911, 2.10452, 46.4502, -45.9529, 8.70796E-05, 0.00181858, -0.00190345, 3.12446E-05, 3.12446E-05, 3.12446E-05
3763, 1,0.00173657, 0.000499233, 0.000333812, 111.234, 31.6239, 0.00339622, 207.011, -62.426, 0, 0.0017014, 0.002235, 0.00148127, 142.821, -49.9126, 0, 0.00170105, 0.0012388, 0.000820602, 79.6793, -28.339, 0, 0.00170046, 3.99855, 59.1087, 86.6306, 2.45793, 31.9162, 50.6428, -0.000700987, 0.000462768, 0.00104816, -0.000393804, -0.000393804, -0.000393804
3764, 1,0.0035305, 0.00103242, 0.000703718, 224.351, 65.0435, 0.00663061, 407.121, -125.991, 0, 0.00166323, 0.00456288, 0.00310463, 289.392, -99.0552, 0, 0.0016625, 0.00249816, 0.00169727, 159.313, -55.394, 0, 0.00166132, -3.67848, 18.2843, 282.56, -0.953205, 11.3862, 155.749, -0.0016369, -0.00117428, 0.00441857, -0.000891583, -0.000891583, -0.000891583
3765, 1,0.00141949, -0.000596347, 0.000488376, 58.0532, -32.1645, 0.00317888, 124.99, 33.9663, 0, 0.0018531, 0.00179893, 0.00220131, 72.0067, 17.5294, 0, 0.0018536, 0.00104082, 0.00122721, 44.1351, 6.83478, 0, 0.00185392, 11.6347, 58.1124, -122.335, 7.31799, 35.138, -62.9604, 0.000522553, 0.00150374, -0.00231074, 0.000262772, 0.000262772, 0.000262772
3766, 1,0.00238038, 0.000658353, 0.000518273, 131.535, 37.4252, 0.00584802, 321.789, -61.0393, 0, 0.00162997, 0.00303768, 0.00239043, 168.917, -34.0162, 0, 0.00162926, 0.00172387, 0.00135645, 94.1857, -17.0627, 0, 0.00162881, -9.05496, 32.817, 78.2866, -8.37061, 14.5465, 45.0122, -0.000726442, 0.000154015, 0.00112441, -0.000444952, -0.000444952, -0.000444952
3767, 1,0.00447607, 0.00131357, 0.000884605, 278.888, 82.1396, 0.0160559, 454.534, -130.431, 0.167597, 0.00157608, 0.00578902, 0.00395759, 361.008, -117.387, 0, 0.0015754, 0.00316364, 0.00219127, 196.786, -63.4976, 0, 0.00157402, -9.17817, 12.5357, 348.804, -6.84012, 6.6523, 190.681, -0.00204022, -0.00158706, 0.00553213, -0.00114201, -0.00114201, -0.00114201
3768, 1,0.00768985, 0.00173685, 0.00119093, 330.464, 101.945, 0.0434295, 511.4, -206.231, 0.679429, 0.00143457, 0.00942616, 0.00668873, 432.401, -124.928, 0.0448451, 0.00142983, 0.00595384, 0.00431155, 228.536, -64.0171, 0.0441772, 0.00142838, -28.8815, -13.7625, 417.429, -19.185, -8.72447, 219.961, -0.00366783, -0.00326175, 0.00900884, -0.00246838, -0.00246838, -0.00246838
3769, 1,0.0165902, 0.00292338, 0.00203222, 356.118, 115.524, 0.0685619, 645.307, -231.164, 1, 0.00127819, 0.0195061, 0.0141468, 471.595, -166.436, 0.239308, 0.00127135, 0.0136775, 0.0101537, 240.69, -88.437, 0.206391, 0.00126945, 25.1969, 15.6612, 458.448, 18.4765, 14.0149, 232.82, -0.00748463, -0.00812851, 0.0187302, -0.00547222, -0.00547222, -0.00547222
3770, 1,0.0269576, 0.00446472, 0.00316863, 361.204, 119.606, 0.0748795, 802.914, -266.395, 1, 0.00113786, 0.0313874, 0.0234161, 480.685, -176.857, 0.466063, 0.00113116, 0.0225408, 0.017148, 241.847, -88.5863, 0.387632, 0.00112885, 41.5718, 19.2215, 469.777, 21.5781, 9.90756, 234.273, -0.0120794, -0.0144119, 0.03037, -0.00895065, -0.00895065, -0.00895065
3771, 1,0.00334868, 0.00084534, 0.000693447, 190.336, 46.3755, 0.0146766, 437.559, -107.613, 0.141572, 0.00143473, 0.0041934, 0.00333482, 236.685, -51.6475, 0, 0.00143321, 0.00250437, 0.00194904, 144.007, -34.3989, 0, 0.00143281, -1.48773, 25.1465, 131.284, 0.80248, 21.643, 80.7512, -0.000843125, -0.000295109, 0.00197632, -0.000523011, -0.000523011, -0.000523011
3772, 1,0.00549885, 0.00114974, 0.000881281, 288.789, 65.6416, 0.0308564, 486.06, -179.544, 0.459803, 0.00121734, 0.00664589, 0.00500789, 354.352, -88.3731, 0.011036, 0.00121433, 0.00435321, 0.00325298, 223.272, -56.8054, 0.0109101, 0.00121371, -3.8619, 2.98292, 265.998, -2.63292, 5.02542, 168.024, -0.00165108, -0.00154395, 0.00463797, -0.00112812, -0.00112812, -0.00112812
3773, 1,0.0106864, 0.0014471, 0.00101024, 355.234, 85.279, 0.0349602, 444.904, -109.073, 0.530537, 0.00108206, 0.0121257, 0.00890838, 440.435, -150.597, 0.103617, 0.00108215, 0.00924946, 0.00691581, 270.084, -93.8965, 0.103617, 0.00108109, 31.2531, 13.3622, 407.176, 24.3362, 8.97523, 248.378, -0.00375901, -0.00453928, 0.010892, -0.00288477, -0.00288477, -0.00288477
3774, 1,0.00128675, -0.000785774, 0.000543011, 17.4167, -49.6078, 0.00327251, 60.9041, 126.065, 0, 0.00149914, 0.00158253, 0.00260865, 18.9328, 75.2183, 0, 0.00150037, 0.000992196, 0.00152807, 15.9564, 41.7122, 0, 0.00150119, -15.0496, 5.67147, -216.277, -11.832, 8.46307, -121.768, 0.0008662, 0.00130176, -0.00338855, 0.000406553, 0.000406553, 0.000406553
3775, 1,0.0011711, -0.000943135, 0.000637927, -16.5182, -62.5547, 0.00305933, -18.7222, 219.274, 0, 0.00107431, 0.001391, 0.00304603, -24.1665, 120.693, 0, 0.00107603, 0.000953226, 0.00188598, -8.8259, 72.3906, 0, 0.00107687, -27.5932, -36.3394, -298.146, -22.7087, -15.5282, -178.935, 0.00131824, 0.00112743, -0.00440418, 0.00066082, 0.00066082, 0.00066082
3776, 1,0.00173656, -0.00107011, 0.000745121, -6.05145, -72.6284, 0.00450011, 6.53473, 276.848, 0, 0.00095262, 0.002142, 0.00381562, -8.90215, 147.543, 0, 0.000954621, 0.00134043, 0.00234659, -2.77726, 88.3197, 0, 0.000955538, -23.406, -51.7985, -367.425, -16.7301, -25.794, -222.435, 0.00183135, 0.00123531, -0.00546088, 0.00103986, 0.00103986, 0.00103986
3777, 1,0.00765354, -0.00343003, 0.00228882, -36.4491, -192.081, 0.0301259, -64.0135, 371.391, 0.830657, 0.000772861, 0.00874994, 0.015271, -46.642, 309.083, 0.18092, 0.000777245, 0.00657199, 0.0107679, -25.9302, 163.595, 0.174077, 0.000779298, -65.9927, -108.594, -752.661, -41.5167, -60.5712, -388.698, 0.00797464, 0.00631941, -0.019873, 0.00572713, 0.00572713, 0.00572713
3778, 1,0.00426737, -0.00243397, 0.00165318, 28.5352, -154.405, 0.0168136, -73.1077, 355.591, 0.459281, 0.000859057, 0.00513788, 0.00867548, 27.7981, 225.586, 0.0342675, 0.000862524, 0.00339751, 0.00537246, 29.298, 113.651, 0.0342675, 0.000864123, 14.1672, -129.56, -561.364, 20.8262, -66.2274, -295.552, 0.00479714, 0.00119943, -0.00972857, 0.0031618, 0.0031618, 0.0031618
3779, 1,0.00193184, -0.00145803, 0.00104114, -2.72387, -96.3501, 0.00474952, 59.8244, 221.166, 0, 0.00120452, 0.00255152, 0.00440202, -0.876237, 163.182, 0, 0.00120565, 0.00131648, 0.00232945, -4.36981, 89.4496, 0, 0.00120709, -20.0254, -167.189, -302.331, -17.7477, -89.3929, -161.208, 0.00214482, -0.000963152, -0.00382967, 0.00103172, 0.00103172, 0.00103172
3780, 1,0.0017932, -0.000873072, 0.000687688, 22.4965, -60.4323, 0.00385559, 53.8062, 172.504, 0, 0.00136418, 0.00229526, 0.00307325, 27.0546, 109.382, 0, 0.00136558, 0.00129135, 0.00169861, 17.9473, 57.8749, 0, 0.00136672, 12.4231, -190.951, -149.619, 9.21187, -102.058, -80.778, 0.00198493, -0.00231668, -0.00144324, 0.00110574, 0.00110574, 0.00110574
3781, 1,0.00454432, 0.00133343, 0.000896105, 278.596, 83.4165, 0.0211325, 456.863, -130.43, 0.265287, 0.00174515, 0.00587762, 0.00403499, 362.01, -112.942, -2.71051E-20, 0.00174401, 0.00321115, 0.00224834, 195.185, -58.1422, -2.71051E-20, 0.00174246, -13.6603, 3.26993, 349.217, -11.2443, -2.72333, 188.394, -0.00206588, -0.00171189, 0.00561051, -0.00115169, -0.00115169, -0.00115169
3782, 1,0.00340539, 0.00103283, 0.000703556, 217.043, 65.0694, 0.00689035, 418.247, -124.416, 0, 0.00183863, 0.00443816, 0.00300532, 282.109, -97.1948, 0, 0.00183782, 0.00237267, 0.00159844, 151.98, -53.5153, 0, 0.00183652, -1.5545, 18.7729, 274.366, 1.04831, 11.8829, 147.615, -0.00156401, -0.00113335, 0.00427456, -0.000820992, -0.000820992, -0.000820992
3783, 1,0.00287414, 0.000866262, 0.000598101, 182.712, 55.2006, 0.00571345, 365.003, -127.588, 0, 0.00188138, 0.0037404, 0.00258808, 237.912, -82.1247, 0, 0.00187999, 0.00200788, 0.00139189, 127.512, -43.8096, 0, 0.00187882, -5.9607, 15.4148, 236.92, -3.61146, 8.07386, 126.967, -0.00141976, -0.000966959, 0.00371938, -0.000766599, -0.000766599, -0.000766599
3784, 1,0.00220072, 0.000608894, 0.000503845, 115.339, 33.3514, 0.00634563, 342.587, -57.3672, 0, 0.00180677, 0.00280899, 0.0023464, 148.66, -21.3689, 0, 0.00180572, 0.00159291, 0.00133991, 82.0382, -9.07927, 0, 0.00180536, -10.7848, 38.4411, 36.4505, -9.92564, 19.6327, 17.5308, -0.000565898, 0.00047518, 0.00043748, -0.000354169, -0.000354169, -0.000354169
3785, 1,0.00151556, 0.000448197, 0.000319459, 92.9393, 27.4647, 0.00325772, 193.43, -53.0336, 0, 0.00186627, 0.00196354, 0.00141146, 120.394, -37.0763, 0, 0.00186579, 0.00106776, 0.000772966, 65.4938, -20.1961, 0, 0.00186528, 5.82553, 58.7793, 46.624, 3.94002, 32.1409, 24.5072, -0.000461607, 0.000659991, 0.000403266, -0.000235646, -0.000235646, -0.000235646
3786, 1,0.000846716, 0.000250181, 0.000188907, 60.0725, 17.9479, 0.00167587, 122.607, -58.3193, 0, 0.00189365, 0.00109672, 0.000821513, 78.0122, -35.1741, 0, 0.00189294, 0.000596853, 0.00044399, 42.1394, -18.7192, 0, 0.00189243, 2.48193, 58.8346, 44.2057, 1.42388, 31.8591, 22.8747, -0.000502041, 0.000691469, 0.000381355, -0.000265268, -0.000265268, -0.000265268
3787, 1,0.00153045, -0.000725394, 0.000566649, 52.9768, -40.7341, 0.00339441, 120.498, 53.6067, 0, 0.00204312, 0.00193804, 0.0026165, 65.7904, 34.6394, 0, 0.00204375, 0.00112307, 0.00148372, 40.1721, 17.3055, 0, 0.00204432, 14.1147, 58.8955, -176.928, 9.62139, 35.778, -97.3158, 0.000843644, 0.0017913, -0.00319704, 0.000475552, 0.000475552, 0.000475552
3788, 1,0.00166221, -0.000651786, 0.000569212, 64.6597, -34.6803, 0.00346747, 148.294, 20.9146, 0, 0.00195328, 0.0021488, 0.00252538, 83.7803, 23.874, 0, 0.00195319, 0.00117566, 0.00138706, 45.5408, 13.4587, 0, 0.00195352, 2.62503, 74.7357, -148.983, 1.44173, 40.376, -82.1937, 0.000430803, 0.00195751, -0.00277571, 0.00024172, 0.00024172, 0.00024172
3789, 1,0.00181643, -0.000611278, 0.000572565, 78.8105, -30.7215, 0.00334749, 150.436, 10.4379, 0, 0.00192514, 0.00235025, 0.00253589, 102.207, 11.913, 0, 0.00192509, 0.00128264, 0.00139082, 55.415, 6.99103, 0, 0.00192525, 3.30822, 97.4538, -136.501, 1.83349, 52.6919, -75.4985, 0.000257081, 0.00225009, -0.00270048, 0.000148355, 0.000148355, 0.000148355
3790, 1,0.00241338, -0.000978456, 0.000843722, 89.9455, -52.8746, 0.00465073, 181.139, 51.9354, 0, 0.00191658, 0.00312235, 0.00372924, 116.82, 41.3041, 0, 0.00191691, 0.00170443, 0.00204184, 63.0716, 23.4853, 0, 0.00191747, -0.558091, 112.266, -235.621, -1.02947, 60.4693, -129.896, 0.000638362, 0.00302614, -0.00433474, 0.000347743, 0.000347743, 0.000347743
3791, 1,0.00199483, -0.000958779, 0.000768626, 62.2924, -54.4615, 0.00393966, 128.873, 77.0028, 0, 0.00195396, 0.00257324, 0.00342145, 80.4799, 55.2603, 0, 0.00195465, 0.00141647, 0.00188434, 44.1073, 30.6785, 0, 0.00195543, -0.153514, 76.9819, -242.609, -0.253559, 42.0191, -133.801, 0.000866512, 0.00249926, -0.00426248, 0.000477225, 0.000477225, 0.000477225
3792, 1,0.00105957, -0.000826442, 0.000562238, -4.49354, -54.9621, 0.00210889, -2.53601, 137.293, 0, 0.00206223, 0.00135728, 0.00253447, -6.32578, 94.658, 0, 0.00206365, 0.0007621, 0.00141054, -2.65131, 51.9259, 0, 0.00206509, -6.48399, -35.8015, -241.688, -2.75327, -19.481, -133.544, 0.00135337, 0.000732845, -0.00362225, 0.000759262, 0.000759262, 0.000759262
3793, 1,0.00177144, -0.00089322, 0.000690974, 23.1617, -60.5583, 0.00357467, 54.2402, 154.06, 0, 0.00152665, 0.00225998, 0.00312343, 27.9084, 105.977, 0, 0.00152784, 0.00128303, 0.00174206, 18.4201, 56.6889, 0, 0.00152907, 24.8491, -190, -152.78, 16.809, -103.308, -83.568, 0.00219519, -0.00235231, -0.00156261, 0.00124877, 0.00124877, 0.00124877
3794, 1,0.00214273, -0.00157976, 0.00111841, 4.98507, -103.161, 0.00491116, 63.7483, 215.78, 0.00522396, 0.00132979, 0.00279406, 0.00485378, 7.26906, 167.546, 0, 0.00133084, 0.00149674, 0.0026277, 2.95306, 90.9706, 0, 0.0013325, 7.11423, -187.421, -322.332, 2.40693, -104.27, -171.048, 0.00279012, -0.00132565, -0.00418328, 0.00148443, 0.00148443, 0.00148443
3795, 1,0.00555414, -0.00265985, 0.0018124, 13.8091, -163.251, 0.0185651, -77.7928, 365.859, 0.512337, 0.000928175, 0.006519, 0.0108287, 13.7155, 244.088, 0.0827449, 0.000932046, 0.00458932, 0.00720552, 13.9039, 126.042, 0.0823012, 0.00093392, 12.4943, -161.559, -583.201, 13.282, -85.9242, -305.482, 0.00648034, 0.00117379, -0.0118068, 0.00456459, 0.00456459, 0.00456459
3796, 1,0.00928034, -0.00390454, 0.00263291, -38.6017, -196.954, 0.0324344, -67.7099, 376.418, 0.897637, 0.000834275, 0.0105778, 0.0179771, -50.0287, 317.251, 0.243616, 0.000839533, 0.00800062, 0.01279, -26.8545, 165.974, 0.225601, 0.00084195, -69.1564, -120.46, -762.136, -42.211, -64.3944, -391.318, 0.00968339, 0.00735359, -0.0229951, 0.00701095, 0.00701095, 0.00701095
3797, 1,0.00221073, -0.00125828, 0.000880477, -13.348, -85.2694, 0.00533784, 25.257, 304.882, 0, 0.00104243, 0.00270263, 0.00490822, -15.8765, 192.882, 0, 0.00104433, 0.00172638, 0.00316255, -10.4752, 123.602, 0, 0.0010455, -39.9468, -60.4534, -478.246, -29.9209, -32.8921, -307.994, 0.00219519, 0.00177053, -0.00709565, 0.00131626, 0.00131626, 0.00131626
3798, 1,0.0113488, 0.00148152, 0.0010297, 362.555, 86.2336, 0.0350739, 449.694, -118.34, 0.535068, 0.00119826, 0.012818, 0.00952062, 448.686, -158.847, 0.116455, 0.00119828, 0.00988322, 0.00749608, 276.493, -101.579, 0.116455, 0.00119709, 31.0731, 27.8287, 417.639, 27.4954, 19.6166, 257.625, -0.00430986, -0.00453259, 0.0115993, -0.00333039, -0.00333039, -0.00333039
3799, 1,0.0291345, 0.00484303, 0.00343996, 359.786, 119.745, 0.0774417, 876.414, -293.252, 1, 0.00126847, 0.0339494, 0.0253603, 479.435, -173.411, 0.512639, 0.00125984, 0.0243302, 0.0185367, 240.231, -85.3814, 0.423, 0.00125716, 29.2273, 20.3953, 470.611, 12.9665, 9.09147, 234.086, -0.0140308, -0.0150966, 0.033069, -0.0104607, -0.0104607, -0.0104607
3800, 1,0.00153787, -0.00111057, 0.000754227, -15.885, -73.1973, 0.00355395, -6.15966, 233.981, 0, 0.00116336, 0.00193365, 0.00389644, -17.8834, 146.742, 0, 0.00116501, 0.00114351, 0.00239636, -13.8141, 91.105, 0, 0.00116607, -23.3936, -37.7343, -379.099, -17.4501, -19.6845, -236.18, 0.00181644, 0.00151195, -0.00570961, 0.00106592, 0.00106592, 0.00106592
3801, 1,0.00538235, 0.00114186, 0.000881234, 282.765, 65.0393, 0.03241, 472.093, -156.559, 0.488252, 0.00134602, 0.00652172, 0.00506043, 347.718, -74.7458, 0.00703069, 0.00134296, 0.00424432, 0.00330507, 217.863, -44.4566, 0.00703069, 0.0013423, -20.3222, -1.12874, 245.689, -15.5388, -3.95309, 152.862, -0.00172041, -0.00134318, 0.00428129, -0.00113926, -0.00113926, -0.00113926
3802, 1,0.0184111, 0.00316215, 0.00219798, 358.036, 115.934, 0.0716063, 712.658, -237.2, 1, 0.0014115, 0.0215673, 0.0157472, 473.937, -169.583, 0.279187, 0.00140383, 0.0152574, 0.011407, 242.169, -90.7441, 0.238935, 0.00140164, 20.6723, 24.0166, 464.06, 16.1151, 19.8193, 236.298, -0.008909, -0.00875445, 0.0209232, -0.00664889, -0.00664889, -0.00664889
3803, 1,0.00152843, -0.000955966, 0.000652243, 15.6245, -60.2929, 0.00394194, 72.7081, 152.563, 0, 0.00166317, 0.00187563, 0.0032612, 16.9151, 96.2641, 0, 0.00166469, 0.00118201, 0.00196016, 14.3742, 55.6586, 0, 0.00166579, -11.9688, 11.0372, -287.861, -8.55824, 10.7524, -169.17, 0.00126229, 0.00174908, -0.00457347, 0.000694913, 0.000694913, 0.000694913
3804, 1,0.00336046, 0.000802175, 0.000674292, 184.649, 43.1985, 0.0178123, 454.611, -132.834, 0.204055, 0.00160259, 0.00416016, 0.00342897, 227.72, -41.6228, 0, 0.00159978, 0.00256233, 0.0020865, 141.659, -27.4274, 0, 0.00159941, -6.91974, 33.9938, 97.7943, -3.87427, 28.3705, 57.7859, -0.000801943, 5.11141E-05, 0.00142626, -0.00051395, -0.00051395, -0.00051395
3805, 1,0.00848463, 0.00178831, 0.00122411, 335.357, 104.004, 0.052532, 532.47, -234.761, 0.834399, 0.00158963, 0.0102721, 0.00725173, 439.35, -130.242, 0.0603308, 0.00158179, 0.00669762, 0.0048123, 231.372, -68.1832, 0.0596463, 0.00158014, -23.4766, -12.6866, 426.891, -13.6659, -6.2475, 224.463, -0.00400957, -0.00370095, 0.00989763, -0.00277878, -0.00277878, -0.00277878
3806, 1,0.00426763, 0.00126538, 0.000866289, 258.705, 78.2673, 0.0174059, 440.797, -107.941, 0.193091, 0.00169202, 0.00553235, 0.00388654, 336.947, -101.322, 0, 0.00169148, 0.00300349, 0.00215641, 180.486, -51.7149, 0, 0.00169012, -28.8262, 1.34085, 331.451, -21.6929, -1.27522, 178.113, -0.00220688, -0.00156751, 0.00541856, -0.00127465, -0.00127465, -0.00127465
3807, 1,0.00330089, 0.00099336, 0.000681029, 204.48, 62.3012, 0.0061258, 354.745, -87.7146, 0, 0.00178144, 0.00429415, 0.00297842, 266.778, -85.7871, 0, 0.00178138, 0.00230773, 0.00161669, 142.184, -44.5331, 0, 0.00178019, -14.0401, 8.69134, 262.71, -10.2227, 3.75266, 140.069, -0.00164914, -0.00116701, 0.00420823, -0.000918626, -0.000918626, -0.000918626
3808, 1,0.00281317, 0.000852544, 0.000592303, 178.146, 53.8838, 0.00492201, 308.909, -102.507, 0, 0.00182221, 0.0036657, 0.00254424, 232.029, -78.9814, 0, 0.00182152, 0.00196063, 0.0013597, 124.263, -42.4622, 0, 0.00182044, -7.16482, 12.6292, 231.48, -3.48182, 6.89496, 123.973, -0.00139603, -0.00097645, 0.00365413, -0.00074293, -0.00074293, -0.00074293
3809, 1,0.00152653, 0.000450764, 0.000360553, 80.514, 25.0872, 0.00466778, 243.522, -30.8357, 0, 0.00174993, 0.00197675, 0.00157624, 105.577, -16.3349, 0, 0.00174952, 0.00107677, 0.000857607, 55.4707, -6.16979, 0, 0.00174923, -12.2458, 13.5839, 47.6667, -10.8598, 3.97009, 25.3991, -0.000517508, 2.91849E-05, 0.000753395, -0.000328088, -0.000328088, -0.000328088
3810, 1,0.00122724, 0.000372231, 0.00024849, 77.852, 23.6405, 0.00201874, 111.767, -22.0021, 0, 0.0018068, 0.00159946, 0.00107302, 101.492, -34.8016, 0, 0.00180718, 0.000855033, 0.000578869, 54.2131, -18.5502, 0, 0.0018067, 3.62857, 44.0061, 56.7702, 1.63103, 23.6993, 30.3201, -0.000472343, 0.000383316, 0.000653764, -0.000258653, -0.000258653, -0.000258653
3811, 1,0.000750251, 0.000227771, 0.000180094, 56.4061, 17.1004, 0.00119856, 91.0197, -46.185, 0, 0.00183284, 0.000977962, 0.00077002, 73.5032, -36.6662, 0, 0.00183256, 0.000522593, 0.000410001, 39.3119, -19.6429, 0, 0.00183206, 3.9551, 49.0662, 56.9774, 2.45264, 26.1802, 30.2958, -0.000494438, 0.000461201, 0.000628232, -0.000258114, -0.000258114, -0.000258114
3812, 1,0.000843683, -0.000581642, 0.000410097, 19.6894, -34.1118, 0.00156945, 28.5926, 61.2401, 0, 0.00197565, 0.00108196, 0.00182019, 24.3291, 35.9981, 0, 0.00197646, 0.000605595, 0.00100036, 15.0583, 18.2036, 0, 0.00197703, 15.924, 21.9552, -145.874, 10.3714, 13.513, -78.4952, 0.000903183, 0.00103137, -0.0025187, 0.000505431, 0.000505431, 0.000505431
3813, 1,0.00127847, -0.000525899, 0.000456099, 49.7447, -27.8577, 0.00236255, 93.6477, 24.1901, 0, 0.00188836, 0.0016647, 0.00197902, 64.9951, 18.3796, 0, 0.00188854, 0.000892294, 0.00106693, 34.4972, 10.3103, 0, 0.00188878, 4.59295, 57.9199, -117.652, 2.49974, 30.5399, -63.9706, 0.000385787, 0.00151524, -0.00219927, 0.000214406, 0.000214406, 0.000214406
3814, 1,0.00154848, -0.000493594, 0.000476876, 71.0057, -23.9238, 0.00276702, 124.656, 8.21906, 0, 0.00186229, 0.00200859, 0.00208503, 92.1549, 3.72674, 0, 0.00186243, 0.0010884, 0.00113135, 49.8583, 2.12518, 0, 0.00186248, 5.6707, 87.277, -104.128, 3.21294, 47.0572, -56.6457, 0.000178069, 0.00190577, -0.00214431, 0.000100841, 0.000100841, 0.000100841
3815, 1,0.00212655, -0.000832588, 0.000730841, 84.2518, -44.0882, 0.00397193, 158.504, 39.2453, 0, 0.00185525, 0.00275563, 0.00319844, 109.244, 28.1989, 0, 0.00185558, 0.00149747, 0.00173678, 59.2604, 15.4652, 0, 0.00185597, 3.56687, 104.851, -193.014, 1.68483, 56.79, -104.871, 0.000519098, 0.0026628, -0.00363948, 0.000278722, 0.000278722, 0.000278722
3816, 1,0.00163809, -0.000818096, 0.000650013, 52.4022, -46.1604, 0.00305277, 97.6111, 62.6922, 0, 0.00189028, 0.00211998, 0.00285719, 67.6806, 43.6775, 0, 0.00189086, 0.00115622, 0.00155726, 37.1252, 23.5354, 0, 0.00189148, 5.91184, 64.9952, -201.939, 3.63092, 35.5627, -109.8, 0.000812083, 0.00206323, -0.00358407, 0.000446583, 0.000446583, 0.000446583
3817, 1,0.00121259, -0.00071918, 0.000531205, 7.58311, -48.6919, 0.00253767, 32.3116, 117.727, 0, 0.00198968, 0.00155581, 0.00236984, 9.10137, 86.5635, 0, 0.00199069, 0.000869389, 0.00130751, 6.06494, 47.0588, 0, 0.00199196, 6.0501, -56.5049, -209.236, 4.32893, -31.224, -114.281, 0.00149039, 0.000167442, -0.00306251, 0.000831766, 0.000831766, 0.000831766
3818, 1,0.00211053, -0.00102768, 0.000810173, 33.255, -68.2521, 0.00482423, 119.27, 146.076, 0, 0.00146547, 0.00270318, 0.00363888, 41.5815, 115.781, 0, 0.00146619, 0.00151788, 0.00201857, 24.9287, 62.8953, 0, 0.00146745, 32.7969, -239.096, -141.043, 19.9057, -131.341, -77.2504, 0.00251732, -0.00323647, -0.00115967, 0.0014116, 0.0014116, 0.0014116
3819, 1,0.00278472, -0.00170401, 0.00121286, 29.1105, -112.622, 0.00704268, 46.7354, 259.254, 0.060634, 0.0012835, 0.00350531, 0.00562489, 31.0801, 180.768, 0, 0.00128532, 0.00206485, 0.00320376, 27.1728, 94.55, 0, 0.00128712, 28.0778, -255.196, -315.186, 25.8863, -143.339, -166.197, 0.00344227, -0.0025499, -0.00382575, 0.00203797, 0.00203797, 0.00203797
3820, 1,0.00411319, -0.00277804, 0.00185939, -50.8582, -175.858, 0.0200247, -123.21, 480.189, 0.466803, 0.000901483, 0.00494047, 0.00972804, -62.8272, 311.901, 0.0518855, 0.000906297, 0.00334244, 0.00618399, -36.8914, 177.612, 0.051047, 0.000908334, -74.2159, -251.682, -609.806, -55.2014, -151.963, -325.673, 0.00463321, -8.71933E-05, -0.00975825, 0.0027792, 0.0027792, 0.0027792
3821, 1,0.00969119, -0.00373463, 0.00242137, -49.566, -209.018, 0.0352743, -96.5168, 468.742, 0.850188, 0.000815667, 0.0107367, 0.0173725, -65.6858, 375.673, 0.204792, 0.000821883, 0.00865517, 0.012629, -33.2275, 206.611, 0.197381, 0.000824446, -169.174, -148.957, -808.889, -111.679, -85.4362, -422.717, 0.00638105, 0.00734491, -0.0206089, 0.00416945, 0.00416945, 0.00416945
3822, 1,0.00174454, -0.00112595, 0.000775407, -12.5707, -77.874, 0.00530068, 35.8856, 287.475, 0.000362594, 0.00101584, 0.00216259, 0.00389252, -17.4407, 160.579, 4.23516E-22, 0.00101793, 0.00133087, 0.0023543, -7.50315, 94.3692, 4.23516E-22, 0.00101903, -36.1909, -79.3216, -366.225, -22.6767, -44.9712, -215.46, 0.00176469, 0.000872323, -0.00524277, 0.00100788, 0.00100788, 0.00100788
3823, 1,0.012487, 0.00159257, 0.00108718, 362.25, 93.154, 0.034479, 440.562, -108.036, 0.526834, 0.00116384, 0.0140702, 0.010407, 455.363, -191.782, 0.1495, 0.0011649, 0.0109062, 0.00831144, 269.167, -124.637, 0.1495, 0.00116351, 81.2476, 41.9337, 452.164, 68.1582, 37.8387, 267.913, -0.0042804, -0.00625749, 0.0139333, -0.00322318, -0.00322318, -0.00322318
3824, 1,0.0315529, 0.00510736, 0.00371566, 373.1, 122.21, 0.0790041, 927.398, -315.068, 1, 0.00122831, 0.0366338, 0.0283482, 495.236, -202.074, 0.568199, 0.00122002, 0.0264814, 0.0209763, 251.039, -104.804, 0.471831, 0.00121699, 88.532, 25.3072, 492.384, 50.0498, 15.6375, 248.726, -0.0119462, -0.0195823, 0.0363302, -0.00883737, -0.00883737, -0.00883737
3825, 1,0.00153845, -0.00092451, 0.000661275, -11.893, -65.8804, 0.00349102, -10.9387, 236.263, 0, 0.00113112, 0.00193577, 0.00325168, -15.3012, 143.438, 0, 0.00113283, 0.00114161, 0.00194096, -8.46196, 83.8328, 0, 0.00113392, -21.3057, -92.1518, -316.856, -12.5045, -53.215, -185.779, 0.00180865, 0.000313316, -0.00444957, 0.00105612, 0.00105612, 0.00105612
3826, 1,0.00462073, 0.00100378, 0.000743687, 256.516, 57.4337, 0.0302441, 502.42, -208.305, 0.452116, 0.00131074, 0.00562007, 0.00407746, 313.79, -65.2853, 4.19558E-05, 0.00130621, 0.00362393, 0.00263646, 199.334, -38.395, 1.20682E-05, 0.00130564, -56.1851, -38.442, 290.483, -45.7293, -26.3589, 187.273, -0.002218, -0.00187327, 0.00515069, -0.00157257, -0.00157257, -0.00157257
3827, 1,0.018067, 0.00306496, 0.00213878, 358.664, 115.938, 0.0722792, 755.047, -267.761, 1, 0.0013713, 0.0211309, 0.0160922, 474.598, -174.318, 0.273409, 0.00136242, 0.0150036, 0.0118181, 242.736, -94.2026, 0.236713, 0.00136027, 53.1514, -3.73229, 473.536, 38.3011, 2.21066, 242.096, -0.00694845, -0.0107756, 0.0210621, -0.00482187, -0.00482187, -0.00482187
3828, 1,0.00118902, -0.000764247, 0.000543681, 5.26908, -51.1782, 0.00218776, -3.28088, 143.299, 0, 0.00160855, 0.00151194, 0.00250425, 5.46924, 88.6316, 0, 0.00160998, 0.000866259, 0.00142048, 5.07912, 48.1711, 0, 0.00161104, 3.83062, -39.7839, -229.941, 4.36521, -20.9374, -127.941, 0.00147669, 0.000554384, -0.00346932, 0.000850753, 0.000850753, 0.000850753
3829, 1,0.00248872, 0.000599592, 0.00048694, 134.636, 31.8361, 0.0142731, 456.679, -137.265, 0.134416, 0.00155316, 0.00308797, 0.00233891, 166.456, -27.4793, 0, 0.00155012, 0.00188967, 0.00137296, 102.825, -18.0858, 0, 0.00154988, -29.3147, -5.65684, 117.409, -21.778, 2.3001, 73.7352, -0.00105382, -0.000559972, 0.0020597, -0.000746407, -0.000746407, -0.000746407
3830, 1,0.00730139, 0.00172093, 0.0012032, 330.105, 98.8686, 0.0492022, 558.028, -282.847, 0.790061, 0.0015447, 0.00901866, 0.00632001, 428.912, -124.618, 0.0380161, 0.00153524, 0.00558626, 0.0039365, 231.352, -69.5332, 0.0369506, 0.00153384, -32.2989, -19.9107, 426.063, -12.1781, -9.41298, 230.191, -0.00360515, -0.00327512, 0.0089463, -0.0022397, -0.0022397, -0.0022397
3831, 1,0.00435507, 0.00126313, 0.000866353, 263.587, 78.0569, 0.015995, 440.341, -107.763, 0.165533, 0.0016392, 0.005617, 0.00394047, 341.589, -102.186, 0, 0.00163876, 0.00309412, 0.00220962, 185.63, -52.858, 0, 0.00163745, -29.3731, 0.504945, 335.425, -22.2025, -2.03156, 182.808, -0.00223324, -0.00159876, 0.00549018, -0.00130461, -0.00130461, -0.00130461
3832, 1,0.0033184, 0.000990493, 0.000679652, 206.78, 62.0608, 0.00608378, 356.472, -92.5891, 0, 0.00172503, 0.00430879, 0.00298676, 268.833, -87.6059, 0, 0.00172489, 0.00232809, 0.00162802, 144.733, -46.6337, 0, 0.00172374, -12.6469, 10.9586, 264.506, -8.61736, 6.09439, 142.424, -0.00164903, -0.00114767, 0.0042183, -0.000918467, -0.000918467, -0.000918467
3833, 1,0.00285252, 0.000849565, 0.000590385, 180.214, 53.6813, 0.00487807, 304.632, -99.555, 0, 0.00176328, 0.00370207, 0.00256809, 233.895, -79.1971, 0, 0.0017627, 0.002003, 0.00138737, 126.533, -42.8439, 0, 0.00176166, -7.99805, 12.2334, 233.356, -4.13317, 6.40163, 126.263, -0.00141741, -0.000988235, 0.00369079, -0.000763072, -0.000763072, -0.000763072
3834, 1,0.00162226, 0.000467523, 0.00036767, 88.7272, 26.4286, 0.00461169, 244.552, -35.691, 0, 0.00169395, 0.00208893, 0.00163684, 115.116, -22.0192, 0, 0.00169357, 0.0011563, 0.000905313, 62.3707, -10.3778, 0, 0.00169325, -10.0633, 14.5342, 61.5867, -8.76887, 5.14108, 34.7611, -0.000560764, -4.01087E-05, 0.000958184, -0.000350026, -0.000350026, -0.000350026
3835, 1,0.00130682, 0.000388491, 0.000257064, 84.0983, 24.976, 0.00215577, 122.089, -27.1359, 0, 0.00174821, 0.00169506, 0.00113308, 109.062, -38.9041, 0, 0.00174854, 0.000918802, 0.000620705, 59.1449, -21.1289, 0, 0.00174803, 3.15683, 43.7575, 69.7979, 1.12787, 23.2658, 38.9931, -0.000546905, 0.000313508, 0.000864704, -0.00030988, -0.00030988, -0.00030988
3836, 1,0.000837034, 0.00024495, 0.000192527, 63.6002, 18.6014, 0.00126029, 96.6915, -49.9105, 0, 0.00177236, 0.00108174, 0.000845319, 82.1905, -41.753, 0, 0.00177213, 0.000592534, 0.000460641, 45.0188, -22.8783, 0, 0.00177158, 4.26458, 51.1132, 69.8812, 2.52714, 27.393, 38.7147, -0.000567986, 0.000424391, 0.000821132, -0.000307474, -0.000307474, -0.000307474
3837, 1,0.000795514, -0.000535227, 0.000380631, 20.6887, -31.1573, 0.0014627, 28.6902, 54.3065, 0, 0.0019099, 0.00102143, 0.00166563, 25.5037, 30.5579, 0, 0.00191064, 0.000569693, 0.000904715, 15.8782, 14.808, 0, 0.00191113, 15.5916, 21.5626, -128.828, 9.88416, 13.4123, -67.7206, 0.000810836, 0.000937552, -0.00224426, 0.000442014, 0.000442014, 0.000442014
3838, 1,0.00123542, -0.000478772, 0.000427958, 52.325, -24.5027, 0.00227913, 94.6877, 17.4889, 0, 0.00182401, 0.00161251, 0.00182787, 68.2714, 10.6611, 0, 0.00182421, 0.000858382, 0.000972109, 36.3807, 5.6222, 0, 0.00182436, 5.43658, 61.2095, -98.6294, 2.8555, 32.4716, -52.1937, 0.000282201, 0.0014634, -0.0019186, 0.000148227, 0.000148227, 0.000148227
3839, 1,0.00149152, 0.000448136, 0.000443197, 73.4446, 21.8578, 0.00266738, 126.363, -0.408643, 0, 0.0017998, 0.00193965, 0.00190664, 95.3022, -4.88142, 0, 0.00179994, 0.00104339, 0.00102027, 51.5873, -3.05833, 0, 0.00179988, 7.14924, 91.4274, -83.9324, 4.00152, 49.4706, -44.2971, 7.38531E-05, 0.00185803, -0.00185266, 3.59654E-05, 3.59654E-05, 3.59654E-05
3840, 1,0.00207935, -0.000770327, 0.000695294, 88.5561, -39.4926, 0.00387931, 162.822, 27.5636, 0, 0.00179409, 0.00269961, 0.00301272, 114.784, 17.1987, 0, 0.00179439, 0.00145909, 0.00162214, 62.3282, 8.90657, 0, 0.00179463, 7.47382, 110.845, -169.915, 4.06304, 60.1822, -90.9649, 0.000428593, 0.0026164, -0.00332407, 0.000225825, 0.000225825, 0.000225825
3841, 1,0.00160809, -0.000769276, 0.000623046, 56.4698, -42.4728, 0.00299353, 101.947, 53.1046, 0, 0.00182695, 0.00208488, 0.00271355, 72.8873, 34.4534, 0, 0.0018275, 0.00113133, 0.00146753, 40.0532, 18.0203, 0, 0.00182799, 8.96791, 70.8198, -183.148, 5.38954, 38.9339, -98.3844, 0.000731653, 0.00204129, -0.00333202, 0.000397119, 0.000397119, 0.000397119
3842, 1,0.00119141, -0.000682746, 0.000510778, 10.0512, -46.1281, 0.00256921, 36.6201, 113.94, 0, 0.00191821, 0.00153021, 0.00226243, 12.2028, 80.7783, 0, 0.00191924, 0.000852625, 0.00124092, 7.89962, 43.5361, 0, 0.0019204, 8.43689, -52.2371, -198.535, 5.75284, -28.7036, -107.658, 0.00145036, 0.000166881, -0.00292805, 0.000807009, 0.000807009, 0.000807009
3843, 1,0.00212318, -0.0010427, 0.000818773, 31.2411, -69.8527, 0.00493975, 116.335, 157.385, 0, 0.00140528, 0.00271796, 0.00368202, 38.7786, 120.494, 0, 0.00140612, 0.00152844, 0.00204468, 23.7051, 65.2154, 0, 0.00140738, 27.3038, -246.417, -142.368, 17.4858, -135.593, -77.5389, 0.00247638, -0.0033168, -0.00111487, 0.00139801, 0.00139801, 0.00139801
3844, 1,0.00271535, -0.00167189, 0.001189, 23.8495, -111.059, 0.00698641, 40.7225, 268.017, 0.0585697, 0.00123846, 0.00342105, 0.00552572, 25.1548, 183.459, 2.71051E-20, 0.00124034, 0.00200993, 0.0031511, 22.5604, 97.3619, 2.71051E-20, 0.00124207, 12.0226, -249.592, -312.808, 13.9389, -139.533, -166.492, 0.00314631, -0.0023884, -0.00373496, 0.00183084, 0.00183084, 0.00183084
3845, 1,0.00388139, -0.00269891, 0.00179892, -44.5163, -172.716, 0.0197412, -123.651, 481.55, 0.45715, 0.00087543, 0.0046722, 0.00924978, -57.0997, 302.481, 0.0429037, 0.000880225, 0.0031313, 0.00580556, -30.4293, 169.95, 0.0423441, 0.000882167, -79.0766, -220.407, -607.96, -56.9332, -126.451, -326.465, 0.0041087, 0.000484152, -0.00962171, 0.00236294, 0.00236294, 0.00236294
3846, 1,0.00894605, -0.00358097, 0.00231914, -50.6853, -207.497, 0.0342146, -99.0939, 476.2, 0.814983, 0.000795658, 0.00996177, 0.0162625, -66.0977, 377.316, 0.17827, 0.000801548, 0.00793876, 0.0116962, -35.0597, 209.875, 0.173439, 0.000803979, -163.498, -151.875, -816.575, -108.864, -89.8854, -430.875, 0.0061328, 0.00668937, -0.0196215, 0.00405848, 0.00405848, 0.00405848
3847, 1,0.00154397, -0.0010606, 0.000721122, -11.8423, -73.7724, 0.00494977, 18.8149, 289.037, 0, 0.00098686, 0.00192117, 0.00350331, -17.6323, 145.503, 0, 0.000989162, 0.00116958, 0.00207273, -5.92222, 82.0125, 0, 0.000990181, -23.373, -82.723, -330.413, -11.2008, -47.3671, -187.47, 0.0017986, 0.000561601, -0.00472131, 0.00105621, 0.00105621, 0.00105621
3848, 1,0.012818, 0.00157315, 0.00106397, 359.903, 91.5516, 0.0348053, 441.898, -112.898, 0.533134, 0.00112987, 0.0143781, 0.0106262, 451.398, -190.3, 0.156888, 0.00113075, 0.0112611, 0.00859275, 268.452, -123.77, 0.156888, 0.00112941, 87.5158, 34.7584, 448.627, 71.1145, 33.0117, 267.183, -0.00407754, -0.00679265, 0.0142546, -0.00308532, -0.00308532, -0.00308532
3849, 1,0.0313549, 0.00496757, 0.00361552, 372.884, 122.089, 0.0785689, 913.918, -309.308, 1, 0.00118993, 0.0362866, 0.0280937, 494.875, -202.01, 0.562223, 0.00118212, 0.0264357, 0.0209414, 250.99, -104.746, 0.471145, 0.00117921, 91.7491, 23.3648, 490.915, 51.6889, 14.7073, 247.842, -0.0114586, -0.0196295, 0.0358649, -0.0085342, -0.0085342, -0.0085342
3850, 1,0.00133104, -0.000870411, 0.000621258, -16.2441, -62.8705, 0.00334837, -17.8231, 236.565, 0, 0.00109825, 0.00170274, 0.00289475, -20.407, 135.495, 0, 0.00110005, 0.000959636, 0.00166046, -12.0674, 77.1075, 0, 0.00110109, -21.0077, -96.0145, -289.464, -12.3209, -54.6765, -164.325, 0.00169068, 0.000106009, -0.00399541, 0.000954902, 0.000954902, 0.000954902
3851, 1,0.00451845, 0.00100368, 0.000739188, 250.665, 57.3197, 0.0291248, 506.442, -215.144, 0.430917, 0.00127371, 0.00551567, 0.00394055, 307.742, -63.6397, 6.35583E-07, 0.00126918, 0.00352505, 0.00251782, 193.732, -37.1331, 6.35583E-07, 0.00126864, -51.4646, -45.2213, 287.605, -42.2474, -30.5323, 184.179, -0.00209237, -0.0019862, 0.00511127, -0.00147988, -0.00147988, -0.00147988
3852, 1,0.0177675, 0.00300456, 0.00208881, 357.992, 115.858, 0.071462, 744.716, -275.459, 1, 0.00133096, 0.0207702, 0.0158141, 473.84, -173.314, 0.266521, 0.00132193, 0.0147656, 0.0116473, 242.155, -93.3211, 0.231988, 0.00131986, 57.4957, -8.66977, 471.115, 41.0872, -1.6617, 240.538, -0.00646989, -0.0108275, 0.0206012, -0.00438995, -0.00438995, -0.00438995
3853, 1,0.00110877, -0.000707121, 0.000511314, 4.37364, -47.851, 0.00203318, -6.34252, 137.611, 0, 0.00155499, 0.00142398, 0.00229047, 4.84045, 83.8838, 0, 0.00155634, 0.000793844, 0.00127042, 3.91844, 45.1092, 0, 0.00155732, 1.19203, -41.6553, -211.188, 1.55075, -21.3206, -115.558, 0.00134693, 0.00044, -0.00314813, 0.000743828, 0.000743828, 0.000743828
3854, 1,0.00250094, 0.000614415, 0.000497093, 137.032, 32.7951, 0.0130606, 447.817, -123.288, 0.109733, 0.00150352, 0.00311392, 0.00236211, 169.76, -30.2561, 0, 0.00150105, 0.00188887, 0.00138451, 104.346, -20.1673, 0, 0.00150081, -25.822, -9.95762, 126.548, -18.5907, -0.99476, 80.0872, -0.00102386, -0.000693534, 0.00220837, -0.000711959, -0.000711959, -0.000711959
3855, 1,0.00697881, 0.00171342, 0.00120094, 327.46, 98.8785, 0.0457369, 545.185, -264.331, 0.730247, 0.00149562, 0.00868846, 0.00612891, 426.253, -120.668, 0.0313992, 0.00148779, 0.00527153, 0.00373442, 228.741, -65.5472, 0.0303817, 0.00148644, -36.2466, -22.2366, 420.488, -16.3359, -12.4249, 225.402, -0.00345901, -0.00309508, 0.00854713, -0.00210561, -0.00210561, -0.00210561
3856, 1,0.00448809, 0.00131244, 0.000883795, 279.826, 82.0632, 0.0162132, 454.354, -129.991, 0.170758, 0.00158632, 0.00580005, 0.00396728, 361.866, -117.771, 0, 0.00158566, 0.00317652, 0.00220206, 197.805, -63.9374, 0, 0.00158427, -9.52175, 13.2367, 349.597, -7.12471, 7.321, 191.616, -0.00205675, -0.00157617, 0.005544, -0.00115815, -0.00115815, -0.00115815
3857, 1,0.00355176, 0.00103143, 0.000703268, 225.525, 64.9885, 0.00664411, 407.949, -126.168, 0, 0.00166863, 0.00458311, 0.00311928, 290.512, -99.3162, 0, 0.0016679, 0.00252049, 0.00171309, 160.54, -55.6755, 0, 0.00166672, -3.92017, 18.3671, 283.502, -1.13943, 11.3729, 156.793, -0.00164849, -0.00117525, 0.00443536, -0.000902316, -0.000902316, -0.000902316
3858, 1,0.00305877, 0.0008766, 0.000605293, 194.547, 55.8743, 0.0056031, 356.938, -123.785, 0, 0.00170456, 0.00393533, 0.00271275, 250.421, -86.5781, 0, 0.00170354, 0.00218222, 0.0015023, 138.674, -47.7657, 0, 0.00170246, -5.81279, 15.9992, 249.548, -3.23872, 8.3186, 138.217, -0.00148724, -0.00102473, 0.00391688, -0.000821479, -0.000821479, -0.000821479
3859, 1,0.00238612, 0.000650865, 0.000513649, 131.155, 36.9611, 0.00589379, 324.583, -61.7558, 0, 0.00163829, 0.00303601, 0.00239626, 168.069, -33.026, 0, 0.00163752, 0.00173696, 0.00137159, 94.2764, -16.3662, 0, 0.00163708, -9.89472, 32.6256, 76.347, -9.26489, 14.2099, 44.1535, -0.000730355, 0.000168868, 0.00109741, -0.000454633, -0.000454633, -0.000454633
3860, 1,0.00174913, 0.000496361, 0.000331088, 112.064, 31.4993, 0.00342306, 208.312, -62.5351, 0, 0.0016902, 0.00224471, 0.00148773, 143.528, -50.3295, 0, 0.00168987, 0.00125419, 0.000828635, 80.6275, -28.7247, 0, 0.00168927, 4.48837, 59.459, 87.0411, 2.87766, 32.2794, 51.017, -0.000698562, 0.000465856, 0.00104942, -0.000392367, -0.000392367, -0.000392367
3861, 1,0.00107875, 0.000294855, 0.00023169, 80.3166, 22.1793, 0.00195365, 144.937, -70.726, 0, 0.00171228, 0.0013724, 0.00107243, 102.44, -50.5127, 0, 0.00171172, 0.000785975, 0.000610741, 58.2337, -28.3615, 0, 0.00171111, 2.09689, 63.3121, 86.1291, 1.02523, 34.1171, 49.9422, -0.000751687, 0.000544641, 0.00102673, -0.000425483, -0.000425483, -0.000425483
3862, 1,0.00139653, -0.000595311, 0.000484092, 56.5007, -32.2461, 0.00314912, 122.689, 35.0994, 0, 0.00184533, 0.00176829, 0.00218504, 69.9618, 18.2529, 0, 0.00184583, 0.00102563, 0.00121979, 43.0792, 7.20744, 0, 0.00184616, 11.8518, 56.9314, -123.542, 7.48107, 34.5328, -63.6362, 0.000537797, 0.00149212, -0.00232611, 0.000271354, 0.000271354, 0.000271354
3863, 1,0.00159784, -0.000505384, 0.000491264, 75.8093, -24.175, 0.00333353, 158.201, -0.904484, 0, 0.00176012, 0.00207453, 0.0021063, 98.0486, -0.0158661, 0, 0.0017601, 0.00112156, 0.00112506, 53.5883, -0.795343, 0, 0.00176012, 4.28716, 85.7356, -89.9751, 2.17047, 46.2462, -46.0306, 8.97316E-05, 0.00181433, -0.0019038, 3.26698E-05, 3.26698E-05, 3.26698E-05
3864, 1,0.00170942, 0.00051465, 0.000474313, 90.0368, 26.5857, 0.00320052, 164.245, -17.457, 0, 0.00173765, 0.00222399, 0.00201473, 116.619, -15.4707, 0, 0.00173759, 0.00119491, 0.00106631, 63.4574, -9.39043, 0, 0.00173742, 6.05021, 112.542, -72.1799, 3.32157, 61.1892, -36.3395, -0.000116083, 0.00213807, -0.00177093, -7.8053E-05, -7.8053E-05, -7.8053E-05
3865, 1,0.00235683, -0.000777511, 0.000740771, 108.44, -38.0668, 0.0045196, 203.371, 13.7409, 0, 0.0017333, 0.00306086, 0.00319056, 140.392, 5.73222, 0, 0.00173352, 0.00165281, 0.00170903, 76.4877, 2.18318, 0, 0.00173362, 7.94929, 135.94, -161.086, 4.3756, 74.0697, -84.9949, 0.000258216, 0.00296682, -0.00331804, 0.000126705, 0.000126705, 0.000126705
3866, 1,0.0019741, -0.000800301, 0.000690205, 79.3086, -42.4889, 0.00389493, 150.7, 44.8386, 0, 0.00176414, 0.00255413, 0.00300481, 102.056, 25.0604, 0, 0.00176471, 0.00139413, 0.00162462, 56.5645, 12.5238, 0, 0.00176507, 7.29399, 98.7309, -181.206, 4.25534, 54.6727, -96.4994, 0.000548595, 0.00248403, -0.00343928, 0.000286852, 0.000286852, 0.000286852
3867, 1,0.00095278, -0.000725332, 0.000500166, 1.76813, -47.4487, 0.00208255, 6.67946, 123.227, 0, 0.00184786, 0.00122727, 0.0022035, 1.57214, 75.7922, 0, 0.00184928, 0.000678694, 0.00120399, 1.9835, 40.4095, 0, 0.00185035, -3.66066, -17.677, -206.039, -1.47282, -8.25497, -111.501, 0.00111618, 0.000819869, -0.00316595, 0.000605206, 0.000605206, 0.000605206
3868, 1,0.001812, -0.000880514, 0.000693608, 22.274, -60.9684, 0.00387069, 53.6164, 173.742, 0, 0.00134605, 0.00231847, 0.00310656, 26.8545, 111.134, 0, 0.00134742, 0.00130571, 0.00171999, 17.7036, 59.1309, 0, 0.00134856, 12.0933, -197.037, -148.457, 8.84633, -106.125, -80.1138, 0.00200766, -0.00241908, -0.00139198, 0.00111993, 0.00111993, 0.00111993
3869, 1,0.00194006, -0.00146527, 0.0010466, -2.59906, -96.8906, 0.00472313, 57.4655, 222.714, 0, 0.00119485, 0.00256372, 0.00441399, -0.766869, 163.821, 0, 0.00119599, 0.0013204, 0.00233012, -4.24136, 89.5561, 0, 0.00119744, -19.9255, -173.235, -298.304, -17.6295, -93.0884, -157.951, 0.0021616, -0.0010831, -0.00373687, 0.00104053, 0.00104053, 0.00104053
3870, 1,0.00457733, -0.00245458, 0.00166669, 28.2844, -154.455, 0.0170382, -71.6825, 352.585, 0.469591, 0.00085006, 0.00545513, 0.00909042, 27.928, 224.482, 0.0456162, 0.000853481, 0.00369985, 0.00575916, 28.6531, 112.829, 0.0455857, 0.000855069, 14.5439, -130.741, -557.248, 20.4461, -66.9119, -292.02, 0.00510811, 0.0012662, -0.0101122, 0.00345746, 0.00345746, 0.00345746
3871, 1,0.00772472, -0.00342925, 0.00229348, -35.5593, -192.098, 0.0299166, -62.7518, 370.419, 0.822891, 0.000774929, 0.00881576, 0.0153677, -45.887, 307.943, 0.183632, 0.00077924, 0.00665139, 0.0108692, -24.8555, 162.356, 0.176936, 0.000781303, -66.0808, -103.289, -754.459, -41.6745, -55.7393, -389.655, 0.00800571, 0.00654923, -0.0201227, 0.00573285, 0.00573285, 0.00573285
3872, 1,0.0017331, -0.00107587, 0.000749286, -6.07138, -72.8938, 0.00467159, 7.58695, 286.444, 0, 0.000956157, 0.00214046, 0.00380217, -8.81771, 147.503, 0, 0.000958315, 0.00133519, 0.00232506, -2.89896, 88.306, 0, 0.000959236, -24.1508, -51.7992, -366.558, -17.5673, -26.2927, -221.058, 0.00181459, 0.00123571, -0.00544388, 0.00102162, 0.00102162, 0.00102162
3873, 1,0.011842, 0.00143913, 0.00100046, 341.317, 82.8863, 0.0347571, 452.647, -121.661, 0.527429, 0.00109554, 0.0132657, 0.0098142, 424.099, -155.959, 0.135585, 0.00109548, 0.0104224, 0.00784917, 258.609, -100.442, 0.135585, 0.00109441, 47.0333, 25.7333, 395.111, 39.1446, 21.765, 240.416, -0.00409502, -0.00515343, 0.0119864, -0.00321163, -0.00321163, -0.00321163
3874, 1,0.0281344, 0.00447827, 0.00317566, 358.212, 119.504, 0.0748259, 799.37, -263.217, 1, 0.00115254, 0.0325724, 0.024337, 477.584, -171.556, 0.48761, 0.00114583, 0.0237106, 0.0180633, 238.966, -83.4, 0.410662, 0.00114346, 35.5237, 12.1405, 467.003, 15.6187, 3.12739, 231.454, -0.0126207, -0.0151119, 0.0315573, -0.00947656, -0.00947656, -0.00947656
3875, 1,0.00109079, -0.000955653, 0.000649187, -24.6666, -64.1352, 0.00317297, -22.4564, 231.694, 0, 0.00106447, 0.00142738, 0.0031013, -27.665, 127.76, 0, 0.00106627, 0.000877601, 0.00187254, -15.7602, 76.8009, 0, 0.00106715, -29.639, -45.1767, -308.463, -23.677, -21.6237, -185.102, 0.00138646, 0.00105436, -0.004514, 0.000710048, 0.000710048, 0.000710048
3876, 1,0.00515316, 0.00112472, 0.000868758, 278.94, 63.4217, 0.0296936, 481.053, -172.153, 0.437612, 0.001235, 0.00627443, 0.00476147, 342.236, -77.9789, 0.00538033, 0.00123201, 0.00403382, 0.00303417, 215.719, -48.7003, 0.00494039, 0.00123142, -13.3404, -9.2003, 256.477, -11.1061, -5.93121, 163.138, -0.00159699, -0.00154841, 0.0044146, -0.0010829, -0.0010829, -0.0010829
3877, 1,0.0175303, 0.0029196, 0.00202853, 356.369, 115.358, 0.0686315, 647.708, -232.329, 1, 0.00128951, 0.0204401, 0.0149147, 471.672, -166.724, 0.257643, 0.0012826, 0.0146244, 0.0109445, 241.121, -88.7969, 0.226014, 0.00128067, 26.0503, 15.5688, 458.554, 19.2703, 13.9788, 233.141, -0.00787679, -0.00859915, 0.0196357, -0.0058619, -0.0058619, -0.0058619
3878, 1,0.00125525, -0.000792189, 0.000546583, 14.4018, -50.2473, 0.00321496, 55.3316, 129.78, 0, 0.00150223, 0.00155036, 0.00260274, 15.5387, 77.4657, 0, 0.00150351, 0.000961902, 0.00151698, 13.3495, 43.0556, 0, 0.00150435, -14.4612, 3.00161, -220.938, -11.3554, 6.38698, -124.198, 0.000914612, 0.00128289, -0.00345456, 0.000438386, 0.000438386, 0.000438386
3879, 1,0.00328584, 0.000829467, 0.000685505, 187.809, 45.2431, 0.0142774, 436.067, -105.882, 0.133966, 0.00145389, 0.00411463, 0.00329309, 233.013, -51.6587, 0, 0.00145241, 0.00245753, 0.00192349, 142.632, -35.4321, 0, 0.00145203, 1.75806, 27.4124, 125.806, 4.17746, 24.1789, 77.9399, -0.000776186, -0.000243441, 0.00185791, -0.00046941, -0.00046941, -0.00046941
3880, 1,0.00761582, 0.00173481, 0.00119073, 329.87, 101.875, 0.0429623, 511.854, -207.276, 0.671541, 0.001445, 0.00934997, 0.00664223, 431.729, -124.024, 0.0433973, 0.00144022, 0.00588204, 0.00426647, 228.025, -63.225, 0.0427424, 0.00143876, -30.3227, -14.3131, 416.708, -20.4047, -9.23483, 219.314, -0.00365533, -0.00322195, 0.0089398, -0.00245439, -0.00245439, -0.00245439
3881, 1,0.00226608, -0.0015343, 0.00108605, 8.9036, -99.7844, 0.00556155, 62.3113, 221.199, 0.0243638, 0.00119698, 0.00290311, 0.00497289, 11.7329, 168.469, 0, 0.00119806, 0.00162963, 0.00280382, 6.102, 95.1886, 0, 0.00119949, 1.85813, -176.095, -331.171, -0.310043, -102.516, -182.739, 0.00270324, -0.00107035, -0.00436669, 0.00150308, 0.00150308, 0.00150308
3882, 1,0.00461183, -0.00253955, 0.00173345, 20.654, -159.86, 0.0180838, -67.6956, 360.339, 0.481554, 0.000897489, 0.00553894, 0.00951403, 20.4598, 242.228, 0.0449248, 0.000901054, 0.00368487, 0.00605326, 20.852, 126.77, 0.0449248, 0.000902788, 10.5853, -142.608, -594.661, 15.0712, -76.8807, -318.502, 0.005305, 0.00128267, -0.0106194, 0.00353776, 0.00353776, 0.00353776
3883, 1,0.00915702, -0.00368792, 0.00247387, -48.3592, -194.789, 0.0323419, -75.1352, 386.409, 0.894281, 0.00082121, 0.0103149, 0.0177317, -59.7624, 327.588, 0.236887, 0.000826477, 0.00802744, 0.0129323, -36.4117, 178.852, 0.226713, 0.000828796, -79.4641, -135.47, -767.83, -53.5855, -81.7741, -401.196, 0.00944895, 0.00690163, -0.0224761, 0.006978, 0.006978, 0.006978
3884, 1,0.0023027, -0.00119603, 0.000833803, -2.77744, -79.7882, 0.0053335, 32.0565, 295.55, 0, 0.00102384, 0.00277212, 0.00486803, -3.83987, 180.496, 0, 0.00102575, 0.00183473, 0.00322283, -1.63563, 118.038, 0, 0.00102679, -14.8883, -64.8712, -461.728, -10.2046, -41.2575, -302.652, 0.00253419, 0.00148343, -0.00694659, 0.00164948, 0.00164948, 0.00164948
3885, 1,0.0105724, 0.00152409, 0.00106161, 348.875, 89.7933, 0.0347591, 389.702, -84.0293, 0.548742, 0.0011849, 0.0120962, 0.0088559, 438.664, -141.866, 0.100756, 0.00118547, 0.00904865, 0.00674102, 259.088, -83.3034, 0.100756, 0.00118427, 14.9465, 20.5847, 390.067, 9.13301, 11.1395, 229.638, -0.00400856, -0.00387208, 0.0103198, -0.00313424, -0.00313424, -0.00313424
3886, 1,0.0291916, 0.00480656, 0.00341906, 364.245, 119.81, 0.0771059, 861.838, -283.696, 1, 0.00126305, 0.0339353, 0.024985, 483.869, -180.305, 0.512616, 0.00125509, 0.0244712, 0.0182957, 244.807, -92.5278, 0.42605, 0.00125243, 38.9742, 30.144, 471.798, 21.6717, 19.4593, 236.452, -0.0137964, -0.0148312, 0.0327258, -0.0104245, -0.0104245, -0.0104245
3887, 1,0.00177081, -0.00108996, 0.000733593, -9.30159, -69.5928, 0.00390432, -8.10615, 258.869, 0, 0.00112495, 0.0021204, 0.0042046, -10.9266, 148.81, 0, 0.00112696, 0.00143548, 0.0027943, -6.9694, 100.239, 0, 0.00112785, -24.6167, -20.3366, -401.476, -22.1764, -9.64431, -268.895, 0.00182838, 0.00191334, -0.00615649, 0.00111492, 0.00111492, 0.00111492
3888, 1,0.00596653, 0.00120835, 0.000929359, 308.954, 68.8777, 0.0310756, 470.062, -175.541, 0.470112, 0.00132472, 0.00717451, 0.00529283, 377.806, -105.585, 0.0170579, 0.00132189, 0.00475873, 0.00344446, 240.117, -72.6574, 0.0170579, 0.00132118, 4.92119, 46.2177, 265.615, 6.11306, 41.9551, 169.904, -0.00186972, -0.000905701, 0.00450517, -0.0013428, -0.0013428, -0.0013428
3889, 1,0.0194029, 0.00308989, 0.00214896, 356.97, 115.581, 0.0711646, 701.891, -234.913, 1, 0.00140496, 0.022486, 0.0164287, 472.52, -167.264, 0.296876, 0.00139744, 0.016322, 0.0122269, 241.449, -88.919, 0.260615, 0.00139525, 23.0977, 17.5581, 461.138, 16.6869, 14.8846, 235.186, -0.00902773, -0.00945799, 0.0217388, -0.00690356, -0.00690356, -0.00690356
3890, 1,0.00150866, -0.000943945, 0.00065076, 9.61905, -59.5204, 0.00343294, 33.4649, 173.017, 0, 0.00160031, 0.00186501, 0.0032793, 11.5554, 102.916, 0, 0.00160213, 0.00115306, 0.00198073, 7.71707, 62.8559, 0, 0.00160317, -23.4905, 7.87561, -293.133, -17.9078, 6.1286, -176.789, 0.00112802, 0.00178716, -0.00458521, 0.000615087, 0.000615087, 0.000615087
3891, 1,0.00313895, 0.000868439, 0.000717367, 182.884, 47.4849, 0.0152914, 441.812, -122.73, 0.156678, 0.00157917, 0.00400294, 0.00323987, 230.14, -55.3002, 0, 0.00157714, 0.00227858, 0.00181839, 135.814, -38.0018, 0, 0.0015767, 11.6618, 47.0881, 107.151, 13.4955, 39.745, 60.7648, -0.000629931, 0.000114176, 0.00141309, -0.000318652, -0.000318652, -0.000318652
3892, 1,0.00832639, 0.00178782, 0.00123238, 334.712, 103.753, 0.050023, 517.975, -231.214, 0.80064, 0.00159886, 0.0101128, 0.00710869, 438.434, -130.112, 0.0573232, 0.00159152, 0.00654069, 0.00470761, 231.019, -68.129, 0.0563883, 0.00158987, -25.7033, -6.57421, 422.612, -15.6682, -1.54191, 221.597, -0.00402427, -0.00344734, 0.00965265, -0.00279671, -0.00279671, -0.00279671
3893, 1,0.00442028, 0.00135173, 0.000909769, 279.097, 84.5605, 0.0191604, 446.863, -126.973, 0.230634, 0.00176405, 0.00577169, 0.00395539, 363.645, -122.213, 0, 0.00176338, 0.00306914, 0.00213715, 194.56, -66.6608, 0, 0.00176179, -7.26177, 22.8471, 351.054, -4.99737, 16.62, 188.36, -0.00208207, -0.00144379, 0.00550899, -0.00115916, -0.00115916, -0.00115916
3894, 1,0.00343457, 0.00106876, 0.000728674, 218.745, 67.3637, 0.00655886, 402.516, -124.328, 0, 0.00185309, 0.00450237, 0.00304684, 286.061, -98.4243, 0, 0.00185231, 0.00236765, 0.00159214, 151.473, -53.1436, 0, 0.00185095, -1.84209, 17.4536, 279.661, 0.957257, 9.93292, 148.541, -0.00158883, -0.00118119, 0.00436713, -0.000816442, -0.000816442, -0.000816442
3895, 1,0.00295087, 0.000912899, 0.000630441, 187.589, 58.184, 0.0055786, 355.284, -123.061, 0, 0.00189267, 0.00386342, 0.00265996, 245.757, -84.8125, 0, 0.0018915, 0.00203861, 0.00140003, 129.437, -44.4037, 0, 0.00189026, -5.69982, 15.1806, 244.957, -2.96984, 7.06079, 129.12, -0.00145564, -0.00101463, 0.0038465, -0.000761441, -0.000761441, -0.000761441
3896, 1,0.00222444, 0.000659344, 0.000534602, 113.294, 36.6465, 0.00593245, 319.107, -52.1519, 0, 0.00182703, 0.00288328, 0.00237131, 149.915, -18.4134, 0, 0.00182603, 0.001566, 0.00130389, 76.693, -3.67945, 0, 0.00182559, -20.3105, 31.2702, 44.2805, -19.1601, 9.80794, 20.3905, -0.000720261, 0.000369479, 0.000649556, -0.00046391, -0.00046391, -0.00046391
3897, 1,0.00161328, 0.00048796, 0.000336912, 101.434, 30.3187, 0.00307891, 183.566, -51.11, 0, 0.00189133, 0.0021009, 0.00146649, 131.731, -43.583, 0, 0.0018911, 0.00112595, 0.00079341, 71.157, -24.0872, 0, 0.0018905, 5.91355, 61.8742, 62.9611, 4.8924, 32.5866, 34.7826, -0.000560605, 0.000622243, 0.000645577, -0.000275214, -0.000275214, -0.000275214
3898, 1,0.000873936, 0.000280342, 0.00021695, 63.0559, 20.4541, 0.00154816, 115.041, -56.2001, 0, 0.0019136, 0.00115411, 0.000889014, 83.4952, -38.889, 0, 0.00191307, 0.000593913, 0.000455638, 42.6305, -19.5337, 0, 0.00191247, -0.519195, 59.7982, 57.3881, -0.483089, 29.9686, 29.1156, -0.000622685, 0.000652682, 0.000601051, -0.000317137, -0.000317137, -0.000317137
3899, 1,0.00155541, -0.000703534, 0.000569234, 58.629, -38.2086, 0.00318761, 112.639, 51.0825, 0, 0.002169, 0.00198934, 0.00256876, 74.1695, 26.6552, 0, 0.00216986, 0.00112224, 0.00143234, 43.1314, 13.3272, 0, 0.00217033, 14.1403, 67.6672, -161.773, 8.98227, 38.8275, -87.7916, 0.000720546, 0.00185126, -0.00300433, 0.000401401, 0.000401401, 0.000401401
3900, 1,0.00162174, -0.00061338, 0.000560768, 65.5453, -31.0245, 0.00324575, 137.289, 21.6711, 0, 0.0020123, 0.00212914, 0.00242277, 87.4803, 17.6588, 0, 0.00201243, 0.00111506, 0.00130245, 43.6519, 12.1847, 0, 0.00201261, 1.01303, 80.1817, -134.171, -0.711391, 39.5213, -75.364, 0.000300365, 0.00197446, -0.00256137, 0.000177569, 0.000177569, 0.000177569
3901, 1,0.00178006, -0.000560852, 0.000553868, 81.0331, -26.397, 0.00319349, 144.361, 8.83074, 0, 0.00195277, 0.00232666, 0.00241131, 106.97, 4.00427, 0, 0.00195292, 0.00123372, 0.00130411, 55.1123, 4.29201, 0, 0.00195291, 1.98376, 105.703, -119.699, 0.142165, 54.4642, -67.4824, 0.000105646, 0.00229958, -0.00247019, 7.11071E-05, 7.11071E-05, 7.11071E-05
3902, 1,0.00239699, -0.000929187, 0.000830294, 93.9267, -47.9499, 0.00448045, 177.261, 46.3344, 0, 0.00193409, 0.00312835, 0.00362217, 124.453, 31.4306, 0, 0.00193456, 0.00166566, 0.00196178, 63.4028, 20.5794, 0, 0.0019349, -0.843902, 124.392, -217.84, -3.12273, 63.3738, -121.989, 0.000477569, 0.00312704, -0.00411461, 0.00025832, 0.00025832, 0.00025832
3903, 1,0.00201145, -0.000916214, 0.000762354, 67.97, -49.7162, 0.00376682, 124.486, 71.926, 0, 0.00201156, 0.00261978, 0.00335474, 90.3016, 45.0187, 0, 0.00201244, 0.00140327, 0.00183047, 45.6463, 27.7762, 0, 0.00201301, 1.32615, 89.9111, -226.294, -1.64419, 45.3766, -127.061, 0.000737884, 0.00261147, -0.00407985, 0.000403362, 0.000403362, 0.000403362
3904, 1,0.00105998, -0.000789388, 0.000539113, -2.85023, -51.005, 0.00220521, 1.62238, 137.842, 0, 0.00216506, 0.00134825, 0.00247695, -2.92656, 89.5886, 0, 0.00216676, 0.000772009, 0.00139979, -2.76149, 52.7799, 0, 0.00216805, -4.18242, -33.1644, -231.419, -3.71788, -22.9905, -131.631, 0.00132441, 0.000709408, -0.00348758, 0.000754421, 0.000754421, 0.000754421
3905, 1,0.00173718, -0.000835922, 0.000650057, 24.7149, -55.103, 0.00364582, 63.0558, 146.756, 0, 0.00138108, 0.00220108, 0.00306895, 31.0441, 98.0273, 0, 0.00138217, 0.0012735, 0.00176953, 18.3932, 56.1195, 0, 0.00138311, 28.2169, -182.874, -139.424, 16.7247, -106.083, -79.0006, 0.0021443, -0.0023254, -0.00140963, 0.00124103, 0.00124103, 0.00124103
3906, 1,0.0027345, -0.00173048, 0.0012263, 25.641, -113.921, 0.00719776, 43.9221, 256.885, 0.0694657, 0.00115314, 0.00345619, 0.00565567, 27.612, 182.129, 0, 0.00115473, 0.0020131, 0.00320648, 23.681, 95.7768, 0, 0.00115635, 23.0547, -252.754, -316.687, 21.1653, -141.64, -166.856, 0.00336493, -0.0024753, -0.00384507, 0.00196478, 0.00196478, 0.00196478
3907, 1,0.00409177, -0.00272694, 0.00182303, -34.2363, -175.265, 0.0191669, -122.281, 469.418, 0.454932, 0.000872643, 0.00497579, 0.00956197, -43.4175, 300.745, 0.0431712, 0.000877201, 0.00323772, 0.00598144, -23.9267, 166.941, 0.0431712, 0.000879154, -57.9732, -229.086, -615.177, -38.587, -132.83, -329.404, 0.00461316, 0.000213264, -0.00982713, 0.00282779, 0.00282779, 0.00282779
3908, 1,0.00904523, -0.00364873, 0.00237097, -64.0961, -208, 0.0341244, -105.359, 478.245, 0.825345, 0.000805187, 0.0100762, 0.0166953, -80.2766, 390.501, 0.187709, 0.000811094, 0.00802384, 0.0120516, -47.6798, 222.722, 0.181384, 0.000813576, -177.436, -163.374, -830.693, -121.786, -100.532, -445.848, 0.00619665, 0.00683904, -0.0201139, 0.00407837, 0.00407837, 0.00407837
3909, 1,0.00183829, -0.00109342, 0.000750865, -9.01951, -75.715, 0.00553046, 39.2107, 279.765, 0.00872889, 0.000999236, 0.00224563, 0.00397162, -13.7776, 160.493, 0, 0.00100119, 0.00143142, 0.00247859, -4.24301, 95.9453, 0, 0.00100224, -21.164, -92.2279, -368.086, -9.78752, -56.7312, -221.317, 0.00208598, 0.000596333, -0.00528665, 0.00130997, 0.00130997, 0.00130997
3910, 1,0.0116693, 0.00156524, 0.00107197, 371.107, 92.2759, 0.0349388, 425.387, -107.308, 0.545173, 0.00115265, 0.0132224, 0.00984133, 463.301, -173.198, 0.122943, 0.00115324, 0.0101197, 0.00777996, 278.97, -108.056, 0.122943, 0.00115193, 58.3847, 2.99954, 458.21, 45.3436, 1.96134, 276.862, -0.00382378, -0.00619596, 0.0130372, -0.00284705, -0.00284705, -0.00284705
3911, 1,0.031174, 0.00500794, 0.00364665, 373.514, 121.871, 0.078851, 918.471, -308.027, 1, 0.00122459, 0.0361099, 0.027888, 495.207, -202.142, 0.558911, 0.0012166, 0.0262631, 0.0207598, 252.001, -106.372, 0.467969, 0.00121365, 90.6428, 25.4201, 490.364, 52.7088, 18.2106, 248.197, -0.0115429, -0.019294, 0.0356038, -0.00861104, -0.00861104, -0.00861104
3912, 1,0.00148254, -0.000915624, 0.000653815, -16.6388, -64.539, 0.00372858, -9.45088, 249.332, 0, 0.0010952, 0.00187405, 0.00332335, -19.4006, 144.897, 0, 0.00109705, 0.00109158, 0.0020263, -13.8531, 87.7612, 0, 0.00109807, -20.3036, -85.7859, -328.6, -14.179, -49.0711, -200.034, 0.00185679, 0.000470591, -0.00467864, 0.0010864, 0.0010864, 0.0010864
3913, 1,0.00451235, 0.00100763, 0.000740606, 256.915, 57.9785, 0.0278498, 502.75, -220.742, 0.411395, 0.00129129, 0.00550599, 0.00396716, 314.341, -72.8715, 0, 0.00128682, 0.00352678, 0.0025189, 199.812, -45.0764, 0, 0.00128624, -34.8359, -40.2965, 293.747, -27.9106, -28.2087, 191.348, -0.00188843, -0.00202385, 0.00509474, -0.00130389, -0.00130389, -0.00130389
3914, 1,0.0182095, 0.00300875, 0.00209196, 355.449, 115.475, 0.0711066, 727.921, -263.682, 1, 0.00136658, 0.0212169, 0.0161623, 470.921, -168.18, 0.274792, 0.00135778, 0.0152025, 0.0119821, 239.981, -89.2923, 0.240514, 0.00135568, 50.5392, -14.4724, 468.474, 35.2728, -6.30384, 238.908, -0.00675353, -0.0111015, 0.0210783, -0.00469166, -0.00469166, -0.00469166
3915, 1,0.00115139, -0.000772753, 0.000551449, 4.93445, -52.5055, 0.00234977, -3.50842, 153.81, 0, 0.00154334, 0.00147884, 0.00246587, 4.41999, 87.9249, 0, 0.00154499, 0.000826705, 0.00136873, 5.5812, 44.9743, 0, 0.00154607, 3.62027, -40.4862, -226.909, 4.88791, -17.3977, -122.413, 0.0014639, 0.0005287, -0.00341936, 0.000814168, 0.000814168, 0.000814168
3916, 1,0.00241072, 0.000624477, 0.000505707, 130.793, 33.3775, 0.0118541, 439.087, -113.118, 0.0863425, 0.00152738, 0.00303349, 0.00230596, 164.1, -27.8958, -2.1684E-19, 0.00152513, 0.00178929, 0.00129927, 97.5426, -17.5156, -2.1684E-19, 0.00152487, -24.4973, -13.1118, 121.296, -18.5739, -4.74915, 75.87, -0.000961488, -0.000722545, 0.00213668, -0.000672595, -0.000672595, -0.000672595
3917, 1,0.00688432, 0.00170698, 0.00119572, 321.246, 98.2469, 0.0448077, 550.004, -272.651, 0.714429, 0.0015533, 0.00858656, 0.00604656, 419.391, -111.271, 0.0292523, 0.00154475, 0.00518503, 0.00368168, 223.187, -56.7512, 0.0280686, 0.00154336, -45.1799, -36.5016, 415.493, -25.4784, -25.8328, 221.565, -0.00344364, -0.0032197, 0.00849885, -0.00210048, -0.00210048, -0.00210048
3918, 1,0.00412466, 0.0012648, 0.000866275, 253.134, 78.2514, 0.0147529, 435.651, -100.787, 0.140803, 0.00171192, 0.00538828, 0.00376347, 331.338, -102.999, 0, 0.00171174, 0.00286208, 0.00203393, 174.973, -53.3553, 0, 0.00171036, -23.4848, 6.62017, 325.862, -16.8624, 4.05433, 172.874, -0.00212165, -0.00148268, 0.00527568, -0.00119953, -0.00119953, -0.00119953
3919, 1,0.00319493, 0.00100002, 0.000686679, 197.855, 62.7083, 0.0059163, 348.522, -92.6201, 0, 0.00179663, 0.00419454, 0.00291416, 260.547, -83.7366, 0, 0.00179637, 0.00219567, 0.00154365, 135.178, -42.2316, 0, 0.00179516, -14.598, 8.91546, 256.892, -10.4672, 3.60438, 133.558, -0.00162869, -0.00113043, 0.0041179, -0.000887531, -0.000887531, -0.000887531
3920, 1,0.00277842, 0.000863129, 0.000600537, 176.645, 54.5147, 0.00487282, 305.455, -100.977, 0, 0.00183378, 0.00364107, 0.0025115, 231.141, -79.3427, 0, 0.00183314, 0.00191619, 0.00131196, 122.165, -42.4698, 0, 0.00183204, -6.20004, 13.5593, 230.669, -1.82236, 7.26578, 121.966, -0.00138108, -0.000962766, 0.00363133, -0.000707652, -0.000707652, -0.000707652
3921, 1,0.00145738, 0.000462256, 0.000369652, 77.4825, 25.819, 0.00428336, 227.579, -33.8662, 0, 0.00177176, 0.00191764, 0.00154094, 103.207, -16.9677, 0, 0.00177127, 0.000998897, 0.000804963, 51.8414, -6.29576, 0, 0.00177096, -9.83522, 15.2393, 45.499, -8.74837, 4.71739, 22.9183, -0.000476945, 5.38512E-05, 0.000698423, -0.000285861, -0.000285861, -0.000285861
3922, 1,0.00122637, 0.000383319, 0.000255446, 78.2621, 24.5039, 0.00194401, 109.437, -23.6238, 0, 0.00183257, 0.00160908, 0.00106831, 102.734, -35.8624, 0, 0.00183294, 0.000844201, 0.000564945, 53.8181, -18.7002, 0, 0.00183243, 2.07023, 45.8235, 59.6936, 0.431433, 23.908, 31.7611, -0.00052128, 0.000404391, 0.000698831, -0.000285657, -0.000285657, -0.000285657
3923, 1,0.000744867, 0.000237811, 0.000187323, 56.7233, 17.9695, 0.00114743, 88.9283, -46.6002, 0, 0.00185327, 0.000981793, 0.0007672, 74.6457, -37.9286, 0, 0.001853, 0.000508769, 0.00039523, 38.8447, -19.8463, 0, 0.00185246, 2.114, 51.5145, 60.1574, 1.51916, 26.5081, 31.5118, -0.000552493, 0.000492565, 0.000675401, -0.000280292, -0.000280292, -0.000280292
3924, 1,0.000797622, -0.000583642, 0.000414063, 18.0893, -33.932, 0.00142067, 23.9891, 57.8854, 0, 0.00209723, 0.00102607, 0.00177345, 22.4589, 34.9761, 0, 0.00209801, 0.000579525, 0.000966547, 14.1941, 17.9159, 0, 0.00209859, 17.2162, 21.1194, -143.264, 10.0714, 12.4097, -76.2288, 0.000916311, 0.000997612, -0.00248147, 0.000496378, 0.000496378, 0.000496378
3925, 1,0.00123722, -0.000517537, 0.000452703, 48.3616, -26.9253, 0.00227114, 90.2843, 22.9244, 0, 0.00194567, 0.00162398, 0.0019269, 64.1668, 16.9002, 0, 0.00194586, 0.00085149, 0.00102312, 32.6109, 10.2719, 0, 0.00194607, 2.91065, 59.4008, -113.012, 0.640548, 30.0241, -61.4803, 0.000328354, 0.00152288, -0.00212546, 0.000175874, 0.000175874, 0.000175874
3926, 1,0.00152075, -0.000479871, 0.000471204, 71.0542, -22.5721, 0.00269873, 122.502, 6.79239, 0, 0.00188959, 0.00198277, 0.00203282, 92.9916, 0.957872, 0, 0.00188976, 0.00105919, 0.00109119, 49.1414, 1.24231, 0, 0.00188976, 3.25562, 92.1584, -98.2876, 1.13894, 48.6867, -53.5526, 8.43594E-05, 0.00196504, -0.00206492, 4.39969E-05, 4.39969E-05, 4.39969E-05
3927, 1,0.00210464, -0.000819324, 0.000725325, 84.9523, -42.5156, 0.00386923, 155.806, 36.3513, 0, 0.00187204, 0.00273587, 0.00314677, 110.989, 24.5982, 0, 0.0018724, 0.00147348, 0.00169638, 58.9195, 14.4007, 0, 0.00187271, 1.59992, 110.949, -186.344, -0.718858, 58.8991, -101.382, 0.000421798, 0.002735, -0.00355593, 0.000212044, 0.000212044, 0.000212044
3928, 1,0.00162559, -0.000809695, 0.000646919, 53.6327, -44.8516, 0.00295739, 95.6648, 59.2507, 0, 0.00194535, 0.00210943, 0.00281679, 69.9117, 40.0066, 0, 0.00194596, 0.00114201, 0.00152349, 37.3668, 22.3104, 0, 0.00194652, 6.02409, 69.662, -195.706, 2.1554, 37.2117, -106.298, 0.00075909, 0.00210408, -0.00351233, 0.000398445, 0.000398445, 0.000398445
3929, 1,0.0012278, -0.0007129, 0.000537692, 7.23911, -48.3514, 0.00262991, 35.3017, 119.448, 0, 0.0020854, 0.00158991, 0.00235935, 9.69399, 87.8412, 0, 0.00208647, 0.000866003, 0.00128477, 4.79653, 48.4506, 0, 0.0020878, 8.474, -66.7536, -205.244, 4.25664, -37.5253, -112.083, 0.00156599, -2.88104E-05, -0.00296259, 0.000856283, 0.000856283, 0.000856283
3930, 1,0.00211876, -0.00105226, 0.000827422, 35.7004, -68.7582, 0.00483028, 124.117, 139.826, 0, 0.00132096, 0.00272059, 0.00369293, 45.1219, 111.993, 0, 0.00132156, 0.00151753, 0.00203961, 26.3014, 60.8674, 0, 0.00132265, 43.2047, -248.213, -130.971, 25.5857, -136.386, -71.8019, 0.00268231, -0.0034877, -0.00101197, 0.00150421, 0.00150421, 0.00150421
3931, 1,0.0027177, -0.00179238, 0.00126556, 24.0097, -118.499, 0.00679289, 43.7483, 262.244, 0.0534772, 0.00111039, 0.00345528, 0.00564236, 25.0807, 185.82, 0, 0.00111191, 0.00198093, 0.00311721, 22.9736, 95.0312, 0, 0.00111355, 24.9351, -269.076, -313.32, 22.6985, -147.695, -160.097, 0.00345211, -0.00276234, -0.00370512, 0.00197479, 0.00197479, 0.00197479
3932, 1,0.00389158, -0.00278119, 0.00185169, -37.6999, -176.859, 0.0181176, -112.987, 455.215, 0.424781, 0.000848452, 0.00472754, 0.00927793, -50.09, 294.939, 0.0441985, 0.000852513, 0.00310855, 0.00572989, -23.4368, 158.885, 0.0431025, 0.000854447, -57.2627, -233.697, -593.859, -37.1038, -133.174, -306.377, 0.00454092, -1.11213E-05, -0.00943684, 0.00270193, 0.00270193, 0.00270193
3933, 1,0.00901095, -0.00365501, 0.00236306, -37.5403, -208.378, 0.0335283, -88.8056, 456.343, 0.808603, 0.000787473, 0.0100624, 0.0163573, -53.4578, 356.755, 0.18539, 0.000793035, 0.00796579, 0.0116748, -21.4718, 188.325, 0.178369, 0.000795468, -149.675, -129.407, -791.183, -92.7877, -67.4607, -404.726, 0.00617135, 0.00709013, -0.0197186, 0.00406351, 0.00406351, 0.00406351
3934, 1,0.00165598, -0.00111537, 0.000756835, -32.8366, -77.4684, 0.00518717, 7.45548, 304.486, 0.0073033, 0.000971773, 0.00204517, 0.00384746, -39.1777, 182.496, 0, 0.000973718, 0.00127056, 0.00236337, -26.3252, 116.013, 0, 0.000974769, -57.6803, -115.128, -374.681, -43.3222, -78.8379, -225.878, 0.00165443, 0.000456272, -0.00507206, 0.000911087, 0.000911087, 0.000911087
3935, 1,0.0107966, 0.00154245, 0.00104409, 379.766, 91.9159, 0.0339008, 449.815, -121.522, 0.51472, 0.0011201, 0.0123123, 0.00895442, 471.424, -173.347, 0.100602, 0.00112034, 0.00928949, 0.00692867, 288.283, -108.57, 0.100602, 0.00111909, 40.8087, 11.3567, 467.874, 32.3271, 7.9141, 285.468, -0.00402385, -0.00518369, 0.0121878, -0.00303505, -0.00303505, -0.00303505
3936, 1,0.0294938, 0.00489936, 0.00356281, 372, 122.444, 0.0771359, 874.674, -296.081, 1, 0.00118683, 0.0343186, 0.0265837, 494.244, -201.609, 0.526229, 0.00117945, 0.0246964, 0.019601, 249.955, -103.733, 0.436249, 0.00117662, 89.8307, 24.1437, 490.854, 50.4312, 14.1906, 246.576, -0.0109527, -0.01838, 0.0339643, -0.00796695, -0.00796695, -0.00796695
3937, 1,0.00147053, -0.000922832, 0.000660178, -7.66507, -66.0535, 0.00355486, -2.07285, 228.533, 0, 0.00106472, 0.00186379, 0.00305517, -11.5132, 133.961, 0, 0.00106636, 0.00108066, 0.00175247, -3.66276, 73.6716, 0, 0.0010674, -13.819, -94.6872, -293.377, -6.25124, -52.5378, -162.226, 0.00181418, 0.000108902, -0.00409686, 0.00102472, 0.00102472, 0.00102472
3938, 1,0.00450257, 0.000972717, 0.000722246, 252.487, 55.8741, 0.0277398, 512.852, -226.098, 0.40493, 0.00125651, 0.00546715, 0.00391288, 308.075, -66.7167, 0, 0.00125192, 0.00354223, 0.00250919, 197.047, -40.1416, 0, 0.00125138, -46.7843, -38.5217, 285.456, -39.2777, -23.9562, 183.659, -0.00203775, -0.00188676, 0.00500713, -0.00146013, -0.00146013, -0.00146013
3939, 1,0.016842, 0.002975, 0.00207325, 367.182, 116.212, 0.0698544, 718.349, -284.181, 1, 0.00132836, 0.0197962, 0.0147989, 483.306, -187.993, 0.247637, 0.00131923, 0.0138968, 0.0106786, 251.154, -107.44, 0.213513, 0.00131718, 65.2418, 17.2702, 481.467, 51.3862, 21.4689, 249.464, -0.00652791, -0.0095993, 0.0196669, -0.00446924, -0.00446924, -0.00446924
3940, 1,0.00120529, -0.000752089, 0.000551616, 4.12079, -52.2762, 0.0023048, -1.94343, 148.978, 0, 0.00148737, 0.00155587, 0.00242156, 3.95771, 93.5836, 0, 0.0014887, 0.000855197, 0.0013204, 4.30605, 48.6278, 0, 0.00148979, 3.76945, -61.39, -223.13, 4.27937, -31.0951, -119.068, 0.00155183, 0.000175395, -0.0032458, 0.000854546, 0.000854546, 0.000854546
3941, 1,0.00236484, 0.000596355, 0.00049097, 129.128, 31.542, 0.0107722, 431.561, -98.9644, 0.0636047, 0.00147595, 0.00295854, 0.00227018, 160.572, -27.6876, 1.0842E-19, 0.00147416, 0.00177282, 0.00129286, 97.7462, -18.6651, 1.0842E-19, 0.00147395, -23.2053, -13.7056, 119.974, -17.2578, -2.61001, 75.8629, -0.000926257, -0.000730801, 0.00210635, -0.000658203, -0.000658203, -0.000658203
3942, 1,0.00677317, 0.00169151, 0.00118062, 320.246, 98.3572, 0.0411755, 531.023, -244.209, 0.649318, 0.00150381, 0.0084584, 0.0060355, 418.48, -108.907, 0.0265204, 0.00149718, 0.00509192, 0.00369168, 222.115, -54.1063, 0.0258943, 0.00149583, -55.8918, -32.0863, 414.7, -35.7061, -21.9194, 219.944, -0.00357694, -0.00299231, 0.00836303, -0.00225373, -0.00225373, -0.00225373
3943, 1,0.0042124, 0.00124837, 0.000855246, 254.301, 77.2573, 0.0133846, 433.411, -98.0941, 0.113929, 0.00166006, 0.00545907, 0.00384288, 331.494, -98.4838, 0, 0.00165989, 0.00296715, 0.00213695, 177.162, -49.4203, 0, 0.00165857, -31.0079, 0.117956, 326.341, -24.5884, -2.24868, 175.098, -0.00220379, -0.0015494, 0.00535128, -0.00129507, -0.00129507, -0.00129507
3944, 1,0.00320031, 0.000974332, 0.000668712, 200.247, 60.9985, 0.00588256, 349.221, -95.8146, 0, 0.00174071, 0.0041737, 0.00287099, 261.213, -85.9458, 0, 0.00174044, 0.00222773, 0.00153609, 139.309, -45.7697, 0, 0.0017393, -9.58683, 10.0308, 257.394, -5.44217, 5.40338, 137.348, -0.00155673, -0.00114163, 0.00409301, -0.000836157, -0.000836157, -0.000836157
3945, 1,0.00275163, 0.000829709, 0.000577174, 173.999, 52.3611, 0.00478816, 299.081, -97.8574, 0, 0.00177501, 0.00358107, 0.00248165, 226.354, -76.7656, 0, 0.0017744, 0.00192243, 0.00132814, 121.651, -41.4317, 0, 0.00177338, -7.98217, 12.4244, 225.855, -3.75466, 6.63134, 121.418, -0.00137903, -0.000946189, 0.0035709, -0.000732972, -0.000732972, -0.000732972
3946, 1,0.00151336, 0.000448048, 0.000362077, 82.2362, 24.933, 0.00414445, 222.911, -36.444, 0, 0.00171726, 0.0019601, 0.00157376, 107.117, -19.3783, 0, 0.00171678, 0.00106771, 0.000852875, 57.3988, -9.27988, 0, 0.0017165, -6.82537, 12.8634, 52.0968, -6.38536, 4.91632, 29.3087, -0.000449912, -3.43132E-05, 0.000798688, -0.000281491, -0.000281491, -0.000281491
3947, 1,0.0012408, 0.000374669, 0.000252874, 79.9065, 23.815, 0.00202508, 116.845, -28.4641, 0, 0.0017747, 0.00161487, 0.00108123, 103.698, -36.7756, 0, 0.00177494, 0.000867257, 0.00058319, 56.1352, -20.3633, 0, 0.00177447, 3.91478, 43.417, 62.9951, 1.90963, 23.7815, 35.3988, -0.000497082, 0.000339087, 0.00075477, -0.000280964, -0.000280964, -0.000280964
3948, 1,0.000765915, 0.00022953, 0.000178979, 58.7174, 17.3701, 0.00118917, 92.9996, -49.4499, 0, 0.00179314, 0.000994661, 0.000774892, 76.0542, -39.0186, 0, 0.00179284, 0.000537844, 0.000418548, 41.409, -21.4927, 0, 0.00179233, 3.00366, 50.9006, 63.1515, 1.89921, 27.3414, 35.2376, -0.000551288, 0.000462413, 0.000722047, -0.000298577, -0.000298577, -0.000298577
3949, 1,0.000807967, -0.00056177, 0.000405778, 18.7156, -33.4315, 0.00140522, 27.3223, 52.4711, 0, 0.00202704, 0.00105728, 0.00172398, 23.6162, 35.3997, 0, 0.0020276, 0.000559305, 0.000913315, 13.8457, 16.9094, 0, 0.00202821, 19.1527, 12.5161, -137.868, 11.4622, 9.44618, -71.6366, 0.00096288, 0.000822174, -0.00235947, 0.000508928, 0.000508928, 0.000508928
3950, 1,0.00120822, -0.000500354, 0.000432746, 49.4246, -26.2285, 0.00222866, 92.7687, 16.8406, 0, 0.00187958, 0.00157293, 0.00183836, 64.0795, 13.7585, 0, 0.00187968, 0.000843848, 0.000973481, 34.7868, 6.82305, 0, 0.00187989, 4.69719, 58.1392, -104.112, 2.02233, 31.6867, -54.1782, 0.00031634, 0.00144669, -0.00198626, 0.000150509, 0.000150509, 0.000150509
3951, 1,0.0014801, -0.000460726, 0.000452518, 71.8753, -21.5675, 0.00265971, 126.246, -0.754618, 0, 0.00182664, 0.00192426, 0.00193145, 93.0718, -2.88033, 0, 0.0018267, 0.00103608, 0.00102664, 50.6862, -2.32463, 0, 0.00182668, 5.19139, 92.0474, -88.5978, 2.65273, 50.2002, -45.879, 6.4694E-05, 0.00190224, -0.00192017, 1.97266E-05, 1.97266E-05, 1.97266E-05
3952, 1,0.00206219, -0.000792473, 0.000702347, 86.7701, -41.012, 0.00383996, 161.894, 26.3093, 0, 0.00181013, 0.00267438, 0.00302652, 112.143, 19.1423, 0, 0.00181034, 0.00145003, 0.00162191, 61.3987, 9.57795, 0, 0.00181062, 4.31836, 112.069, -173.814, 1.74685, 61.3697, -91.8504, 0.000393376, 0.00267277, -0.00337673, 0.000188293, 0.000188293, 0.000188293
3953, 1,0.00157889, -0.000791853, 0.000626975, 53.9668, -44.1425, 0.0029551, 102.071, 50.4937, 0, 0.00187961, 0.0020409, 0.00271224, 69.0824, 36.7675, 0, 0.00188002, 0.00111694, 0.00145844, 38.8544, 18.7134, 0, 0.00188057, 7.75654, 68.6176, -186.677, 3.89086, 38.6159, -98.6469, 0.000744619, 0.00203096, -0.00337217, 0.000378439, 0.000378439, 0.000378439
3954, 1,0.00123721, -0.000701256, 0.000540206, 8.7247, -48.6931, 0.00262601, 37.7666, 115.887, 0, 0.00200688, 0.00161631, 0.00230944, 11.0891, 87.6219, 0, 0.00200781, 0.000858171, 0.00122913, 6.36256, 45.8365, 0, 0.00200917, 10.7116, -72.4128, -201.165, 6.20543, -37.1894, -106.526, 0.00160866, -0.00015202, -0.00287849, 0.000855154, 0.000855154, 0.000855154
3955, 1,0.00210388, -0.00114661, 0.000888605, 29.3021, -76.0049, 0.00485143, 116.07, 152.007, 0, 0.00126173, 0.00273426, 0.00380252, 37.2802, 123.444, 0, 0.00126232, 0.00147369, 0.00202564, 21.3311, 64.8286, 0, 0.00126352, 37.2704, -271.816, -135.786, 21.3273, -143.888, -71.9248, 0.00273414, -0.0038067, -0.000930624, 0.00147357, 0.00147357, 0.00147357
3956, 1,0.00210136, -0.00166482, 0.00118408, -3.03463, -109.866, 0.00466954, 59.3019, 216.985, 0, 0.00106881, 0.00280187, 0.00488148, -1.11478, 179.618, 0, 0.00106946, 0.00140399, 0.0025185, -4.80454, 95.8301, 0, 0.00107091, -2.74222, -216.878, -319.233, -6.39539, -114.298, -166.797, 0.00276759, -0.00175694, -0.00392534, 0.00137066, 0.00137066, 0.00137066
3957, 1,0.00421419, -0.00263647, 0.001795, 12.3692, -164.809, 0.014822, -73.4656, 345.697, 0.399836, 0.000824211, 0.0051671, 0.00895314, 10.9566, 245.628, 0.0377024, 0.000826811, 0.00326167, 0.00536467, 13.793, 125.265, 0.0359968, 0.000828463, 9.45291, -158.726, -587.611, 12.8207, -80.8818, -307.735, 0.00512588, 0.000877162, -0.0100745, 0.00323076, 0.00323076, 0.00323076
3958, 1,0.00759532, -0.00366202, 0.00246057, -33.6438, -196.297, 0.0293468, -61.5658, 351.893, 0.828351, 0.00076832, 0.00878897, 0.0153082, -45.1667, 308.127, 0.181761, 0.000772214, 0.00641821, 0.0104842, -21.7797, 157.907, 0.168083, 0.000774329, -65.8053, -100.821, -757.755, -38.8805, -48.4101, -386.43, 0.00793692, 0.00660242, -0.0201038, 0.00547415, 0.00547415, 0.00547415
3959, 1,0.00185243, -0.00117627, 0.000824472, -4.75757, -80.0055, 0.00651169, 15.1243, 206.354, 0.0848737, 0.000943717, 0.00231868, 0.00399487, -7.11625, 156.815, 0, 0.000944633, 0.00138983, 0.00236569, -2.22969, 91.2423, 0, 0.000945638, -27.2952, -63.2628, -379.886, -18.023, -34.3022, -221.402, 0.00188408, 0.00113838, -0.00556703, 0.0010475, 0.0010475, 0.0010475
3960, 1,0.00957593, 0.00135637, 0.000953986, 372.54, 80.1511, 0.0332201, 448.096, -117.942, 0.501484, 0.00108696, 0.0108958, 0.00795961, 452.107, -140.881, 0.0703619, 0.00108665, 0.00826718, 0.00611405, 293.275, -88.2373, 0.0703619, 0.00108569, -1.50327, 3.39242, 420.755, -1.73607, -0.736603, 267.185, -0.0038113, -0.00372485, 0.00991575, -0.00289318, -0.00289318, -0.00289318
3961, 1,0.0264608, 0.00441742, 0.00313064, 361.057, 119.673, 0.0733494, 754.052, -243.409, 1, 0.00114967, 0.0308136, 0.023158, 480.521, -177.275, 0.455706, 0.00114385, 0.022133, 0.0169944, 241.802, -89.0046, 0.379604, 0.00114153, 35.1044, 24.445, 472.276, 18.2932, 13.601, 235.12, -0.0125132, -0.0136588, 0.0300297, -0.00930301, -0.00930301, -0.00930301
3962, 1,0.00128836, -0.00101298, 0.000707258, -7.51018, -68.8877, 0.00303357, 2.08325, 190.044, 0, 0.00103349, 0.0016889, 0.00318291, -9.61821, 120.561, 0, 0.00103466, 0.000889836, 0.00177116, -5.23206, 64.1118, 0, 0.00103561, -12.1522, -43.9716, -305.559, -7.1173, -15.5669, -169.651, 0.00163458, 0.000966102, -0.00455699, 0.00085206, 0.00085206, 0.00085206
3963, 1,0.00477881, 0.00102305, 0.000803469, 267.268, 58.0264, 0.0281303, 487.075, -182.21, 0.407835, 0.00121972, 0.00579529, 0.00445256, 325.025, -68.0526, 0, 0.0012164, 0.00376572, 0.00285536, 209.652, -42.0907, 0, 0.00121589, -27.8338, -0.00788674, 232, -23.9651, 5.67482, 144.562, -0.00165194, -0.00110401, 0.00386028, -0.00116101, -0.00116101, -0.00116101
3964, 1,0.0153652, 0.0028678, 0.00199599, 358.724, 115.827, 0.0662511, 596.225, -230.305, 1, 0.0012876, 0.0182066, 0.013202, 474.409, -171.514, 0.214542, 0.0012808, 0.0125355, 0.00929982, 243.185, -93.1557, 0.183257, 0.00127891, 27.1931, 24.1452, 463.204, 21.9168, 22.064, 235.486, -0.00706884, -0.00732557, 0.0175562, -0.00506941, -0.00506941, -0.00506941
3965, 1,0.00123281, -0.000837656, 0.000582493, 6.08914, -56.0125, 0.00288037, 34.9062, 136.219, 0, 0.0014332, 0.00152987, 0.00271801, 3.71224, 92.8293, 0, 0.00143421, 0.000955433, 0.00159403, 9.36146, 48.7053, 0, 0.00143524, -8.53643, -20.0941, -249.857, -5.22469, -1.91282, -138.978, 0.00127745, 0.00103614, -0.0038199, 0.000652617, 0.000652617, 0.000652617
3966, 1,0.00317386, 0.000756836, 0.000644875, 178.031, 40.3401, 0.0119505, 423.269, -87.0155, 0.0870754, 0.00142546, 0.00392664, 0.00320494, 218.216, -43.655, 0, 0.00142435, 0.00242351, 0.00192317, 137.939, -31.3728, 0, 0.00142407, -2.35052, 22.9275, 110.388, 0.148438, 23.4641, 70.5058, -0.000736953, -0.00020938, 0.00165476, -0.000490504, -0.000490504, -0.000490504
3967, 1,0.00683575, 0.00170192, 0.00116655, 335.326, 101.696, 0.0375615, 494.797, -182.513, 0.574061, 0.00145311, 0.00853375, 0.00605804, 436.947, -115.942, 0.0225332, 0.00144955, 0.00514024, 0.00373319, 233.763, -55.9355, 0.0225332, 0.00144812, -39.8252, -34.5925, 422.243, -29.6535, -27.0882, 224.548, -0.00317998, -0.00308672, 0.00817206, -0.00200025, -0.00200025, -0.00200025
3968, 1,0.00445728, 0.00128069, 0.000862141, 279.952, 80.1788, 0.0129462, 449.578, -125.283, 0.107038, 0.00160801, 0.00573645, 0.00390694, 360.087, -119.419, 0, 0.00160765, 0.00317933, 0.00218655, 199.853, -66.6075, 0, 0.00160627, -6.57319, 17.9395, 346.89, -4.62208, 11.8928, 192.552, -0.00201678, -0.00150265, 0.00545725, -0.00114354, -0.00114354, -0.00114354
3969, 1,0.00341554, 0.000984263, 0.000670857, 215.537, 61.9122, 0.00643503, 396.102, -123.677, 0, 0.00168463, 0.00439976, 0.00300239, 277.449, -93.3672, 0, 0.0016838, 0.00243136, 0.00166079, 153.625, -51.9939, 0, 0.00168267, -5.63277, 15.3342, 270.4, -2.95141, 9.19539, 149.738, -0.00159006, -0.00114635, 0.0042515, -0.000881545, -0.000881545, -0.000881545
3970, 1,0.00287376, 0.000818163, 0.000565503, 183.336, 52.1101, 0.00540012, 344.643, -120.179, 0, 0.00171624, 0.00369173, 0.00254408, 235.444, -81.935, 0, 0.00171517, 0.00205596, 0.00141362, 131.23, -45.8057, 0, 0.00171417, -4.51193, 15.6767, 234.64, -2.05439, 8.65766, 130.814, -0.0013867, -0.000958792, 0.00367507, -0.000765501, -0.000765501, -0.000765501
3971, 1,0.00222527, 0.000597208, 0.000490716, 121.17, 33.0669, 0.00536603, 296.021, -57.0903, 0, 0.00166317, 0.00282174, 0.00230675, 154.215, -27.8835, 0, 0.00166238, 0.00162934, 0.00132669, 88.1412, -14.87, 0, 0.00166203, -5.66309, 33.0785, 56.235, -5.7955, 17.4983, 32.907, -0.00056036, 0.000258889, 0.000753969, -0.000358085, -0.000358085, -0.000358085
3972, 1,0.00164532, 0.000453839, 0.000317123, 104.204, 28.1301, 0.00320318, 195.737, -59.5567, 0, 0.00171719, 0.00209871, 0.00142904, 132.317, -44.4156, 0, 0.00171677, 0.0011923, 0.000796889, 76.1045, -26.4609, 0, 0.00171626, 4.60193, 58.0219, 70.6228, 2.88949, 33.5408, 42.9523, -0.0006032, 0.00052764, 0.000796325, -0.000356536, -0.000356536, -0.000356536
3973, 1,0.000933493, 0.000253033, 0.000196361, 70.2107, 18.797, 0.00178989, 135.373, -68.1469, 0, 0.00173305, 0.00118398, 0.000927316, 88.8911, -44.171, 0, 0.00173238, 0.000684974, 0.000538361, 51.6196, -25.7946, 0, 0.00173186, 1.79079, 60.7148, 70.0074, 1.02463, 33.6779, 42.6813, -0.000657938, 0.000588926, 0.000785806, -0.000384612, -0.000384612, -0.000384612
3974, 1,0.00125683, -0.000638726, 0.000476762, 44.0975, -36.6678, 0.00299587, 115.931, 34.5221, 0, 0.00195814, 0.00157025, 0.00217085, 52.4387, 29.4129, 0, 0.00195831, 0.000944147, 0.00121953, 35.7865, 12.0029, 0, 0.00195886, 14.5086, 42.8181, -145.565, 8.99635, 29.9356, -74.9405, 0.000769155, 0.00136867, -0.00261507, 0.000378361, 0.000378361, 0.000378361
3975, 1,0.00154774, -0.000556644, 0.000500458, 69.1874, -28.5871, 0.00324491, 151.979, 1.85104, 0, 0.00181351, 0.0019918, 0.00215505, 87.897, 8.3934, 0, 0.00181332, 0.00110385, 0.00115465, 50.4849, 2.27186, 0, 0.0018135, 3.41795, 78.196, -106.794, 1.67964, 44.9287, -53.4239, 0.000204313, 0.0017865, -0.00212697, 7.1172E-05, 7.1172E-05, 7.1172E-05
3976, 1,0.00170321, 0.000500233, 0.000496686, 86.3124, 24.2058, 0.00323302, 164.559, -15.831, 0, 0.00176362, 0.00220342, 0.00210547, 110.517, -8.59202, 0, 0.00176341, 0.00120303, 0.00111216, 62.1093, -7.07558, 0, 0.00176337, 4.09265, 108.943, -87.2594, 2.27744, 61.2508, -42.3015, -4.85928E-05, 0.00216978, -0.00198172, -6.30676E-05, -6.30676E-05, -6.30676E-05
3977, 1,0.00232807, -0.000834939, 0.000756857, 103.382, -42.6788, 0.00451076, 202.491, 14.3589, 0, 0.00174842, 0.00300685, 0.00325677, 132.243, 13.2484, 0, 0.00174845, 0.0016493, 0.00174307, 74.5209, 4.60074, 0, 0.0017487, 3.63075, 132.123, -175.499, 1.92243, 74.4606, -90.1853, 0.000285694, 0.00300427, -0.00350489, 0.000113362, 0.000113362, 0.000113362
3978, 1,0.00190756, -0.000853078, 0.000696181, 72.0038, -47.1456, 0.00386307, 150.066, 43.6678, 0, 0.00181434, 0.00244679, 0.00302896, 90.6606, 33.5545, 0, 0.00181464, 0.00136837, 0.00163671, 53.3488, 15.209, 0, 0.00181518, 4.35621, 89.9183, -194.938, 2.37987, 52.9107, -100.918, 0.000621185, 0.00243105, -0.00359668, 0.000290441, 0.000290441, 0.000290441
3979, 1,0.00105292, -0.000759694, 0.00054847, -0.286575, -52.4017, 0.00208595, 6.40486, 123.828, 0, 0.00192968, 0.00138957, 0.00232666, -0.874862, 89.3927, 0, 0.00193076, 0.00071704, 0.00123088, 0.339957, 45.0658, 0, 0.00193215, -1.72907, -48.1466, -218.302, -0.363779, -20.0438, -114.79, 0.00137171, 0.000389276, -0.00321156, 0.000702461, 0.000702461, 0.000702461
3980, 1,0.00188302, -0.00105068, 0.000813151, 21.8994, -71.8157, 0.00371821, 54.5048, 162.875, 0, 0.00120357, 0.00245846, 0.00341142, 26.9355, 119.935, 0, 0.00120441, 0.00130774, 0.00178652, 16.8715, 60.3949, 0, 0.00120557, 26.3858, -239.145, -147.046, 16.4681, -120.826, -76.8271, 0.0024468, -0.00317074, -0.00122229, 0.00129919, 0.00129919, 0.00129919
3981, 1,0.00105994, -0.000786632, 0.000538862, -3.67758, -52.1128, 0.00225813, 2.0971, 140.578, 0, 0.00215695, 0.00135072, 0.00245163, -4.872, 92.2668, 0, 0.00215865, 0.000769371, 0.00137487, -2.47844, 52.1244, 0, 0.00216005, -6.10583, -40.0343, -230.66, -3.38077, -24.2472, -128.745, 0.00132162, 0.000606301, -0.00342514, 0.000746865, 0.000746865, 0.000746865
3982, 1,0.00196632, -0.00091276, 0.000752552, 64.5741, -50.4034, 0.00379324, 124.582, 73.4738, 0, 0.00200608, 0.00255857, 0.00331188, 85.2946, 47.8618, 0, 0.00200692, 0.00137416, 0.00180719, 43.8575, 28.3291, 0, 0.00200755, -1.18243, 84.9647, -227.368, -1.93942, 43.6408, -126.689, 0.000728132, 0.00255156, -0.00405633, 0.000404301, 0.000404301, 0.000404301
3983, 1,0.002388, -0.000927845, 0.000827111, 93.1894, -48.1776, 0.00450203, 178.05, 46.6459, 0, 0.00194434, 0.00311435, 0.00361219, 123.187, 32.2428, 0, 0.0019448, 0.00166168, 0.0019582, 63.1937, 20.6078, 0, 0.00194517, -1.67099, 123.132, -218.189, -3.12958, 63.1632, -121.857, 0.000472462, 0.00311317, -0.00410881, 0.000258199, 0.000258199, 0.000258199
3984, 1,0.00177072, -0.000558509, 0.000550018, 80.0194, -26.4762, 0.00324573, 147.023, 8.57296, 0, 0.00195086, 0.00231201, 0.00240449, 105.516, 5.03768, 0, 0.00195097, 0.00122965, 0.00130497, 54.5348, 4.8137, 0, 0.00195097, 1.14077, 104.451, -120.705, -0.186027, 53.9104, -68.1654, 0.00010387, 0.0022893, -0.0024749, 7.2146E-05, 7.2146E-05, 7.2146E-05
3985, 1,0.000870639, 0.000265558, 0.000209364, 63.1428, 19.783, 0.00176659, 125.448, -56.3467, 0, 0.0019192, 0.00113609, 0.000875578, 82.9216, -39.2552, 0, 0.00191867, 0.000605285, 0.000457118, 43.3678, -19.823, 0, 0.00191806, 0.166761, 60.7031, 56.8958, 0.133988, 31.022, 28.313, -0.000613984, 0.000665911, 0.000585064, -0.000308686, -0.000308686, -0.000308686
3986, 1,0.0029648, 0.000918067, 0.000633757, 188.506, 58.503, 0.00566221, 361.414, -125.964, 0, 0.00188877, 0.00388285, 0.00267243, 247.009, -85.2592, 0, 0.00188752, 0.00204677, 0.00140511, 130.004, -44.6481, 0, 0.00188628, -5.66233, 15.2947, 246.145, -2.88561, 7.30083, 129.529, -0.00146181, -0.00101932, 0.00386462, -0.000763425, -0.000763425, -0.000763425
3987, 1,0.00161498, -0.000602156, 0.000545714, 65.1248, -30.8977, 0.00338248, 144.214, 21.0245, 0, 0.00201799, 0.00210389, 0.00240617, 85.788, 18.3337, 0, 0.00201807, 0.00112641, 0.0013155, 44.4775, 11.7706, 0, 0.00201829, 0.815778, 78.9232, -134.74, 0.0562331, 40.5008, -75.8689, 0.000306049, 0.00195822, -0.00256176, 0.000186464, 0.000186464, 0.000186464
3988, 1,0.00158063, 0.000471663, 0.000320772, 98.3307, 29.5647, 0.0033749, 199.041, -53.0816, 0, 0.00191656, 0.00205216, 0.00143501, 127.89, -41.498, 0, 0.0019162, 0.00110921, 0.000793745, 68.7764, -21.9555, 0, 0.00191559, 4.13049, 59.3745, 60.989, 3.16925, 31.2101, 31.4871, -0.000565264, 0.000601672, 0.000636978, -0.000277879, -0.000277879, -0.000277879
3989, 1,0.0034826, 0.00108578, 0.000739814, 221.722, 68.4671, 0.00686884, 416.591, -123.476, 0, 0.00185143, 0.00456835, 0.00309215, 290.186, -99.7141, 0, 0.00185071, 0.00239687, 0.00161282, 153.26, -53.6265, 0, 0.00184933, -2.0988, 17.5104, 283.731, 0.777377, 10.2197, 149.882, -0.00161336, -0.00120057, 0.00443197, -0.000826594, -0.000826594, -0.000826594
3990, 1,0.0014573, -0.000682255, 0.000539772, 51.1095, -37.6444, 0.00325922, 113.8, 54.0526, 0, 0.00219125, 0.00185389, 0.00248836, 64.4525, 31.0987, 0, 0.00219207, 0.00106123, 0.00141017, 37.7878, 16.5772, 0, 0.00219259, 12.7037, 59.4349, -165.435, 7.80093, 34.709, -92.2415, 0.000757565, 0.00174681, -0.00300901, 0.000424935, 0.000424935, 0.000424935
3991, 1,0.00229908, 0.000643326, 0.000514661, 121.438, 36.1226, 0.00644236, 345.436, -54.9657, 0, 0.00184373, 0.00294233, 0.00240169, 157.556, -24.7613, 0, 0.00184283, 0.0016559, 0.00137258, 85.3219, -9.39773, 0, 0.00184237, -13.6435, 36.5623, 51.3651, -12.5736, 16.6567, 24.1101, -0.000676197, 0.000380298, 0.000697689, -0.000411656, -0.000411656, -0.000411656
3992, 1,0.00448343, 0.00138096, 0.000927086, 282.05, 86.4695, 0.0211384, 461.052, -137.489, 0.265986, 0.00175124, 0.00586415, 0.00400778, 368.516, -122.249, 0, 0.00175013, 0.00310292, 0.00215661, 195.588, -65.271, 0, 0.00174851, -7.56065, 16.9273, 357.38, -5.41158, 11.2628, 189.962, -0.00207646, -0.0015703, 0.00563048, -0.00113344, -0.00113344, -0.00113344
3993, 1,0.00811851, 0.00183361, 0.00126446, 335.731, 106.084, 0.0519302, 531.316, -233.484, 0.824924, 0.00160435, 0.0099488, 0.007019, 441.758, -129.642, 0.052854, 0.00159658, 0.00629012, 0.00455633, 229.758, -66.7007, 0.0516696, 0.0015949, -31.709, -7.86075, 428.494, -20.0641, -1.21006, 221.376, -0.00402506, -0.0033649, 0.00955755, -0.0027553, -0.0027553, -0.0027553
3994, 1,0.019363, 0.00332326, 0.00231633, 355.728, 116.755, 0.0716623, 714.752, -237.693, 1, 0.00142363, 0.0226682, 0.0166181, 472.399, -166.517, 0.300023, 0.00141585, 0.0160652, 0.0120768, 239.141, -85.607, 0.255059, 0.00141355, 20.7857, 16.54, 462.224, 12.6343, 11.7442, 232.442, -0.00915031, -0.00954389, 0.0219395, -0.00678553, -0.00678553, -0.00678553
3995, 1,0.0299079, 0.00510907, 0.0036512, 365.99, 120.018, 0.0776333, 878.556, -290.612, 1, 0.0012585, 0.034949, 0.0257667, 485.801, -182.665, 0.531008, 0.0012504, 0.0248934, 0.0186009, 246.387, -95.0152, 0.434462, 0.00124768, 40.7255, 31.8941, 475.374, 24.4503, 22.1827, 238.412, -0.0142585, -0.0153659, 0.0338366, -0.0105679, -0.0105679, -0.0105679
3996, 1,0.00305627, 0.000870164, 0.000713409, 172.238, 47.7446, 0.0168112, 457.243, -137.984, 0.184844, 0.00162564, 0.00392245, 0.0032264, 219.78, -45.7441, 0, 0.00162279, 0.00219322, 0.0018108, 124.854, -27.9627, 0, 0.00162232, 3.47421, 30.496, 103.262, 5.9711, 24.9285, 52.9883, -0.000637413, -8.96121E-05, 0.0014693, -0.000304545, -0.000304545, -0.000304545
3997, 1,0.00595625, 0.00126629, 0.00095867, 306.396, 72.5187, 0.0319574, 486.317, -180.973, 0.480278, 0.00135998, 0.00721789, 0.00527853, 378.778, -112.644, 0.0199118, 0.00135704, 0.00469699, 0.00337857, 234.103, -75.1412, 0.019359, 0.00135621, 11.081, 47.7171, 279.134, 11.385, 43.2023, 170.836, -0.00188714, -0.00104317, 0.0047787, -0.00129146, -0.00129146, -0.00129146
3998, 1,0.01063, 0.00163404, 0.00113597, 332.541, 96.224, 0.0343317, 427.936, -95.9698, 0.52449, 0.00118824, 0.0122569, 0.00909412, 428.704, -130.104, 0.104298, 0.00118828, 0.00900554, 0.00683921, 236.424, -66.3692, 0.104298, 0.00118698, 0.898223, -7.24159, 396.657, -4.88292, -12.9014, 216.892, -0.00420555, -0.00461614, 0.0110633, -0.00320241, -0.00320241, -0.00320241
3999, 1,0.00146117, -0.000945713, 0.00063705, 13.5182, -59.9411, 0.00359207, 33.5531, 183.011, 0, 0.00174394, 0.00178763, 0.0032043, 13.687, 94.8994, 0, 0.00174643, 0.00113508, 0.00193355, 13.37, 53.9207, 0, 0.00174759, -10.3172, 10.1953, -284.577, -6.95707, 11.4276, -166.233, 0.00127249, 0.00171015, -0.00452259, 0.000697918, 0.000697918, 0.000697918
4000, 1,0.00166456, -0.0011362, 0.000775846, -30.2063, -75.1287, 0.00424008, -13.9655, 287.776, 0, 0.00117687, 0.0020767, 0.00430807, -32.1603, 174.98, 0, 0.00117903, 0.00125709, 0.00277421, -28.0021, 117.387, 0, 0.00118013, -35.2752, -54.369, -435.295, -30.9644, -33.5673, -287.63, 0.00200538, 0.0016078, -0.00645261, 0.00118918, 0.00118918, 0.00118918
4001, 1,0.00223532, -0.00121697, 0.00085223, -4.53107, -83.1359, 0.00636567, 12.9462, 322.831, 0.0294151, 0.00102153, 0.00272065, 0.00484418, -7.19972, 182.394, 0, 0.00102395, 0.0017517, 0.00314652, -1.78943, 113.598, 0, 0.00102509, -15.2616, -71.2368, -460.685, -7.69481, -38.2857, -294.812, 0.00254843, 0.00138814, -0.00689632, 0.00162471, 0.00162471, 0.00162471
4002, 1,0.00951538, -0.00393252, 0.00264211, -44.53, -197.412, 0.033631, -72.4115, 377.172, 0.946452, 0.00073825, 0.0107623, 0.0184161, -57.3255, 323.909, 0.254183, 0.000743324, 0.00828648, 0.0132567, -31.418, 171.957, 0.236404, 0.00074549, -80.4999, -117.226, -774.002, -50.9694, -64.0966, -400.804, 0.00962882, 0.00798666, -0.0237404, 0.0069631, 0.0069631, 0.0069631
4003, 1,0.00512384, -0.00273134, 0.00186165, 15.3708, -169.754, 0.0198787, -73.6497, 368.198, 0.541637, 0.000740742, 0.00611324, 0.0104301, 14.793, 246.889, 0.0678517, 0.000744009, 0.00413577, 0.00671515, 15.9754, 124.229, 0.0678517, 0.000745549, 5.37222, -157.202, -588.838, 9.96138, -79.4393, -303.21, 0.00582066, 0.00121802, -0.0112024, 0.00390379, 0.00390379, 0.00390379
4004, 1,0.00235436, -0.00163048, 0.00114683, 11.3253, -106.032, 0.00606038, 52.9646, 233.962, 0.0402458, 0.00110455, 0.0030137, 0.00517786, 13.5137, 173.106, 0, 0.00110574, 0.00169774, 0.00289325, 9.25586, 95.2403, 0, 0.00110714, 3.27013, -196.838, -325.751, 1.53539, -111.06, -176.197, 0.00278518, -0.00143466, -0.00415956, 0.00152185, 0.00152185, 0.00152185
4005, 1,0.00171309, -0.000893846, 0.000684902, 21.8046, -59.4837, 0.00370756, 64.7499, 148.383, 0, 0.00136669, 0.00218871, 0.0031008, 27.0448, 102.616, 0, 0.00136771, 0.00123773, 0.00173192, 16.5715, 56.2896, 0, 0.00136873, 24.332, -192.865, -139.315, 14.7954, -106.478, -77.1863, 0.00212672, -0.00246427, -0.00132764, 0.00119518, 0.00119518, 0.00119518
4006, 1,0.0012508, -0.000708524, 0.000532762, 7.87516, -48.5704, 0.00274916, 37.3564, 124.438, 0, 0.00208683, 0.00160768, 0.00236165, 9.65439, 89.1509, 0, 0.00208802, 0.00089402, 0.00129657, 6.09746, 48.6117, 0, 0.0020894, 8.75474, -70.5318, -205.675, 5.55471, -39.5151, -111.875, 0.00158561, -8.80696E-05, -0.0029442, 0.000879296, 0.000879296, 0.000879296
4007, 1,0.00160113, -0.000804281, 0.000642475, 51.7856, -44.8709, 0.00293444, 92.8385, 61.5937, 0, 0.00194268, 0.0020817, 0.00279609, 67.635, 41.3092, 0, 0.00194332, 0.00112064, 0.00151156, 35.9404, 22.8706, 0, 0.0019439, 4.92111, 67.3924, -196.241, 2.24082, 35.7937, -106.646, 0.000753182, 0.00207654, -0.00350003, 0.000405954, 0.000405954, 0.000405954
4008, 1,0.00210052, -0.000817218, 0.000723973, 84.6039, -42.5163, 0.00387139, 155.327, 37.132, 0, 0.00188303, 0.00273118, 0.00314231, 110.513, 24.9409, 0, 0.0018834, 0.0014699, 0.00169466, 58.6972, 14.4729, 0, 0.00188372, 1.17111, 110.47, -186.464, -0.640533, 58.6732, -101.451, 0.000417271, 0.00273026, -0.00355222, 0.000213976, 0.000213976, 0.000213976
4009, 1,0.0015189, -0.000479545, 0.000470742, 70.6676, -22.6352, 0.00271894, 123.081, 7.30434, 0, 0.00188938, 0.00198049, 0.00203519, 92.5074, 1.47071, 0, 0.00188956, 0.0010576, 0.00109428, 48.8445, 1.54334, 0, 0.00188956, 2.93323, 91.6412, -98.9866, 1.12227, 48.3462, -54.0985, 8.5321E-05, 0.00196209, -0.00207126, 4.80823E-05, 4.80823E-05, 4.80823E-05
4010, 1,0.00076378, 0.000237153, 0.000187112, 57.6191, 17.9249, 0.00127209, 93.9515, -45.3985, 0, 0.00185887, 0.00100087, 0.000777124, 75.54, -37.9311, 0, 0.00185864, 0.000526754, 0.000403782, 39.7021, -19.8833, 0, 0.0018581, 2.08856, 51.9268, 59.7779, 1.56044, 26.9517, 31.1379, -0.000552946, 0.000501122, 0.000667338, -0.000279876, -0.000279876, -0.000279876
4011, 1,0.00279621, 0.000865613, 0.000601958, 177.203, 54.6525, 0.00490842, 307.273, -101.147, 0, 0.00182953, 0.00366168, 0.00252887, 231.852, -78.9901, 0, 0.00182887, 0.00193086, 0.00132572, 122.558, -42.061, 0, 0.00182778, -7.15672, 12.8535, 231.273, -2.73222, 6.63398, 122.281, -0.00139571, -0.000972208, 0.00364968, -0.000720395, -0.000720395, -0.000720395
4012, 1,0.00123257, -0.000512196, 0.00044704, 48.0085, -26.8254, 0.00229679, 89.6467, 25.4211, 0, 0.00195418, 0.00161409, 0.00192217, 63.4166, 17.3, 0, 0.00195443, 0.000851405, 0.00102874, 32.6187, 10.2593, 0, 0.00195466, 2.84444, 58.5724, -113.317, 1.18509, 29.9735, -61.9365, 0.000332491, 0.00151142, -0.00212462, 0.000186414, 0.000186414, 0.000186414
4013, 1,0.00122571, 0.000381941, 0.00025681, 77.7084, 24.3714, 0.00210614, 115.798, -21.8037, 0, 0.00185578, 0.00160762, 0.0010706, 102.077, -35.0244, 0, 0.00185618, 0.000843835, 0.000563391, 53.3418, -18.0411, 0, 0.00185567, 1.79468, 44.1432, 59.1352, 0.52133, 22.8304, 30.7717, -0.000512817, 0.000381607, 0.000699555, -0.000272279, -0.000272279, -0.000272279
4014, 1,0.00324312, 0.00100883, 0.000691906, 201.979, 63.281, 0.00611119, 355.184, -89.1728, 0, 0.00179311, 0.00425145, 0.00294101, 265.244, -86.3878, 0, 0.00179303, 0.00223524, 0.00155934, 138.728, -44.4596, 0, 0.00179181, -12.7437, 10.3532, 261.554, -8.59302, 5.04344, 136.928, -0.00162956, -0.00114199, 0.00417335, -0.000881269, -0.000881269, -0.000881269
4015, 1,0.000780554, -0.00057349, 0.000395196, 15.555, -33.7405, 0.00142441, 19.3526, 64.441, 0, 0.00211998, 0.000992395, 0.00175746, 18.9272, 37.5276, 0, 0.00212091, 0.000568728, 0.00097229, 12.1828, 19.6888, 0, 0.00212152, 17.7157, 15.3897, -145.688, 11.0416, 8.79849, -78.9065, 0.000964952, 0.000916359, -0.00249027, 0.000542671, 0.000542671, 0.000542671
4016, 1,0.00149407, 0.000458592, 0.000365348, 80.1342, 25.7316, 0.00468679, 243.825, -29.9411, 0, 0.0017846, 0.00195252, 0.00157441, 105.858, -18.1182, 0, 0.00178426, 0.00103575, 0.000844089, 54.4168, -7.21379, 0, 0.00178394, -8.53328, 14.5876, 48.3003, -7.36038, 4.74039, 24.2614, -0.000463493, 2.09998E-05, 0.000736494, -0.000266928, -0.000266928, -0.000266928
4017, 1,0.00419107, 0.00127898, 0.00087507, 255.654, 79.095, 0.0169038, 441.269, -108.899, 0.183359, 0.001696, 0.00546855, 0.00382257, 334.693, -102.243, 6.77626E-21, 0.00169548, 0.00291495, 0.00207653, 176.666, -52.1273, 6.77626E-21, 0.0016941, -26.627, 3.36347, 329.991, -19.6407, 1.11673, 174.906, -0.00217093, -0.00153995, 0.00536996, -0.00123362, -0.00123362, -0.00123362
4018, 1,0.00675303, 0.0017309, 0.00121075, 323.918, 99.2302, 0.0478717, 556.237, -280.81, 0.767515, 0.0015567, 0.0084748, 0.00595267, 422.955, -115.68, 0.0268455, 0.00154728, 0.00503736, 0.00354828, 225.048, -60.7022, 0.0253527, 0.00154588, -42.5004, -31.1116, 420.653, -21.8531, -19.9457, 223.905, -0.0033886, -0.00311679, 0.00841107, -0.00201469, -0.00201469, -0.00201469
4019, 1,0.0182067, 0.00310806, 0.00217548, 353.104, 116.175, 0.0721907, 751.299, -264.853, 1, 0.00137945, 0.0213121, 0.0163041, 469.272, -165.514, 0.276397, 0.00137045, 0.0151023, 0.0119604, 236.945, -84.7453, 0.238154, 0.00136827, 47.6822, -19.3956, 468.255, 30.5442, -12.5888, 236.28, -0.00676696, -0.0112882, 0.0212307, -0.00462881, -0.00462881, -0.00462881
4020, 1,0.0317323, 0.00517998, 0.00378986, 374.217, 121.848, 0.0797473, 942.302, -314.077, 1, 0.00121701, 0.0368469, 0.0285442, 495.898, -203.147, 0.572482, 0.0012089, 0.0266412, 0.0211199, 252.704, -107.615, 0.475772, 0.00120592, 92.5562, 25.2352, 491.651, 54.9059, 19.015, 248.924, -0.0116611, -0.0198611, 0.0363662, -0.00856576, -0.00856576, -0.00856576
4021, 1,0.0024709, 0.000622058, 0.000506203, 130.718, 33.1898, 0.0137906, 457.477, -139.084, 0.125208, 0.00157548, 0.00309021, 0.00241601, 163.802, -23.702, 0, 0.00157227, 0.00185335, 0.00141179, 97.7009, -13.5179, 0, 0.00157201, -26.6786, -18.3723, 116.157, -20.314, -9.74691, 70.6147, -0.000932538, -0.00077035, 0.00208749, -0.0006374, -0.0006374, -0.0006374
4022, 1,0.00442638, 0.00103645, 0.000766228, 260.626, 60.0815, 0.0289003, 506.201, -216.161, 0.428253, 0.00131925, 0.00545218, 0.00383995, 320.295, -84.5574, 0, 0.00131498, 0.00340756, 0.00237378, 201.23, -54.7774, 0, 0.00131435, -25.7161, -21.4812, 300.87, -19.6155, -9.32617, 193.274, -0.00187002, -0.00181461, 0.00505674, -0.00127166, -0.00127166, -0.00127166
4023, 1,0.0115999, 0.001613, 0.00109832, 367.04, 95.3677, 0.0351818, 424.031, -101.049, 0.547758, 0.00115152, 0.0132034, 0.00987346, 462.345, -163.956, 0.119583, 0.00115208, 0.00999895, 0.00773231, 271.778, -96.9207, 0.119583, 0.00115074, 44.3024, -12.3311, 459.897, 31.8764, -11.8545, 270.74, -0.003944, -0.00631655, 0.0131113, -0.00292686, -0.00292686, -0.00292686
4024, 1,0.00133013, -0.000810768, 0.000583454, 10.7255, -54.872, 0.00257667, -6.91697, 172.879, 0, 0.00168498, 0.00168602, 0.00270612, 10.9856, 92.2177, 0, 0.00168719, 0.000974445, 0.00154049, 10.474, 47.7299, 0, 0.00168841, 10.2234, -45.2523, -241.624, 10.005, -20.3999, -132.795, 0.00166667, 0.000495962, -0.00365905, 0.000961212, 0.000961212, 0.000961212
4025, 1,0.00176842, -0.00105776, 0.000749272, -24.7302, -75.1477, 0.0042873, -4.6919, 278.333, 0, 0.00114812, 0.00220838, 0.00390981, -29.0864, 179.184, 0, 0.00114996, 0.00132895, 0.00242236, -20.3599, 111.588, 0, 0.00115123, -30.2609, -121.628, -385.662, -21.2623, -76.1575, -237.345, 0.00217954, 0.000255724, -0.0053429, 0.0013051, 0.0013051, 0.0013051
4026, 1,0.00184654, -0.00122156, 0.000831435, -15.6055, -85.0206, 0.00613698, -4.28138, 317.239, 0.0387534, 0.000994609, 0.00228542, 0.00429729, -22.1247, 174.727, 0, 0.000997025, 0.00140989, 0.00264236, -8.99558, 101.457, 0, 0.000998211, -27.9395, -96.687, -399.555, -13.3834, -54.1581, -236.829, 0.00215932, 0.000735623, -0.00573026, 0.0013131, 0.0013131, 0.0013131
4027, 1,0.0095195, -0.00394291, 0.00258508, -58.6251, -212.2, 0.0361817, -92.6009, 464.851, 0.870408, 0.000719602, 0.0107318, 0.0175388, -75.3238, 386.021, 0.207602, 0.000725081, 0.0083125, 0.0124012, -41.796, 212.927, 0.19287, 0.000727414, -173.516, -150.642, -833.905, -112.195, -87.4533, -439.134, 0.00657485, 0.00767622, -0.021336, 0.00434401, 0.00434401, 0.00434401
4028, 1,0.00463697, -0.00293752, 0.0019534, -47.8291, -185.637, 0.0222776, -113.801, 475.273, 0.522156, 0.000722853, 0.0054776, 0.0106073, -61.0838, 319.04, 0.0668462, 0.000726845, 0.00383125, 0.00687667, -33.4288, 177.498, 0.0668462, 0.000728581, -81.6039, -249.512, -626.005, -58.4692, -144.784, -329.24, 0.0048852, 0.000214145, -0.0104771, 0.00297594, 0.00297594, 0.00297594
4029, 1,0.00285959, -0.00182689, 0.00128634, 26.5509, -119.733, 0.00755886, 15.5252, 280.59, 0.0911674, 0.00106761, 0.00360397, 0.00598637, 28.3506, 190.735, 0, 0.00106943, 0.00211628, 0.00342117, 24.7844, 101.003, 0, 0.00107099, 23.6186, -276.282, -319.543, 21.3501, -156.475, -167.885, 0.00349496, -0.00283553, -0.00375455, 0.00203351, 0.00203351, 0.00203351
4030, 1,0.00214969, -0.00108345, 0.00084246, 36.0606, -71.0142, 0.0050082, 128.924, 144.844, 0, 0.00131012, 0.00275115, 0.00376558, 44.6724, 114.744, 0, 0.00131076, 0.00154825, 0.00208072, 27.4496, 61.5152, 0, 0.0013119, 42.8916, -254.734, -132.389, 26.5002, -138.987, -72.0592, 0.00270967, -0.00358208, -0.000989586, 0.00152441, 0.00152441, 0.00152441
4031, 1,0.00126492, -0.000699826, 0.000535893, 9.03353, -48.5292, 0.00277364, 39.5965, 122.963, 0, 0.00201766, 0.00163661, 0.00232975, 11.147, 88.9728, 0, 0.00201878, 0.000893461, 0.00125872, 6.92602, 47.4428, 0, 0.00202014, 10.9109, -74.5467, -203.283, 6.73954, -40.2252, -108.843, 0.00163081, -0.000175851, -0.00289872, 0.000888364, 0.000888364, 0.000888364
4032, 1,0.00157457, -0.000790258, 0.000628334, 53.3445, -44.0535, 0.00292313, 97.8855, 54.0858, 0, 0.0018796, 0.00204096, 0.00271804, 68.6796, 37.3128, 0, 0.00188011, 0.0011082, 0.00146168, 38.0104, 19.293, 0, 0.00188066, 7.65298, 68.1929, -187.784, 4.24123, 37.7188, -99.839, 0.000748457, 0.00203053, -0.00338443, 0.000392395, 0.000392395, 0.000392395
4033, 1,0.00206188, -0.00079192, 0.000703058, 86.6354, -40.9805, 0.00383767, 160.954, 27.4266, 0, 0.00182183, 0.00267606, 0.00302892, 112.107, 19.2971, 0, 0.00182207, 0.0014477, 0.00162296, 61.1641, 9.74612, 0, 0.00182236, 4.22753, 112.019, -174.138, 1.84474, 61.1209, -92.204, 0.00039308, 0.00267415, -0.00338032, 0.00019219, 0.00019219, 0.00019219
4034, 1,0.00148766, -0.000463238, 0.000455164, 72.0188, -21.7118, 0.00267342, 126.202, 0.17834, 0, 0.00182804, 0.00193467, 0.00194513, 93.3244, -2.55402, 0, 0.00182812, 0.00104071, 0.00103494, 50.7175, -2.0678, 0, 0.00182811, 4.99973, 92.1143, -89.4519, 2.6251, 50.0576, -46.4793, 6.5796E-05, 0.00190872, -0.00193304, 2.3197E-05, 2.3197E-05, 2.3197E-05
4035, 1,0.000803793, 0.00023301, 0.000180672, 60.7529, 17.5231, 0.00128519, 96.5697, -48.136, 0, 0.0017987, 0.00103631, 0.00079387, 78.2558, -39.3458, 0, 0.00179844, 0.000571697, 0.000434112, 43.2667, -21.8493, 0, 0.00179793, 3.36227, 51.5218, 63.1534, 2.31504, 27.6876, 35.5452, -0.000548189, 0.000470276, 0.000716394, -0.000294729, -0.000294729, -0.000294729
4036, 1,0.00276102, 0.000827882, 0.000576117, 174.718, 52.2215, 0.00481369, 300.524, -98.1399, 0, 0.00177048, 0.00358842, 0.00248098, 226.926, -77.079, 0, 0.00176987, 0.00193404, 0.00133035, 122.52, -41.8871, 0, 0.00176886, -7.36047, 12.3094, 226.288, -3.08702, 6.51921, 122.229, -0.00137107, -0.000953616, 0.00357545, -0.000726249, -0.000726249, -0.000726249
4037, 1,0.00120885, -0.000503351, 0.000436459, 49.098, -26.3665, 0.0022429, 90.794, 20.4029, 0, 0.00189082, 0.00157835, 0.00185128, 63.982, 14.2305, 0, 0.00189101, 0.000839412, 0.000978611, 34.2172, 7.30278, 0, 0.00189122, 4.70492, 57.5435, -104.94, 2.33109, 30.5758, -54.8152, 0.000324013, 0.00144128, -0.00199619, 0.000164648, 0.000164648, 0.000164648
4038, 1,0.00126431, 0.000375969, 0.000256783, 80.6749, 23.79, 0.00216417, 121.108, -25.1979, 0, 0.00179586, 0.00163988, 0.0011026, 104.449, -36.2083, 0, 0.00179618, 0.000889099, 0.000591263, 56.9156, -20.0266, 0, 0.00179571, 3.46898, 42.7232, 62.4328, 1.79392, 22.8149, 35.4709, -0.000496017, 0.000332911, 0.000750674, -0.000276544, -0.000276544, -0.000276544
4039, 1,0.00322314, 0.000969033, 0.00066585, 201.253, 60.6543, 0.00605375, 353.415, -90.3012, 0, 0.00173545, 0.00419205, 0.00289985, 261.905, -85.7368, 0, 0.00173532, 0.00225432, 0.00156854, 140.602, -45.8088, 0, 0.0017342, -11.0949, 10.7316, 257.573, -6.8836, 5.87245, 138.438, -0.00158727, -0.00112372, 0.00410225, -0.00086914, -0.00086914, -0.00086914
4040, 1,0.000821939, -0.000564581, 0.000400989, 18.8971, -33.6248, 0.00141176, 22.1199, 59.7509, 0, 0.00205007, 0.00105922, 0.00173214, 23.1673, 35.9322, 0, 0.00205086, 0.000584747, 0.000930556, 14.6305, 17.2762, 0, 0.00205148, 19.9442, 10.9369, -138.678, 12.5914, 7.66525, -72.0852, 0.000988779, 0.000796891, -0.00236873, 0.000539315, 0.000539315, 0.000539315
4041, 1,0.00152213, 0.000445115, 0.000361351, 82.0185, 24.7872, 0.00457895, 239.56, -30.9247, 0, 0.00172629, 0.00196609, 0.00158946, 106.76, -18.6545, 0, 0.00172595, 0.00107912, 0.000869804, 57.3144, -8.57376, 0, 0.00172566, -7.04511, 12.497, 50.5117, -6.52448, 3.78826, 28.4575, -0.000441991, -3.16453E-05, 0.000776353, -0.000272134, -0.000272134, -0.000272134
4042, 1,0.0042019, 0.00124152, 0.000852437, 252.457, 76.7006, 0.0156569, 440.167, -107.563, 0.158934, 0.00164134, 0.00544151, 0.0038218, 329.087, -96.7563, 0, 0.00164077, 0.00296388, 0.00212125, 175.886, -48.3127, 0, 0.00163948, -29.7646, -3.50556, 323.539, -23.0239, -5.84809, 173.81, -0.00215883, -0.00159934, 0.00532824, -0.00125296, -0.00125296, -0.00125296
4043, 1,0.00689229, 0.00168027, 0.0011752, 322.371, 97.7905, 0.0448697, 540.805, -257.677, 0.714758, 0.00150515, 0.00856879, 0.00614658, 420.075, -112.795, 0.0290686, 0.0014975, 0.00521816, 0.00380744, 224.739, -58.2017, 0.0285672, 0.00149616, -52.9106, -24.2198, 415.516, -33.014, -15.1059, 222.725, -0.00367539, -0.00293191, 0.00846779, -0.00237078, -0.00237078, -0.00237078
4044, 1,0.0169948, 0.00293307, 0.00204151, 366.361, 115.743, 0.0709533, 735.761, -277.65, 1, 0.00133587, 0.0199279, 0.0149791, 482.104, -186.656, 0.250599, 0.00132699, 0.0140618, 0.0108961, 250.619, -106.851, 0.217638, 0.00132494, 65.899, 14.1008, 479.968, 51.6675, 19.3438, 249.541, -0.00649342, -0.00980424, 0.019819, -0.00448787, -0.00448787, -0.00448787
4045, 1,0.0301534, 0.00485902, 0.00354279, 370.582, 122.349, 0.0781375, 904.467, -308.541, 1, 0.00117747, 0.0349703, 0.027122, 492.81, -199.257, 0.5382, 0.00116959, 0.0253512, 0.0201388, 248.473, -101.042, 0.449418, 0.00116675, 87.3684, 21.3522, 489.05, 46.8832, 10.9265, 245.317, -0.0111971, -0.0187848, 0.0346032, -0.00831244, -0.00831244, -0.00831244
4046, 1,0.002413, 0.000575478, 0.000480458, 125.552, 30.1337, 0.0127276, 447.755, -123.888, 0.10349, 0.00152494, 0.0029866, 0.00238056, 155.6, -19.3282, 0, 0.00152217, 0.00184066, 0.00142644, 95.562, -11.4368, 0, 0.00152197, -28.2369, -24.6703, 110.892, -22.2064, -14.8775, 71.3944, -0.000901518, -0.000833986, 0.00204915, -0.000649485, -0.000649485, -0.000649485
4047, 1,0.00461607, 0.00093621, 0.000701803, 272.694, 53.5411, 0.0290933, 510.116, -221.623, 0.431271, 0.00127749, 0.0055425, 0.00385405, 325.858, -86.2017, 0, 0.00127324, 0.00369502, 0.00257333, 219.741, -61.2584, 0, 0.00127272, -29.9617, -17.8513, 306.418, -22.9194, -4.28882, 210.983, -0.00199142, -0.00176261, 0.00515283, -0.00144923, -0.00144923, -0.00144923
4048, 1,0.01048, 0.00148512, 0.00101826, 371.712, 89.274, 0.0347103, 427.436, -99.6823, 0.534767, 0.00111491, 0.0119642, 0.00876294, 460.978, -156.051, 0.0927572, 0.00111531, 0.00899618, 0.00675374, 282.451, -94.6993, 0.0927572, 0.00111414, 22.6208, -11.1228, 456.655, 15.9827, -11.7518, 279.867, -0.00394719, -0.00521679, 0.0118345, -0.00299485, -0.00299485, -0.00299485
4049, 1,0.0013494, -0.000803726, 0.000587354, 9.97263, -55.0726, 0.00251219, -8.85861, 171.409, 0, 0.00162691, 0.0017203, 0.00266183, 10.4077, 95.1221, 0, 0.00162893, 0.000978549, 0.00148832, 9.54233, 49.2057, 0, 0.00163014, 9.94457, -58.0428, -237.268, 9.18147, -28.6198, -128.179, 0.0017117, 0.000270865, -0.00352612, 0.000972272, 0.000972272, 0.000972272
4050, 1,0.00174393, -0.00108772, 0.00076869, -23.3179, -77.507, 0.00414597, -3.8741, 268.524, 0, 0.00111822, 0.00219278, 0.00381208, -28.2137, 176.938, 0, 0.00111988, 0.0012957, 0.0022792, -18.3864, 106.814, 0, 0.00112115, -30.454, -123.947, -376.415, -20.2257, -75.9144, -224.302, 0.00214709, 0.000170251, -0.00518853, 0.00125889, 0.00125889, 0.00125889
4051, 1,0.00191345, -0.00129437, 0.000872129, -18.123, -89.6515, 0.00567895, -16.5103, 321.457, 0.0314719, 0.000965473, 0.00235142, 0.00446282, -25.8895, 183.729, 1.69407E-21, 0.000967724, 0.00148402, 0.00274958, -9.93225, 107.259, 1.69407E-21, 0.000968925, -40.3348, -100.49, -410.364, -23.4357, -59.248, -239.093, 0.00204292, 0.000791947, -0.00581625, 0.00119589, 0.00119589, 0.00119589
4052, 1,0.00931672, -0.00395011, 0.00259876, -37.4094, -212.319, 0.0358299, -78.0668, 451.456, 0.848899, 0.000700032, 0.010548, 0.0169405, -53.4173, 362.095, 0.196081, 0.000705178, 0.00809206, 0.0117807, -21.2307, 189.121, 0.180357, 0.000707427, -158.029, -128.738, -799.518, -95.5923, -67.0384, -404.733, 0.00623166, 0.00754355, -0.020373, 0.00401037, 0.00401037, 0.00401037
4053, 1,0.00478895, -0.00296581, 0.00196495, -39.6051, -185.507, 0.0210857, -110.497, 468.841, 0.490119, 0.000705841, 0.0056003, 0.0105804, -54.1662, 312.413, 0.0682922, 0.000709523, 0.00399792, 0.00685011, -24.3676, 170.347, 0.0672823, 0.000711226, -82.5983, -249.305, -605.335, -57.8909, -143.401, -309.75, 0.00479516, 8.20118E-05, -0.0101476, 0.00286988, 0.00286988, 0.00286988
4054, 1,0.00286482, -0.00185962, 0.00130655, 25.6162, -122.183, 0.00724691, 8.94058, 289.615, 0.0810678, 0.00103173, 0.00361801, 0.0060185, 26.9076, 193.502, 2.60341E-07, 0.00103357, 0.0021118, 0.00340965, 24.3363, 101.348, 2.60341E-07, 0.00103511, 26.7036, -286.841, -320.367, 24.1249, -161.277, -166.891, 0.00361493, -0.00301507, -0.00373986, 0.00210878, 0.00210878, 0.00210878
4055, 1,0.00216199, -0.00114136, 0.000882438, 30.8811, -75.5471, 0.00508851, 122.286, 158.892, 0, 0.00125435, 0.0027853, 0.00387566, 38.7365, 124.844, 0, 0.00125504, 0.00153883, 0.00211127, 23.0295, 66.7908, 0, 0.00125622, 38.7287, -275.212, -138.05, 23.02, -149.12, -74.2723, 0.00278511, -0.00385619, -0.000954828, 0.00153831, 0.00153831, 0.00153831
4056, 1,0.00107993, -0.000764333, 0.000545404, -0.642833, -52.0882, 0.00223452, 6.00305, 133.767, 0, 0.0019495, 0.00140601, 0.00236674, -1.19577, 90.8369, 0, 0.00195086, 0.000754227, 0.00127667, -0.0752825, 47.9378, 0, 0.00195222, -2.03763, -48.0382, -222.435, -0.701263, -23.6082, -119.504, 0.00138779, 0.000414339, -0.00327613, 0.000740352, 0.000740352, 0.000740352
4057, 1,0.00193247, -0.000857414, 0.000706531, 72.7942, -47.0981, 0.0038673, 146.707, 48.4398, 0, 0.00181667, 0.00248804, 0.0030746, 92.4743, 33.7281, 0, 0.00181711, 0.00137697, 0.00166187, 53.1174, 16.058, 0, 0.00181763, 4.58963, 91.5912, -197.365, 2.72614, 52.5413, -103.442, 0.000628018, 0.00246914, -0.00364443, 0.000310259, 0.000310259, 0.000310259
4058, 1,0.00233709, -0.000836711, 0.000760628, 103.679, -42.6782, 0.00452144, 202.029, 15.6574, 0, 0.00176058, 0.00302163, 0.00327183, 132.897, 13.307, 0, 0.00176065, 0.00165255, 0.00175062, 74.4616, 4.88515, 0, 0.00176089, 3.60286, 132.734, -176.258, 1.92382, 74.3686, -90.9478, 0.000285694, 0.00301811, -0.00351968, 0.000117523, 0.000117523, 0.000117523
4059, 1,0.00172274, 0.000508044, 0.000503799, 87.0915, 24.6035, 0.00326115, 165.228, -14.9641, 0, 0.00176666, 0.00223068, 0.00213506, 111.69, -8.45481, 0, 0.00176647, 0.00121488, 0.00112774, 62.4968, -6.86144, 0, 0.00176643, 4.10717, 109.554, -88.2969, 2.33391, 61.2074, -42.957, -4.57783E-05, 0.00218479, -0.00200177, -5.81654E-05, -5.81654E-05, -5.81654E-05
4060, 1,0.00101072, 0.000267779, 0.000203411, 73.8542, 19.4655, 0.00192812, 141.261, -67.462, 0, 0.00173859, 0.00127559, 0.000974149, 93.1862, -44.2884, 0, 0.00173794, 0.000747972, 0.000571715, 54.6196, -25.9858, 0, 0.00173742, 1.70361, 61.4238, 69.7377, 0.980875, 33.9086, 43.0679, -0.000660486, 0.000601936, 0.000777248, -0.000387405, -0.000387405, -0.000387405
4061, 1,0.00289031, 0.00081248, 0.000561883, 183.315, 51.7223, 0.0054441, 347.218, -120.845, 0, 0.00171157, 0.00370243, 0.00255598, 235.031, -80.7035, 0, 0.00171046, 0.00207847, 0.0014332, 131.604, -44.8931, 0, 0.00170946, -6.05859, 14.2019, 233.967, -3.53678, 7.1385, 131.078, -0.00139998, -0.000970653, 0.00368022, -0.000782417, -0.000782417, -0.000782417
4062, 1,0.0015894, -0.000570336, 0.000516854, 70.7521, -29.1098, 0.00334319, 154.609, 4.47696, 0, 0.00182784, 0.00205227, 0.0022174, 90.4732, 8.68952, 0, 0.00182772, 0.00112697, 0.00118515, 51.051, 2.89953, 0, 0.00182789, 3.15562, 79.241, -108.465, 1.52925, 44.1706, -54.3985, 0.000204594, 0.00181297, -0.00215853, 7.90088E-05, 7.90088E-05, 7.90088E-05
4063, 1,0.00172052, 0.000466657, 0.000332114, 107.737, 28.6162, 0.00340024, 203.971, -58.1665, 0, 0.00173653, 0.00218557, 0.00151845, 136.286, -44.4437, 0, 0.00173614, 0.00125671, 0.00085866, 79.2404, -26.8075, 0, 0.00173565, 4.84602, 58.0769, 70.4083, 3.38879, 32.5735, 44.4601, -0.000595525, 0.000527855, 0.00078889, -0.000348477, -0.000348477, -0.000348477
4064, 1,0.00339948, 0.000967428, 0.000660246, 217.172, 60.8346, 0.00658016, 402.165, -122.402, 0, 0.00167816, 0.0043661, 0.00296107, 277.988, -96.3302, 0, 0.00167745, 0.00243351, 0.00164288, 156.371, -55.7093, 0, 0.00167634, -1.07209, 19.7289, 270.334, 1.66366, 13.1839, 152.28, -0.0015411, -0.00110024, 0.00420451, -0.000843207, -0.000843207, -0.000843207
4065, 1,0.00130923, -0.000659246, 0.000498914, 46.3193, -37.4277, 0.00308023, 114.407, 41.7753, 0, 0.00198153, 0.00164662, 0.00224902, 55.9929, 29.1253, 0, 0.00198194, 0.000972781, 0.00125459, 36.6906, 12.2747, 0, 0.00198248, 14.883, 45.0489, -147.308, 9.42217, 29.1532, -75.3996, 0.000775694, 0.00141092, -0.0026592, 0.000394743, 0.000394743, 0.000394743
4066, 1,0.00230428, 0.000610016, 0.000505807, 125.072, 33.6325, 0.00585532, 318.079, -55.383, 0, 0.00166868, 0.00291334, 0.002381, 158.658, -28.2869, 0, 0.00166795, 0.00169592, 0.00137202, 91.5193, -15.376, 0, 0.0016676, -7.00416, 36.6642, 55.2006, -7.11559, 18.7422, 34.5013, -0.000591434, 0.000327205, 0.000723268, -0.000390322, -0.000390322, -0.000390322
4067, 1,0.00458837, 0.00125215, 0.000845094, 284.989, 78.2753, 0.0155811, 452.711, -127.826, 0.158494, 0.00158685, 0.00584017, 0.00400824, 363.25, -117.245, 0, 0.00158626, 0.00333683, 0.00231898, 206.739, -65.9152, 0, 0.00158494, -11.5352, 14.3762, 348.894, -9.38124, 7.90403, 199.223, -0.00209406, -0.00154492, 0.00554153, -0.00123971, -0.00123971, -0.00123971
4068, 1,0.00692058, 0.00165738, 0.00113941, 338.568, 99.1133, 0.0415611, 506.109, -198.573, 0.646325, 0.00145228, 0.00857775, 0.00610297, 437.662, -117.305, 0.0231649, 0.00144777, 0.00526353, 0.0038245, 239.488, -58.6605, 0.0231649, 0.00144638, -36.926, -30.9757, 419.816, -27.5213, -25.3923, 228.895, -0.00318565, -0.00304333, 0.00815742, -0.00204231, -0.00204231, -0.00204231
4069, 1,0.0163827, 0.00270945, 0.00188566, 357.982, 114.407, 0.0681293, 636.117, -231.635, 1, 0.00129111, 0.0190843, 0.0138543, 472.337, -168.707, 0.231758, 0.00128421, 0.013684, 0.0101763, 243.68, -92.8262, 0.207014, 0.00128236, 23.5662, 24.4027, 458.153, 20.1528, 23.0728, 235.253, -0.00758475, -0.0075712, 0.0183003, -0.0057632, -0.0057632, -0.0057632
4070, 1,0.0272181, 0.00425549, 0.00301508, 359.488, 119.419, 0.0750689, 807.342, -266.881, 1, 0.00113932, 0.0314237, 0.0236448, 478.747, -174.789, 0.46748, 0.00113254, 0.0230297, 0.0177229, 240.386, -86.3372, 0.398214, 0.00113024, 34.3539, 22.3972, 467.617, 15.818, 10.7835, 232.41, -0.012645, -0.0139297, 0.0304121, -0.00966617, -0.00966617, -0.00966617
4071, 1,0.00320168, 0.000751828, 0.000653119, 178.437, 39.5494, 0.0139722, 433.356, -101.744, 0.12782, 0.00147408, 0.00395317, 0.00325774, 217.969, -41.8744, 0, 0.00147246, 0.00245041, 0.00195242, 138.915, -31.0746, 0, 0.0014722, -2.67413, 25.0612, 103.236, -0.225618, 21.8006, 71.6487, -0.000714303, -0.000140396, 0.00153423, -0.000492202, -0.000492202, -0.000492202
4072, 1,0.00504179, 0.000974825, 0.000784385, 286.275, 54.4794, 0.0300466, 487.065, -181.241, 0.444275, 0.00123394, 0.00601496, 0.00460407, 340.656, -75.3284, 0, 0.00123063, 0.00406941, 0.00304018, 231.94, -52.7646, 0, 0.00123018, -19.902, 9.71289, 236.174, -16.812, 12.1294, 162.976, -0.00160701, -0.00102221, 0.00385162, -0.00118586, -0.00118586, -0.00118586
4073, 1,0.00960322, 0.00121436, 0.000868802, 385.487, 71.6645, 0.0347101, 443.09, -110.872, 0.528913, 0.00107871, 0.0108092, 0.00785644, 456.971, -149.034, 0.0696119, 0.00107867, 0.00839955, 0.00613983, 314.086, -104.069, 0.0696119, 0.00107785, 10.4435, 18.6979, 417.961, 11.479, 16.7358, 283.991, -0.00364409, -0.00345824, 0.00961854, -0.00285516, -0.00285516, -0.00285516
4074, 1,0.00124874, -0.000903014, 0.000623407, 4.26032, -59.1302, 0.00302107, 23.0178, 160.72, 0, 0.0015698, 0.00156016, 0.00285553, 2.50783, 95.2138, 0, 0.00157147, 0.000957316, 0.00165319, 6.98748, 51.0061, 0, 0.0015726, -8.78998, -14.5565, -262.295, -6.9605, -0.888983, -145.169, 0.00131885, 0.00119084, -0.0040547, 0.000661238, 0.000661238, 0.000661238
4075, 1,0.00155104, -0.00118503, 0.000822061, -15.4289, -80.3115, 0.00373817, -11.0067, 252.19, 0, 0.00108682, 0.00200804, 0.00389435, -18.1393, 151.653, 0, 0.00108859, 0.00109726, 0.00225574, -12.5828, 86.3537, 0, 0.00108975, -22.4811, -50.8301, -381.648, -15.818, -21.0918, -222.151, 0.00192134, 0.00131276, -0.00569495, 0.00103376, 0.00103376, 0.00103376
4076, 1,0.00200957, -0.00140573, 0.000974739, -17.7041, -95.4189, 0.00553237, 13.2833, 278.269, 0.025913, 0.000935626, 0.0025516, 0.00475303, -21.0748, 190.079, 0, 0.000937028, 0.00146881, 0.00280788, -14.2572, 112.241, 0, 0.000938212, -33.2908, -73.8078, -463.137, -21.7404, -40.837, -274.146, 0.00229751, 0.0014415, -0.00682338, 0.00131583, 0.00131583, 0.00131583
4077, 1,0.00820868, -0.00396845, 0.00266328, -39.329, -198.145, 0.0300532, -66.3884, 367.868, 0.845404, 0.000679663, 0.00954338, 0.0165747, -51.6386, 314.345, 0.211979, 0.000683423, 0.00688053, 0.0112779, -26.8891, 162.024, 0.189228, 0.00068537, -70.1519, -104.704, -768.18, -40.1989, -53.4325, -392.439, 0.00875247, 0.00729246, -0.0218303, 0.00612278, 0.00612278, 0.00612278
4078, 1,0.00477354, -0.00279571, 0.00189411, 7.47607, -172.481, 0.0172054, -80.0365, 364.883, 0.471593, 0.000688365, 0.00576593, 0.00998141, 5.58761, 251.961, 0.0593457, 0.000690991, 0.00378122, 0.00619344, 9.36576, 126.7, 0.0576802, 0.000692447, 2.80056, -166.004, -592.678, 7.80433, -84.0965, -303.807, 0.00569644, 0.00101177, -0.0109368, 0.00373767, 0.00373767, 0.00373767
4079, 1,0.00234518, -0.00170618, 0.0012042, 6.32945, -111.779, 0.00549884, 49.8431, 240.493, 0.0209865, 0.000996778, 0.00304339, 0.00524336, 8.18506, 182.12, 7.46206E-07, 0.000997769, 0.00165037, 0.00284138, 4.63091, 98.4402, 7.46206E-07, 0.000999125, 5.41252, -225.508, -326.264, 2.13471, -123.388, -174.067, 0.00298754, -0.00189828, -0.00404456, 0.00160012, 0.00160012, 0.00160012
4080, 1,0.00190929, -0.00101479, 0.000786966, 20.8422, -69.1119, 0.00396616, 58.9303, 172.67, 0, 0.00119948, 0.00246832, 0.00343425, 26.1103, 121.606, 0, 0.00120048, 0.00135036, 0.00186061, 15.5774, 64.7727, 0, 0.00120158, 25.3494, -238.531, -151.637, 15.1399, -127.359, -82.099, 0.00245359, -0.00313116, -0.00129579, 0.00134238, 0.00134238, 0.00134238
4081, 1,0.00142907, -0.00068531, 0.000543453, -1.25123, -52.0252, 0.00151018, 14.2826, 76.7835, 0, 0.00215377, 0.00182978, 0.00248435, -1.94393, 119.002, 0, 0.0021523, 0.00102905, 0.00139963, -0.525378, 66.2508, 0, 0.00215414, -98.3996, -127.22, -131.385, -52.4431, -70.4444, -75.8651, -0.000208275, -0.000817479, -0.000905198, -6.79875E-05, -6.79875E-05, -6.79875E-05
4082, 1,0.00117357, -0.000752227, 0.000539581, 22.4964, -45.1287, 0.00227807, 107.51, 0.208677, 0, 0.0020034, 0.00150047, 0.00245211, 28.3813, 57.1139, 0, 0.00200155, 0.000846719, 0.00137403, 16.6128, 31.4142, 0, 0.00200239, -80.9643, 27.6716, -118.049, -42.4218, 16.1681, -67.9889, -0.000823188, 0.00148503, -0.00158837, -0.000413556, -0.000413556, -0.000413556
4083, 1,0.00174354, -0.000734961, 0.000613653, 62.3082, -40.1884, 0.0028572, 150.304, -20.4994, 0, 0.00194195, 0.00223578, 0.00279973, 80.1317, 34.3138, 0, 0.00194022, 0.00125138, 0.00157361, 44.4888, 19.6968, 0, 0.00194068, -75.3379, 80.0925, -107.696, -40.4382, 44.4611, -63.1133, -0.0010636, 0.00223512, -0.00172798, -0.000556343, -0.000556343, -0.000556343
4084, 1,0.00121045, -0.000375405, 0.000359168, 54.784, -18.4282, 0.00155083, 120.308, -62.9499, 0, 0.0019484, 0.00155238, 0.0016451, 70.2973, 4.20778, 0, 0.00194628, 0.000869311, 0.000929596, 39.3086, 2.47392, 0, 0.00194633, -33.5221, 69.9244, -49.0256, -18.2902, 39.1363, -28.2679, -0.000678488, 0.00154575, -0.00093541, -0.000383642, -0.000383642, -0.000383642
4085, 1,0.00100821, 0.000311466, 0.000242218, 73.5226, 22.2285, 0.00468312, 303.74, -110.619, 0, 0.00191601, 0.00131255, 0.000999059, 95.5521, -45.0213, 0, 0.00191397, 0.000710115, 0.000533017, 51.6619, -24.6475, 0, 0.00191334, 41.2875, 38.6785, 55.0978, 21.184, 19.981, 32.7775, 8.91215E-05, 0.000109221, 0.000531945, -1.40904E-05, -1.40904E-05, -1.40904E-05
4086, 1,0.0034833, 0.00104105, 0.000711744, 224.52, 65.6819, 0.00735274, 459.347, -153.602, 0.00111021, 0.00188489, 0.00451806, 0.00303693, 290.054, -102.629, 5.33516E-07, 0.00188333, 0.00245401, 0.00163888, 159.114, -58.0304, 5.33516E-07, 0.00188196, 121.209, 13.6975, 172.979, 63.9133, 8.58558, 101.592, 0.000837862, -0.00132667, 0.00215348, 0.000330681, 0.000330681, 0.000330681
4087, 1,0.000847231, -0.000419781, 0.000336544, 24.3455, -23.7188, 0.00189793, 122.355, -44.0441, 0, 0.00201492, 0.00109863, 0.00147745, 32.3969, 26.0017, 0, 0.00201263, 0.000597346, 0.000808005, 16.363, 15.6886, 0, 0.00201296, -42.0838, 25.3573, -61.2787, -23.6283, 12.5983, -36.0357, -0.000519482, 0.000945856, -0.000848239, -0.000291661, -0.000291661, -0.000291661
4088, 1,0.0016188, 0.000443726, 0.000312143, 98.5511, 28.0602, 0.00582471, 365.025, -120.398, 0, 0.00191351, 0.00205937, 0.00145485, 126.551, -39.4502, 0, 0.001911, 0.00118054, 0.000851601, 70.5961, -20.2058, 0, 0.0019104, 39.5093, 23.745, 55.0962, 17.8515, 11.2648, 31.501, 0.000130289, -0.000119304, 0.000628875, -2.36879E-05, -2.36879E-05, -2.36879E-05
4089, 1,0.00413814, 0.00121209, 0.000820055, 260.213, 75.8404, 0.0126001, 456.253, -138.047, 0.101908, 0.00184713, 0.00534135, 0.00364708, 335.817, -112.161, 0, 0.0018461, 0.00294207, 0.00203238, 184.799, -61.9129, 0, 0.0018446, 131.279, 8.96222, 196.242, 65.8665, 5.98439, 113.888, 0.000874248, -0.00157721, 0.00252226, 0.000284668, 0.000284668, 0.000284668
4090, 1,0.000779013, -0.000479445, 0.000356956, 13.2117, -30.7886, 0.00270509, 155.046, -36.667, 0, 0.00218854, 0.00101015, 0.00152371, 16.139, 41.6248, 0, 0.00218577, 0.000551032, 0.00081505, 10.4006, 19.9013, 0, 0.00218654, -45.7428, -13.5102, -65.6214, -21.7393, -3.55667, -34.4078, -0.000354796, 0.000369411, -0.000690087, -0.000189493, -0.000189493, -0.000189493
4091, 1,0.00201687, 0.000581948, 0.000452256, 115.691, 33.1463, 0.0116937, 452.91, -134.955, 0.0847396, 0.00184067, 0.00259529, 0.00202092, 148.809, -35.8273, 0, 0.00183751, 0.00144131, 0.00112218, 82.5962, -20.3645, 0, 0.00183705, 47.4861, 1.81212, 58.1836, 26.0732, 1.6718, 33.3485, 0.000317756, -0.000528225, 0.000791449, 0.000109668, 0.000109668, 0.000109668
4092, 1,0.00532267, 0.0015292, 0.00103737, 316.528, 92.8213, 0.0358597, 488.879, -176.067, 0.544325, 0.00174821, 0.00684544, 0.0046839, 409.269, -128.578, 0.00415816, 0.0017447, 0.00380488, 0.00264721, 223.849, -68.2675, 0.00284426, 0.00174298, 157.928, -1.60918, 229.414, 78.1508, -1.12435, 127.776, 0.00111964, -0.00215718, 0.00312799, 0.000371866, 0.000371866, 0.000371866
4093, 1,0.0110642, 0.00209043, 0.00145467, 350.234, 110.471, 0.0670321, 631.996, -257.209, 1, 0.00160208, 0.0131472, 0.00928158, 460.677, -152.072, 0.115749, 0.00159121, 0.00898441, 0.00651916, 239.82, -84.9537, 0.109798, 0.00158935, 199.731, 0.970414, 255.515, 105.493, 10.1619, 139.206, 0.00242405, -0.00517159, 0.00538472, 0.00127468, 0.00127468, 0.00127468
4094, 1,0.0231076, 0.00379145, 0.0026491, 356.584, 118.023, 0.0792559, 908.633, -286.734, 1, 0.0014194, 0.0268391, 0.0197901, 474.416, -168.412, 0.380944, 0.00140941, 0.0193974, 0.0146494, 238.937, -84.3224, 0.324455, 0.00140688, 217.698, 9.19687, 278.342, 104.682, 4.34826, 143.937, 0.00484335, -0.0122926, 0.0109188, 0.00260246, 0.00260246, 0.00260246
4095, 1,0.0330631, 0.00545943, 0.00389785, 359.585, 120.084, 0.0864845, 1119.55, -367.581, 1, 0.00125496, 0.038437, 0.0285984, 479.464, -171.054, 0.593893, 0.00124329, 0.0277209, 0.0209844, 239.905, -83.6371, 0.490773, 0.00124046, 198.403, 7.08389, 307.675, 93.1442, 1.16034, 156.607, 0.00414906, -0.0184005, 0.0184019, 0.00177156, 0.00177156, 0.00177156
4096, 1,0.00339528, 0.000862723, 0.000675037, 204.57, 48.6636, 0.0285397, 526.254, -241.188, 0.414191, 0.00162378, 0.00425387, 0.00323888, 253.213, -69.2282, 0, 0.00161735, 0.00253945, 0.00191393, 155.942, -47.4815, 0, 0.00161678, 101.971, -7.52544, 113.239, 64.9874, 5.32151, 72.1355, 0.000872651, -0.00126521, 0.00151545, 0.000436195, 0.000436195, 0.000436195
4097, 1,0.00804979, 0.00134915, 0.000969494, 307.656, 75.8052, 0.0425665, 470.756, -144.732, 0.666808, 0.00135345, 0.00939334, 0.00680026, 383.431, -116.805, 0.0636895, 0.00135104, 0.00670839, 0.00490515, 231.902, -71.1734, 0.06153, 0.00135001, 165.102, -13.9824, 199.294, 96.1837, -5.4096, 122.746, 0.00198201, -0.00369364, 0.00367633, 0.00113046, 0.00113046, 0.00113046
4098, 1,0.0148176, 0.00186313, 0.00124971, 344.818, 102.218, 0.0479106, 455.06, -116.68, 0.758232, 0.00118201, 0.0166606, 0.012559, 446.971, -155.902, 0.192905, 0.00118148, 0.0129803, 0.0101056, 242.721, -87.7868, 0.192723, 0.00118002, 194.899, -13.351, 286.157, 106.222, -5.18288, 162.321, 0.00272883, -0.00823507, 0.00834068, 0.00170093, 0.00170093, 0.00170093
4099, 1,0.00117568, -0.000688504, 0.000519031, -14.8759, -50.3801, 0.00215936, 98.9145, 4.07071, 0, 0.00174386, 0.00152325, 0.00247657, -16.1351, 117.367, 0, 0.00174066, 0.00083025, 0.00144176, -13.5347, 69.6139, 0, 0.00174201, -125.736, -86.1873, -140.178, -76.5179, -46.0364, -86.2876, -0.000870238, 2.47135E-05, -0.00105913, -0.000581268, -0.000581268, -0.000581268
4100, 1,0.00156566, -0.000863507, 0.000646939, -16.6195, -63.477, 0.00359103, 173.924, -6.53641, 0, 0.00117812, 0.00199477, 0.00328, -18.8382, 151.228, 0, 0.00117511, 0.00113783, 0.00199038, -14.3039, 90.6227, 0, 0.00117627, -145.296, -116.373, -192.014, -87.9713, -61.1838, -122.713, -0.0007885, -7.62284E-05, -0.00158949, -0.000530017, -0.000530017, -0.000530017
4101, 1,0.00184425, -0.00118424, 0.000810087, 8.61204, -79.425, 0.00547804, 265.588, -8.78459, 0, 0.00102264, 0.00225929, 0.00390545, 5.14265, 134.207, 0, 0.00102027, 0.00143786, 0.00231219, 12.4845, 71.5554, 0, 0.00102131, -110.394, -113.176, -179.05, -56.5823, -60.8393, -97.2448, -0.000352655, -0.00025799, -0.00156741, -0.00020012, -0.00020012, -0.00020012
4102, 1,0.0100656, -0.00403737, 0.00269038, -48.2869, -201.029, 0.0268739, -44.3779, 223.024, 0.809135, 0.000740154, 0.0112766, 0.019047, -63.1402, 337.258, 0.264347, 0.000740286, 0.0088587, 0.0138144, -33.3579, 180.445, 0.245536, 0.000742529, -367.22, -150.645, -493.91, -194.174, -83.9751, -263.187, -0.00358709, 0.0070894, -0.00992203, -0.00205285, -0.00205285, -0.00205285
4103, 1,0.00600048, -0.00299947, 0.00202976, -18.6494, -184.317, 0.0187619, -64.1875, 265.529, 0.541602, 0.00074016, 0.00705238, 0.0122092, -23.0289, 291.529, 0.104931, 0.000741013, 0.00495241, 0.00816324, -14.1945, 154.233, 0.104805, 0.000742768, -298.04, -237.479, -339.067, -154.89, -128.864, -178.944, -0.00187846, 0.000122725, -0.00326895, -0.000909376, -0.000909376, -0.000909376
4104, 1,0.00282368, -0.00191701, 0.00135224, 13.4982, -127.05, 0.0047744, 4.56316, 197.747, 0.0529521, 0.00110289, 0.0036094, 0.00609389, 14.163, 210.202, 5.42101E-20, 0.00110277, 0.00203931, 0.00339337, 12.9054, 112.25, 5.42101E-20, 0.00110453, -160.708, -307.966, -161.934, -82.0316, -170.654, -84.0629, -8.66102E-05, -0.00320131, -0.000123171, 3.34302E-05, 3.34302E-05, 3.34302E-05
4105, 1,0.00229443, -0.0012965, 0.00097211, 19.7203, -87.0226, 0.00320243, 45.3006, 142.647, 0, 0.00136438, 0.0029414, 0.00437218, 24.5424, 154.03, 0, 0.00136413, 0.00164802, 0.00242907, 14.9225, 84.839, 0, 0.00136566, -59.3583, -335.33, -67.402, -30.6633, -185.139, -38.715, 0.00117718, -0.00466887, 0.000992008, 0.000693501, 0.000693501, 0.000693501
4106, 1,0.00144063, -0.000664407, 0.00053629, 13.332, -47.6104, 0.00236083, 52.4663, 79.5716, 0, 0.00208688, 0.00184742, 0.00241836, 16.3155, 95.8217, 0, 0.00208633, 0.00103494, 0.00134952, 10.3857, 52.2014, 0, 0.0020878, -60.1591, -99.6993, -127.607, -29.8609, -54.4051, -72.3382, 0.000259127, -0.000600214, -0.00121366, 0.000211406, 0.000211406, 0.000211406
4107, 1,0.00133754, -0.000732714, 0.000553208, 38.5058, -42.0083, 0.00265489, 107.277, 24.4799, 0, 0.00194227, 0.00171108, 0.00250114, 48.7581, 43.1703, 0, 0.00194168, 0.000964139, 0.00139665, 28.2593, 23.2832, 0, 0.0019423, -59.0997, 47.802, -118.213, -30.1297, 27.6979, -67.4177, -0.000549801, 0.00169136, -0.00184172, -0.000251492, -0.000251492, -0.000251492
4108, 1,0.00189011, -0.000726918, 0.000627956, 75.0102, -38.4035, 0.00343442, 155.581, 9.06203, 0, 0.00188246, 0.00241895, 0.00286644, 95.9311, 24.7318, 0, 0.00188198, 0.00136138, 0.0016124, 54.0947, 13.7881, 0, 0.00188232, -60.9908, 95.7228, -108.927, -32.2075, 53.9746, -63.1313, -0.00087749, 0.00241493, -0.0019383, -0.000442069, -0.000442069, -0.000442069
4109, 1,0.0013567, -0.000407337, 0.000397947, 63.3997, -19.4136, 0.00222043, 116.448, -15.3252, 0, 0.00188838, 0.00174388, 0.00178991, 81.5391, 1.34998, 0, 0.00188787, 0.0009706, 0.000997843, 45.3098, 0.913474, 0, 0.00188788, -28.8192, 79.8981, -55.1288, -15.7736, 44.5574, -31.5242, -0.000586079, 0.00171175, -0.00114731, -0.000317272, -0.000317272, -0.000317272
4110, 1,0.000774996, 0.000251067, 0.000208698, 57.7587, 18.2891, 0.00208685, 139.061, -54.2666, 0, 0.00185712, 0.00102099, 0.000870182, 75.848, -36.7728, 0, 0.00185659, 0.000534358, 0.000468655, 39.8821, -19.4475, 0, 0.00185607, 25.0668, 44.1424, 41.1093, 10.7393, 23.2954, 24.3077, -8.24682E-05, 0.000354707, 0.000324393, -0.00011156, -0.00011156, -0.00011156
4111, 1,0.00301347, 0.000875784, 0.000614555, 189.386, 55.0117, 0.00580482, 354.586, -107.584, 0, 0.00182772, 0.00388329, 0.00271631, 244.224, -80.9695, 0, 0.00182693, 0.00214853, 0.00150412, 134.688, -44.1538, 0, 0.00182584, 79.6397, 10.8653, 152.403, 38.4064, 5.15833, 88.8967, 0.000336536, -0.00104544, 0.00202236, 4.67262E-05, 4.67262E-05, 4.67262E-05
4112, 1,0.00105083, -0.000445426, 0.000375275, 39.4007, -24.0996, 0.00181565, 90.6861, -6.43211, 0, 0.00195336, 0.00135445, 0.00165527, 50.7043, 18.0055, 0, 0.00195258, 0.000748417, 0.000907968, 28.1532, 9.82095, 0, 0.00195284, -32.5481, 42.696, -64.1644, -17.4903, 23.6821, -35.6546, -0.000405164, 0.00118681, -0.00107361, -0.000215916, -0.000215916, -0.000215916
4113, 1,0.00121423, 0.000377188, 0.000282333, 79.6429, 23.7607, 0.00263544, 160.671, -48.3498, 0, 0.00185456, 0.00158597, 0.00115121, 103.221, -37.9147, 0, 0.00185425, 0.000847287, 0.00060558, 56.2267, -21.8958, 0, 0.00185377, 27.0908, 37.1852, 49.4682, 13.0824, 21.0853, 31.5198, -6.05656E-05, 0.000189252, 0.000486458, -0.000103513, -0.000103513, -0.000103513
4114, 1,0.00332475, 0.00102943, 0.000712252, 208.825, 64.2256, 0.0064976, 377.211, -93.9501, 0, 0.0017913, 0.00434929, 0.00300468, 272.915, -90.0308, 0, 0.00179118, 0.00230457, 0.00159459, 144.855, -47.9646, 0, 0.00178996, 85.7699, 10.5831, 173.739, 41.0459, 5.89966, 96.9482, 0.000322185, -0.00119437, 0.00233266, 4.1439E-05, 4.1439E-05, 4.1439E-05
4115, 1,0.00099988, -0.000501255, 0.000383784, 25.4038, -30.8557, 0.00177964, 72.8921, 15.0876, 0, 0.0021198, 0.0012641, 0.001731, 30.7218, 38.7917, 0, 0.00211899, 0.000737223, 0.000968213, 20.1575, 19.5316, 0, 0.00211965, -32.2118, -5.70231, -78.4611, -14.5138, -1.08463, -42.9963, -6.67178E-05, 0.000490189, -0.0010528, 3.7126E-06, 3.7126E-06, 3.7126E-06
4116, 1,0.00154927, 0.000440275, 0.000358421, 81.1409, 24.5551, 0.0054612, 294.736, -48.8784, 0, 0.00178307, 0.00198751, 0.00159157, 105.64, -15.422, 0, 0.0017821, 0.00111251, 0.000890336, 56.684, -5.24286, 0, 0.00178181, 11.1478, 2.73255, 32.3858, 0.105483, -1.1079, 16.731, -5.23982E-05, -0.000186359, 0.000488883, -0.000124254, -0.000124254, -0.000124254
4117, 1,0.00441768, 0.00130509, 0.000898799, 261.978, 80.2231, 0.0194569, 437.774, -123.679, 0.239615, 0.00169442, 0.00571209, 0.00415811, 341.844, -95.5732, 0, 0.00169312, 0.00313144, 0.00238858, 182.388, -45.4187, 0, 0.00169174, 82.9941, -4.61857, 208.344, 28.9845, -5.54558, 112.817, 0.000140664, -0.00160349, 0.00301316, -0.000207716, -0.000207716, -0.000207716
4118, 1,0.00769618, 0.00176812, 0.00124986, 330.598, 99.9758, 0.0503894, 525.642, -269.83, 0.823361, 0.00155521, 0.00944662, 0.00669265, 430.336, -124.86, 0.0471131, 0.00154588, 0.00595595, 0.00428514, 231.071, -69.2512, 0.0457528, 0.00154444, 128.977, -26.4924, 272.095, 68.3966, -14.4018, 153.759, 0.000625022, -0.00368363, 0.0051388, 0.000176278, 0.000176278, 0.000176278
4119, 1,0.0186544, 0.00308975, 0.00215942, 356.354, 116.309, 0.0710634, 703.493, -235.185, 1, 0.00137649, 0.0217268, 0.0165648, 472.608, -170.691, 0.286331, 0.00136916, 0.0155888, 0.0122985, 240.158, -89.3646, 0.250081, 0.00136695, 191.171, -10.602, 331.505, 98.9052, -5.52691, 174.715, 0.00223407, -0.0113694, 0.0124312, 0.00126273, 0.00126273, 0.00126273
4120, 1,0.0317236, 0.004983, 0.00361404, 375.364, 121.8, 0.0770352, 856.683, -277.874, 1, 0.00121478, 0.0366277, 0.0279389, 496.994, -203.791, 0.567957, 0.00120828, 0.0268466, 0.0208583, 253.906, -108.284, 0.47892, 0.00120533, 213.396, 32.9677, 365.008, 109.456, 23.8814, 191.513, 0.0024434, -0.0188926, 0.0212899, 0.000710058, 0.000710058, 0.000710058
4121, 1,0.00240379, 0.000613294, 0.000506848, 131.977, 32.5132, 0.0165752, 499.186, -204.377, 0.182852, 0.00157578, 0.00301521, 0.00236717, 164.424, -27.3504, 0, 0.00157067, 0.00179374, 0.00136677, 99.5795, -17.6341, 0, 0.00157042, 37.8461, -24.9968, 69.2019, 21.1414, -11.2702, 43.0309, 0.000293893, -0.000966561, 0.00111628, 9.69568E-05, 9.69568E-05, 9.69568E-05
4122, 1,0.00521574, 0.00104588, 0.00078102, 275.497, 58.1174, 0.0312323, 503.611, -206.89, 0.467495, 0.00131835, 0.00623857, 0.00462233, 332.884, -85.3202, 0.0121116, 0.00131421, 0.00420425, 0.0031245, 218.499, -55.0813, 0.0103966, 0.00131356, 100.194, -42.6968, 198.463, 59.2731, -29.2727, 135.243, 0.000696659, -0.00257426, 0.00327132, 0.000289698, 0.000289698, 0.000289698
4123, 1,0.0133811, 0.00160316, 0.00110305, 356.707, 90.7492, 0.0364227, 433.844, -105.133, 0.564699, 0.0011518, 0.0149587, 0.011044, 447.355, -185.755, 0.169737, 0.00115277, 0.0118104, 0.00896534, 266.144, -122.23, 0.169737, 0.00115146, 196.373, 31.6015, 329.29, 126.183, 34.0328, 206.473, 0.00152744, -0.00710576, 0.00890777, 0.000898223, 0.000898223, 0.000898223
4124, 1,0.00141406, -0.000755004, 0.000573691, 8.99515, -52.8426, 0.00168642, 1.54767, 104.719, 0, 0.0016857, 0.00180437, 0.00262217, 10.2717, 100.267, 0, 0.00168582, 0.00102549, 0.00147935, 7.79973, 54.1452, 0, 0.00168709, -77.4508, -77.8654, -145.486, -40.1046, -41.1112, -81.2197, -5.06614E-05, -6.74117E-05, -0.00150885, 1.22158E-05, 1.22158E-05, 1.22158E-05
4125, 1,0.00178222, -0.00101138, 0.000738573, -15.5902, -72.4837, 0.00232669, -36.9551, 196.814, 0, 0.00114885, 0.00224296, 0.00372558, -18.5077, 166.287, 0, 0.00114942, 0.00132569, 0.00226095, -12.4568, 99.9754, 0, 0.00115065, -122.769, -127.671, -248.42, -71.3297, -74.7006, -153.896, 2.66711E-05, -7.52514E-05, -0.00264966, 7.00354E-05, 7.00354E-05, 7.00354E-05
4126, 1,0.00177889, -0.00118332, 0.000815732, -14.4489, -81.8266, 0.00465396, -24.9752, 261.194, 0.0349742, 0.000994557, 0.00222569, 0.00415463, -19.2162, 166.453, 0, 0.000996171, 0.00133306, 0.00252915, -9.62673, 96.9092, 0, 0.000997296, -120.19, -106.814, -272.354, -67.7517, -61.0962, -161.88, 8.39294E-05, 0.000391409, -0.00317626, 9.73828E-05, 9.73828E-05, 9.73828E-05
4127, 1,0.00999539, -0.00387618, 0.00255349, -58.4369, -209.983, 0.0341794, -62.4509, 337.321, 0.886044, 0.000720798, 0.0111138, 0.0181778, -75.0839, 381.518, 0.225128, 0.000723504, 0.00888702, 0.0132307, -41.5714, 211.379, 0.214503, 0.00072581, -353.553, -152.75, -638.252, -194.701, -88.6607, -350.776, -0.000997646, 0.00781724, -0.0138996, -0.00017478, -0.00017478, -0.00017478
4128, 1,0.0047311, -0.0029615, 0.00197614, -58.1234, -187.186, 0.0219266, -90.1877, 389.352, 0.521626, 0.00072339, 0.00549418, 0.0107573, -74.0558, 334.04, 0.0694072, 0.000725762, 0.0039783, 0.00705163, -41.7591, 191.011, 0.0693939, 0.000727517, -294.378, -269.356, -438.386, -173.421, -159.033, -240.579, -0.000693691, 3.10449E-06, -0.00494809, -0.000424253, -0.000424253, -0.000424253
4129, 1,0.00300989, -0.00190569, 0.00134268, 27.5101, -125.187, 0.00608587, -7.30202, 235.253, 0.0881692, 0.00106785, 0.00378846, 0.00629944, 29.1233, 201.851, 0, 0.00106864, 0.00223218, 0.00361815, 25.923, 107.376, 0, 0.00107028, -103.05, -304.643, -197.86, -46.2017, -170.766, -105.162, 0.001034, -0.00326176, -0.00104768, 0.000746251, 0.000746251, 0.000746251
4130, 1,0.00236681, -0.00123555, 0.000947076, 34.9696, -81.3979, 0.00430015, 109.055, 126.813, 0, 0.00131006, 0.00302462, 0.00427408, 43.0327, 134.858, 0, 0.00130988, 0.0017096, 0.00238149, 26.924, 73.0198, 0, 0.0013112, -21.6585, -308.626, -74.2894, -8.1582, -169.586, -41.3148, 0.00168676, -0.00440572, 0.000530406, 0.000996782, 0.000996782, 0.000996782
4131, 1,0.00123295, -0.000687286, 0.000516431, 17.8554, -45.0321, 0.00243308, 49.4831, 87.9538, 0, 0.00202092, 0.00157639, 0.00234192, 21.4734, 71.2309, 0, 0.00202147, 0.0008912, 0.00131498, 14.283, 37.3662, 0, 0.00202258, -41.2681, -39.7291, -132.696, -18.36, -19.128, -74.6105, 0.000294192, 0.000281365, -0.00173114, 0.000243483, 0.000243483, 0.000243483
4132, 1,0.00179044, -0.000776086, 0.000635469, 67.6624, -41.9155, 0.0036785, 140.709, 44.5419, 0, 0.00188153, 0.00228514, 0.00289743, 85.7477, 29.9248, 0, 0.00188198, 0.00129586, 0.00162994, 49.5818, 15.6966, 0, 0.00188241, -54.109, 85.3976, -121.063, -27.0378, 49.4301, -69.482, -0.00061995, 0.00227823, -0.00214336, -0.00027291, -0.00027291, -0.00027291
4133, 1,0.00225188, -0.000777992, 0.000700865, 97.7935, -39.506, 0.0045958, 187.592, 39.7817, 0, 0.00182305, 0.0028754, 0.00319638, 124.46, 15.3751, 0, 0.00182377, 0.00162852, 0.00179889, 71.1342, 7.84326, 0, 0.001824, -59.1069, 124.389, -111.407, -30.1508, 71.1162, -64.4952, -0.0009473, 0.00287411, -0.00217568, -0.000454758, -0.000454758, -0.000454758
4134, 1,0.00166239, -0.000482766, 0.000478237, 80.7223, 22.7302, 0.00339051, 146.344, 18.6896, 0, 0.00182872, 0.00213454, 0.00214621, 103.386, -3.23279, 0, 0.00182937, 0.00119144, 0.00119515, 58.1117, -2.31409, 0, 0.00182935, -30.5879, 102.325, -62.0383, -15.6742, 57.7817, -35.1652, -0.000654817, 0.00211409, -0.00140636, -0.00032545, -0.00032545, -0.00032545
4135, 1,0.000711944, 0.000243612, 0.000188793, 55.4432, 17.1777, 0.00161403, 96.7486, -27.4469, 0, 0.00179883, 0.000954946, 0.000755497, 72.5897, -36.3219, 0, 0.00179909, 0.000469723, 0.00038328, 38.3307, -21.1201, 0, 0.00179864, 19.893, 60.1587, 28.9142, 10.858, 33.7091, 18.7931, -0.000141541, 0.000700663, 3.04002E-05, -9.25197E-05, -9.25197E-05, -9.25197E-05
4136, 1,0.00243016, 0.00069029, 0.000494114, 154.678, 43.4959, 0.00392492, 238.09, -70.2909, 0, 0.00177002, 0.00311765, 0.00221788, 198.075, -67.2375, 0, 0.00176993, 0.00174492, 0.00123762, 111.361, -37.9349, 0, 0.00176909, 58.9804, 16.6303, 126.102, 30.1927, 9.34766, 74.2644, 0.000159973, -0.000707193, 0.00163809, 1.45564E-05, 1.45564E-05, 1.45564E-05
4137, 1,0.00143751, -0.000526999, 0.000471051, 62.95, -26.7167, 0.00287014, 116.878, 25.3013, 0, 0.0018921, 0.00185154, 0.0020914, 80.6726, 9.40717, 0, 0.00189259, 0.00102436, 0.00115334, 45.266, 4.437, 0, 0.00189274, -30.3853, 75.6889, -73.5251, -15.2228, 43.104, -41.1922, -0.000454099, 0.00174946, -0.00144761, -0.000212296, -0.000212296, -0.000212296
4138, 1,0.00119082, 0.000379124, 0.000282789, 75.7801, 23.2998, 0.0014748, 80.525, -14.4017, 0, 0.00179639, 0.00156943, 0.00113897, 99.0528, -32.6466, 0, 0.00179692, 0.000812663, 0.000577556, 52.5312, -18.1986, 0, 0.0017965, 17.7639, 55.189, 24.9869, 8.50229, 30.8822, 15.2114, -0.000125295, 0.000653083, 2.10572E-06, -9.28667E-05, -9.28667E-05, -9.28667E-05
4139, 1,0.0028847, 0.000839887, 0.000592584, 178.837, 52.2038, 0.00431647, 253.466, -66.1603, 0, 0.00173545, 0.00372198, 0.0026555, 230.944, -72.4438, 0, 0.00173563, 0.00204951, 0.00147863, 126.806, -38.752, 0, 0.00173468, 51.9222, 14.4812, 150.928, 23.0418, 7.42176, 85.7925, -6.26334E-05, -0.000834913, 0.00207292, -0.000140314, -0.000140314, -0.000140314
4140, 1,0.00100161, -0.000592297, 0.000435475, 30.0989, -33.5753, 0.00250037, 87.8223, 40.932, 0, 0.00205234, 0.00127899, 0.00196023, 37.5834, 31.1729, 0, 0.00205267, 0.00072523, 0.00109318, 22.6461, 16.0439, 0, 0.00205317, -29.877, 32.308, -95.9496, -14.4657, 19.7797, -53.4457, -9.49652E-05, 0.00117435, -0.00158488, -8.32722E-06, -8.32722E-06, -8.32722E-06
4141, 1,0.0014637, 0.000458383, 0.000382815, 81.4955, 25.1944, 0.00254487, 121.707, -1.54801, 0, 0.00172651, 0.00191907, 0.00156765, 106.541, -20.1806, 0, 0.00172703, 0.00101091, 0.000806349, 56.5734, -10.7013, 0, 0.00172677, 4.61313, 36.7299, 19.1986, -1.09131, 20.1407, 13.0545, -0.000200013, 0.000457927, 6.97079E-05, -0.000170467, -0.000170467, -0.000170467
4142, 1,0.00367594, 0.00111889, 0.000784077, 224.085, 68.4594, 0.00672305, 339.64, -58.7615, 0.00953651, 0.00164044, 0.00478597, 0.00340537, 292.185, -86.5205, 0, 0.00164117, 0.00257345, 0.00186408, 156.287, -44.5688, 0, 0.00164006, 45.997, 10.0438, 203.521, 13.4705, 4.53016, 115.706, -0.000407045, -0.00115118, 0.00296198, -0.000430802, -0.000430802, -0.000430802
4143, 1,0.00580441, 0.00153885, 0.00108823, 301.728, 90.4192, 0.0243642, 394.783, -149.341, 0.367316, 0.00150008, 0.00732989, 0.00547553, 391.736, -93.1469, 0.0118835, 0.00149779, 0.00428768, 0.00333369, 212.018, -42.1999, 0.0114261, 0.00149655, 24.9886, -16.2653, 270.718, -9.15669, -15.1505, 150.907, -0.00109558, -0.00202586, 0.00464273, -0.00104072, -0.00104072, -0.00104072
4144, 1,0.0141631, 0.00235126, 0.00165011, 359.927, 111.69, 0.0555658, 431.392, -217.09, 0.947983, 0.00133372, 0.0164716, 0.0119472, 471.413, -168.966, 0.183784, 0.00132784, 0.011871, 0.00882329, 248.653, -100.128, 0.172287, 0.00132617, 125.029, 11.1937, 370.676, 75.0756, 19.4656, 205.843, -0.00131016, -0.00713137, 0.0114965, -0.00137408, -0.00137408, -0.00137408
4145, 1,0.0253775, 0.00409049, 0.0029177, 376.661, 120.74, 0.0646693, 519.088, -169.312, 1, 0.00117362, 0.0293855, 0.0225677, 497.18, -208.778, 0.436998, 0.00117159, 0.0213993, 0.0168778, 256.371, -114.917, 0.372545, 0.0011691, 188.661, 37.9994, 399.675, 101.967, 29.6025, 213.182, -0.00056789, -0.0151462, 0.0201943, -0.00120373, -0.00120373, -0.00120373
4146, 1,0.00216848, 0.000538811, 0.00046527, 113.937, 27.7347, 0.00538877, 282.064, -35.6336, 0, 0.001524, 0.0027033, 0.00215324, 141.466, -16.2171, 0, 0.00152352, 0.00163612, 0.00123247, 86.5348, -10.1268, 0, 0.00152337, -3.59236, 5.06101, 47.1827, -9.45934, 5.48141, 34.3582, -0.000301062, -0.000152055, 0.000716398, -0.000327456, -0.000327456, -0.000327456
4147, 1,0.00390115, 0.000773358, 0.000622201, 219.371, 41.6952, 0.0153252, 351.666, -106.499, 0.194071, 0.00127668, 0.00466663, 0.00348432, 260.7, -48.8037, 0, 0.00127522, 0.00313936, 0.00231119, 178.208, -34.9708, 0, 0.00127493, 14.4592, -12.919, 144.871, -0.793178, -1.36777, 107.073, -0.000426296, -0.00105581, 0.00227421, -0.000526735, -0.000526735, -0.000526735
4148, 1,0.00789724, 0.00123456, 0.000911089, 372.532, 74.4325, 0.0213574, 306.995, -96.9307, 0.335468, 0.00111971, 0.00911188, 0.00678931, 446.493, -134.567, 0.0377795, 0.00112004, 0.00668995, 0.00503979, 298.804, -87.0176, 0.0377795, 0.00111915, 107.695, -24.7308, 320.737, 64.0173, -26.7387, 223.774, 4.11796E-05, -0.00360704, 0.00579675, -0.000170025, -0.000170025, -0.000170025
4149, 1,0.00133339, -0.000812338, 0.000587333, 15.9124, -53.0966, 0.00320654, 38.925, 150.618, 0, 0.00162969, 0.0016924, 0.00272104, 18.071, 82.3209, 0, 0.0016315, 0.00097708, 0.0015547, 13.8534, 42.615, 0, 0.00163255, -52.1326, -26.976, -167.854, -23.6536, -9.56511, -94.6263, 0.000259725, 0.00072618, -0.00232135, 0.000234971, 0.000234971, 0.000234971
4150, 1,0.00184933, -0.00107285, 0.00077029, -1.5945, -73.7551, 0.00506457, -32.4782, 315.866, 0.0259423, 0.00112075, 0.00230667, 0.00380917, -3.15243, 149.134, 0, 0.00112387, 0.00140035, 0.00230205, 0.304609, 86.9156, 0, 0.001125, -93.3012, -84.8027, -269.299, -50.111, -48.8346, -161.801, 0.000472481, 0.000558536, -0.0034506, 0.000403779, 0.000403779, 0.000403779
4151, 1,0.00252699, -0.00122951, 0.000880043, 1.53711, -83.7659, 0.0107306, -85.5278, 394.457, 0.214484, 0.000968368, 0.00304029, 0.00494568, -0.0177066, 191.417, 3.12003E-08, 0.00097241, 0.00202373, 0.00322962, 3.50439, 122.073, 3.12003E-08, 0.000973505, -132.674, -93.9494, -347.626, -80.2402, -61.8656, -224.114, 0.000352827, 0.00105423, -0.00451268, 0.000366816, 0.000366816, 0.000366816
4152, 1,0.00883897, -0.00355732, 0.00238312, -29.5104, -198.921, 0.0356011, -80.6742, 400.255, 0.934886, 0.000702576, 0.00987571, 0.016069, -40.7445, 335.558, 0.183845, 0.000707874, 0.00782119, 0.0115441, -17.8632, 180.881, 0.177566, 0.000709865, -273.897, -116.818, -615.958, -146.22, -64.3296, -332.094, 0.000718256, 0.00689206, -0.0136772, 0.00104829, 0.00104829, 0.00104829
4153, 1,0.00472412, -0.00272201, 0.00186301, -6.95206, -167.191, 0.0191096, -70.7115, 364.757, 0.483603, 0.000709539, 0.00562616, 0.00994317, -11.66, 264.604, 0.0615432, 0.000712141, 0.00387362, 0.00641383, -0.667921, 141.392, 0.0603423, 0.000713618, -126.656, -209.529, -457.626, -52.0855, -117.658, -254.431, 0.00252213, 9.66028E-05, -0.00706469, 0.00228529, 0.00228529, 0.00228529
4154, 1,0.00281424, -0.00164733, 0.00119016, 36.6116, -105.955, 0.00617008, 44.8809, 224.575, 0.0531024, 0.00103425, 0.00354091, 0.00551984, 42.7985, 167.261, 0, 0.00103533, 0.00209234, 0.00315827, 30.5846, 91.5761, 0, 0.0010366, -40.8887, -239.61, -221.284, -11.9178, -137.394, -125.416, 0.00182821, -0.00243208, -0.00211015, 0.00124582, 0.00124582, 0.00124582
4155, 1,0.00209129, -0.000938307, 0.000760811, 47.6067, -60.8015, 0.00429397, 138.336, 86.809, 0, 0.00125688, 0.00267325, 0.0034092, 58.6216, 91.2821, 0, 0.00125679, 0.00151039, 0.00189063, 36.6179, 47.0113, 0, 0.00125769, 13.3589, -206.769, -80.4361, 12.7935, -110.069, -43.7581, 0.00175232, -0.00293699, -0.000296691, 0.00104107, 0.00104107, 0.00104107
4156, 1,0.0015696, -0.000782297, 0.000585671, 47.8782, -45.9435, 0.00335533, 82.3578, 102.341, 0, 0.00195641, 0.00195841, 0.00275173, 57.2039, 47.3361, 0, 0.00195815, 0.00118095, 0.00158612, 38.5561, 23.0092, 0, 0.00195893, -67.5012, 55.1374, -129.645, -32.6017, 37.287, -73.7129, -0.0006104, 0.00191226, -0.00206951, -0.000257016, -0.000257016, -0.000257016
4157, 1,0.00270802, -0.000902351, 0.000823191, 119.701, -45.634, 0.00581178, 229.126, 61.1832, 0, 0.00182113, 0.00345202, 0.0037491, 151.777, 15.2679, 0, 0.00182249, 0.00196405, 0.00210659, 87.6272, 6.97537, 0, 0.00182273, -76.6105, 151.286, -120.479, -39.7746, 87.4009, -68.5524, -0.00129093, 0.00344152, -0.00239762, -0.0006439, -0.0006439, -0.0006439
4158, 1,0.00297604, -0.000903438, 0.000863796, 136.218, -43.8754, 0.00675082, 240.429, 63.3175, 0.0171992, 0.00176362, 0.00380007, 0.00396711, 173.871, 7.68485, 0, 0.00176524, 0.00215209, 0.00224365, 98.57, 4.21398, 0, 0.00176533, -81.0627, 173.779, -115.771, -43.7457, 98.5485, -67.4448, -0.00148915, 0.00379805, -0.00243275, -0.000755959, -0.000755959, -0.000755959
4159, 1,0.00228783, 0.000642138, 0.000627108, 114.093, 31.5585, 0.00525541, 216.144, 43.2706, 0, 0.00176899, 0.00292903, 0.00282866, 145.607, -9.68106, 0, 0.00177051, 0.00164736, 0.00158039, 82.6133, -6.4327, 0, 0.00177042, -45.2474, 144.196, -69.9052, -23.3519, 82.1811, -39.5311, -0.001023, 0.0028985, -0.00171772, -0.00050964, -0.00050964, -0.00050964
4160, 1,0.00108321, 0.000338904, 0.000234223, 72.1085, 21.3464, 0.00280891, 135.662, -3.93307, 0, 0.00174006, 0.00142123, 0.000987803, 93.4186, -35.2793, 0, 0.00174094, 0.000746095, 0.000534284, 50.8378, -20.9974, 0, 0.00174054, 12.9849, 81.949, 10.904, 8.12408, 46.3369, 8.53114, -0.000226823, 0.00117815, -0.000378496, -0.000104653, -0.000104653, -0.000104653
4161, 1,0.00205371, 0.000548476, 0.000390181, 133.102, 35.2526, 0.00166356, 109.82, -41.4103, 0, 0.00171196, 0.00260052, 0.00184793, 168.26, -60.1588, 0, 0.00171248, 0.00150812, 0.0010708, 98.0118, -35.1441, 0, 0.00171179, 59.5954, 22.0597, 98.8212, 32.7177, 12.5788, 60.1357, 0.000332029, -0.000480785, 0.00112499, 0.000158486, 0.000158486, 0.000158486
4162, 1,0.00232964, -0.00068023, 0.000663197, 112.32, -32.2917, 0.0050576, 205.115, 45.5433, 0, 0.00183114, 0.00297553, 0.00299628, 142.62, -2.74303, 0, 0.00183258, 0.00168395, 0.00167399, 82.0303, -3.3617, 0, 0.00183259, -45.2567, 134.398, -80.9125, -22.6304, 77.9671, -45.2516, -0.000917347, 0.00280027, -0.00183779, -0.000449538, -0.000449538, -0.000449538
4163, 1,0.0018449, 0.000532517, 0.00042427, 109.253, 30.6863, 0.00331487, 156.43, 0.352363, 0, 0.00173853, 0.00237738, 0.00184232, 139.938, -37.0072, 0, 0.00173958, 0.00131246, 0.000997398, 78.5693, -22.2341, 0, 0.00173917, 16.9622, 89.6129, 4.44638, 10.6057, 51.6268, 4.4697, -0.000161401, 0.00131263, -0.000550328, -6.3253E-05, -6.3253E-05, -6.3253E-05
4164, 1,0.00250483, 0.00070306, 0.000488515, 158.389, 44.0499, 0.00211165, 125.99, -34.4196, 0, 0.00167859, 0.00320713, 0.00223438, 202.38, -66.9625, 0, 0.00167947, 0.00180313, 0.00125898, 114.444, -37.9713, 0, 0.00167868, 60.0949, 24.0343, 116.758, 31.5605, 13.496, 68.8575, 0.000252434, -0.000546418, 0.00138068, 0.000106744, 0.000106744, 0.000106744
4165, 1,0.00224482, -0.000777484, 0.000689664, 100.972, -39.1637, 0.00491427, 189.938, 56.8679, 0, 0.00198641, 0.00284654, 0.00317538, 126.907, 10.1059, 0, 0.00198792, 0.00164319, 0.00180131, 75.0385, 3.35502, 0, 0.00198813, -45.1387, 119.465, -104.644, -21.2159, 70.7858, -59.6349, -0.00070801, 0.00268642, -0.0021418, -0.000309781, -0.000309781, -0.000309781
4166, 1,0.0025908, 0.000726285, 0.000636478, 140.74, 38.771, 0.00431067, 182.334, 28.889, 0, 0.00167012, 0.00331701, 0.00286664, 179.508, -30.4767, 0, 0.00167173, 0.00186464, 0.001595, 101.974, -18.5936, 0, 0.0016714, 11.0544, 92.888, -12.5122, 6.93588, 54.4879, -5.64308, -0.000168663, 0.00148344, -0.000819781, -6.88914E-05, -6.88914E-05, -6.88914E-05
4167, 1,0.00347841, 0.000976144, 0.000672015, 216.357, 60.1083, 0.00361783, 195.379, -31.993, 0, 0.00158682, 0.00445326, 0.00308959, 276.385, -86.758, 0, 0.00158823, 0.00250454, 0.0017498, 156.391, -49.3054, 0, 0.00158727, 70.5586, 32.5457, 157.17, 35.3209, 21.4175, 91.1779, 0.000172204, -0.000678927, 0.00191466, 1.84604E-05, 1.84604E-05, 1.84604E-05
4168, 1,0.00473419, 0.00134194, 0.000931387, 276.91, 81.7234, 0.00506254, 246.361, -15.8635, 0.00251555, 0.00144817, 0.00606952, 0.00432118, 358.243, -93.1036, 0, 0.00144999, 0.00340403, 0.00247785, 195.877, -44.0703, 0, 0.00144883, 60.4114, -1.79026, 220.69, 17.3308, -11.4662, 126.346, -0.000119325, -0.00150741, 0.00313759, -0.000256239, -0.000256239, -0.000256239
4169, 1,0.00981392, 0.00189467, 0.00131638, 340.846, 105.407, 0.0291216, 251.839, -67.0476, 0.50852, 0.00128562, 0.0116457, 0.00838073, 445.489, -128.168, 0.0874945, 0.00128648, 0.00801015, 0.00584479, 236.876, -67.5277, 0.0874945, 0.00128514, 73.8736, -8.82119, 319.452, 26.3343, -6.22096, 182.47, -0.00105821, -0.0040681, 0.00731306, -0.00139423, -0.00139423, -0.00139423
4170, 1,0.018412, 0.0031548, 0.0021893, 357.06, 117.159, 0.0429012, 232.894, -68.2571, 0.784352, 0.00113649, 0.0214805, 0.0158186, 473.823, -169.947, 0.281374, 0.00113793, 0.0153772, 0.0116202, 240.692, -88.0665, 0.245049, 0.0011361, 113.892, 39.7697, 356.179, 50.2819, 26.148, 187.77, -0.00261805, -0.00776136, 0.013651, -0.00306588, -0.00306588, -0.00306588
4171, 1,0.00322036, 0.00086728, 0.000797744, 159.822, 44.0973, 0.00509215, 193.242, 64.1484, 0, 0.00147405, 0.00408733, 0.00376588, 203.871, -14.1299, 0, 0.00147592, 0.00235363, 0.00217198, 115.809, -5.87353, 0, 0.00147573, -1.46983, 65.9883, -22.1287, -5.34654, 36.9478, -13.9807, -0.000147784, 0.00116862, -0.000791092, -0.000100455, -0.000100455, -0.000100455
4172, 1,0.00516622, 0.00100456, 0.000922046, 271.785, 50.1754, 0.0122366, 194.779, 81.8122, 0.173861, 0.00123265, 0.00616001, 0.00541526, 321.337, -44.7912, 0.00238342, 0.00123537, 0.00417754, 0.00358761, 222.524, -37.5355, 0.00238342, 0.00123522, 8.9247, 83.0238, 42.425, 1.65401, 71.0169, 39.9355, -0.000348517, 0.00105091, 2.59154E-05, -0.000395144, -0.000395144, -0.000395144
4173, 1,0.00562258, 0.00111272, 0.000893543, 303.014, 61.9021, 0.00891361, 167.91, 40.2301, 0.119805, 0.00108202, 0.00671478, 0.00531919, 363.677, -56.3406, 0, 0.00108377, 0.00453985, 0.00356398, 242.908, -31.6535, 0, 0.00108334, 9.75364, 9.42879, 149.839, -15.3219, -2.30581, 112.588, -0.000473609, -0.000724214, 0.00211269, -0.000614987, -0.000614987, -0.000614987
4174, 1,0.00244515, -0.00105136, 0.000798603, 79.1383, -61.3184, 0.00510861, 128.552, 135.394, 0.00809094, 0.00157562, 0.00298845, 0.00397738, 93.1004, 63.5737, 0, 0.00157747, 0.00190339, 0.00239261, 65.2198, 31.9691, 0, 0.00157828, -78.0768, 81.8019, -194.446, -38.0853, 56.7519, -114.574, -0.000533387, 0.00273133, -0.00322887, -0.000187976, -0.000187976, -0.000187976
4175, 1,0.00239212, -0.00136446, 0.000948818, 24.0953, -83.7507, 0.0121688, -26.5709, 295.282, 0.291634, 0.00109071, 0.0029129, 0.00501468, 29.2468, 142.048, 0, 0.00109445, 0.0018749, 0.00315788, 19.0986, 89.5673, 0, 0.00109538, -119.681, 10.8704, -317.333, -67.3308, 6.2013, -207.573, -6.56647E-05, 0.00246365, -0.00470226, 0.000209473, 0.000209473, 0.000209473
4176, 1,0.00249157, -0.00156688, 0.00106305, 15.2643, -95.708, 0.0185637, -40.9269, 316.643, 0.514287, 0.000938789, 0.00300724, 0.00572986, 13.7847, 164.408, 0.00519278, 0.000943052, 0.00201237, 0.00370538, 17.3454, 96.6342, 0.00260914, 0.000944095, -121.919, -4.35503, -366.949, -55.9037, 6.45201, -240.451, 0.000373376, 0.00261135, -0.0056594, 0.000688854, 0.000688854, 0.000688854
4177, 1,0.00731185, -0.00331501, 0.00226081, -28.0001, -182.908, 0.0338072, -64.0214, 373.173, 1, 0.000681952, 0.00838925, 0.01476, -34.2894, 285.427, 0.174081, 0.000687823, 0.00628624, 0.0104492, -20.6597, 152.989, 0.168298, 0.000689469, -229.169, -71.9275, -555.183, -114.996, -39.3578, -304.615, 0.000969135, 0.00687252, -0.0129706, 0.00156325, 0.00156325, 0.00156325
4178, 1,0.00435315, -0.00231481, 0.00159905, 42.9807, -140.401, 0.0198462, -45.6781, 321.307, 0.561059, 0.0006925, 0.00522215, 0.00851222, 46.2893, 192.565, 0.0406079, 0.00069555, 0.00349062, 0.00534926, 39.8061, 95.4719, 0.0387184, 0.000696673, -112.419, -91.5229, -373.754, -44.1072, -42.8838, -199.425, 0.00127207, 0.00159499, -0.0060635, 0.00121541, 0.00121541, 0.00121541
4179, 1,0.0019468, -0.00130242, 0.000936789, 24.0284, -80.9036, 0.00469892, 97.9694, 166.169, 0, 0.00100129, 0.00250092, 0.00401807, 30.8264, 116.272, 0, 0.0010021, 0.00140515, 0.00218744, 17.7011, 64.005, 0, 0.00100295, -56.4087, -90.0015, -202.406, -27.6137, -46.8201, -117.581, 0.000722742, -7.17901E-05, -0.0025374, 0.000505467, 0.000505467, 0.000505467
4180, 1,0.00125806, -0.000626913, 0.000495539, 33.7811, -39.6158, 0.00276701, 75.7891, 73.6313, 0, 0.00120449, 0.00161562, 0.00217714, 40.6626, 47.6281, 0, 0.001205, 0.000906716, 0.00120626, 27.1387, 20.6692, 0, 0.00120552, -7.52632, -59.9974, -75.3607, 1.61195, -21.9134, -41.706, 0.000635177, -0.000519244, -0.000888748, 0.000402263, 0.000402263, 0.000402263
4181, 1,0.00148323, -0.000983158, 0.000765748, -7.33941, -69.2397, 0.00167268, 10.9364, 91.6193, 0, 0.00206452, 0.00202749, 0.00301472, -4.37834, 134.628, 0, 0.00206307, 0.000943127, 0.00149594, -10.0766, 73.4913, 0, 0.00206512, -8.23466, -116.584, -279.065, -11.1377, -62.1034, -147.233, 0.00194204, -0.000343202, -0.00378345, 0.0009181, 0.0009181, 0.0009181
4182, 1,0.00141042, -0.00116443, 0.00081223, 17.8289, -69.5146, 0.00279322, 113.39, 25.0585, 0, 0.00195191, 0.00180266, 0.00318545, 21.9381, 85.083, 0, 0.00195001, 0.00101957, 0.00163033, 13.7903, 46.2649, 0, 0.00195124, 3.21773, 19.8241, -278.291, -10.8674, 11.8706, -139.798, 0.00140565, 0.00176195, -0.0045482, 0.000497448, 0.000497448, 0.000497448
4183, 1,0.00196827, -0.00123118, 0.000903638, 57.1602, -71.8358, 0.00315371, 146.518, 3.411, 0, 0.00191591, 0.0025443, 0.00361509, 70.7802, 66.4694, 0, 0.00191395, 0.00139228, 0.00180814, 43.5431, 29.9191, 0, 0.00191508, 3.3134, 67.3952, -270.117, -4.00411, 41.0521, -126.805, 0.00111507, 0.00247479, -0.00466841, 0.000386268, 0.000386268, 0.000386268
4184, 1,0.00147064, -0.000908218, 0.000688048, 51.7082, -52.5194, 0.00182554, 113.03, -35.7619, 0, 0.00192238, 0.00193778, 0.00253669, 64.2249, 36.8915, 0, 0.00192012, 0.00100414, 0.00116298, 39.2292, 11.2376, 0, 0.00192091, 4.91895, 59.4599, -175.053, 1.00267, 35.465, -70.1805, 0.000681164, 0.00184385, -0.00312363, 0.000196131, 0.000196131, 0.000196131
4185, 1,0.000515661, -0.000272662, 0.000245299, 38.2534, -14.4931, 0.00327499, 219.531, -86.532, 0, 0.00190018, 0.000695496, 0.000460634, 45.0969, -15.7994, 0, 0.001898, 0.00048111, 0.000368365, 38.1448, -19.979, 0, 0.00189813, 6.85969, 36.314, 4.22448, 5.44242, 21.5613, 32.9333, -0.000107432, 0.000525282, -0.000161515, -0.000201072, -0.000201072, -0.000201072
4186, 1,0.00252312, 0.000494354, 0.000348702, 164.708, 31.2978, 0.00614455, 390.841, -134.443, 0, 0.00187876, 0.00301237, 0.00203912, 195.827, -71.0259, 0, 0.00187683, 0.00203649, 0.00135679, 133.679, -49.5699, 0, 0.00187618, 6.91684, 12.5152, 193.646, 7.22439, 8.49998, 132.985, -0.000972648, -0.000850656, 0.00297572, -0.000625682, -0.000625682, -0.000625682
4187, 1,0.00118875, -0.000894709, 0.000628575, 29.6122, -52.9973, 0.00250796, 135.97, -23.0936, 0, 0.0019485, 0.00154387, 0.00234764, 35.6913, 50.5045, 0, 0.00194617, 0.000840255, 0.00111157, 23.8626, 21.8323, 0, 0.00194708, 4.09422, 28.2292, -183.837, -3.01927, 15.8022, -78.28, 0.000876617, 0.00139823, -0.00309437, 0.000276115, 0.000276115, 0.000276115
4188, 1,0.00107986, -0.000303865, 0.000281862, 58.6999, -15.8443, 0.00509347, 309.434, -92.1685, 0, 0.00187667, 0.00126957, 0.00103137, 66.2733, -7.83301, 0, 0.0018741, 0.000944668, 0.000694897, 53.671, -11.7123, 0, 0.00187422, -6.0281, 25.8222, 3.70497, -8.08346, 13.5066, 29.7137, -0.000255504, 0.00042877, -4.62153E-05, -0.000357922, -0.000357922, -0.000357922
4189, 1,0.00330044, 0.000677066, 0.000465917, 209.658, 42.3417, 0.0139313, 398.69, -107.828, 0.144239, 0.00183249, 0.00396843, 0.00276067, 251.633, -85.2476, 0, 0.00183154, 0.00263717, 0.00184933, 167.873, -57.3301, 0, 0.00183071, -3.33332, 13.6684, 245.408, -3.5207, 10.0192, 165.492, -0.00141161, -0.00105022, 0.00384498, -0.000973363, -0.000973363, -0.000973363
4190, 1,0.000960863, -0.000940032, 0.000664819, 7.42174, -58.6503, 0.0031738, 152.295, -2.94197, 0, 0.00204725, 0.00130706, 0.00241299, 9.36589, 71.3135, 0, 0.00204478, 0.000686986, 0.0011816, 8.50473, 33.2032, 0, 0.00204604, 7.6192, -2.90816, -218.651, 0.145329, 2.82295, -102.578, 0.00127616, 0.00106808, -0.00350145, 0.00051907, 0.00051907, 0.00051907
4191, 1,0.00142177, -0.000404026, 0.000356752, 75.3769, -21.9846, 0.0128737, 414.479, -135.596, 0.125451, 0.00180156, 0.00168877, 0.00159306, 85.1724, -6.60121, 0, 0.00179749, 0.00118475, 0.000997836, 66.9633, -14.2886, 0, 0.00179772, 6.62291, 16.3574, -3.17664, 5.71533, 10.637, 26.5136, 3.38087E-05, 0.000244079, -0.000170828, -0.000104514, -0.000104514, -0.000104514
4192, 1,0.00454732, 0.00100187, 0.000677918, 280.347, 61.8923, 0.040683, 454.877, -190.316, 0.658328, 0.00174246, 0.00554079, 0.00378757, 341.884, -106.633, 1.69407E-21, 0.00173698, 0.00355844, 0.00245971, 219.004, -67.4855, 1.69407E-21, 0.00173588, -13.5975, 5.08188, 328.416, -13.5079, 4.20045, 211.764, -0.00196048, -0.00157736, 0.00526801, -0.00133993, -0.00133993, -0.00133993
4193, 1,0.00908041, 0.00148432, 0.00100431, 335.585, 86.1701, 0.0687032, 653.721, -239.205, 1, 0.00158877, 0.0105193, 0.00738846, 421.208, -137.807, 0.0764293, 0.00157856, 0.00765753, 0.00551141, 250.335, -82.4062, 0.0764293, 0.00157708, -5.77347, 6.94001, 412.255, -5.85778, 7.02705, 246.049, -0.00412941, -0.00376613, 0.0102313, -0.00327954, -0.00327954, -0.00327954
4194, 1,0.0175092, 0.00211565, 0.00144714, 355.691, 108.42, 0.0792593, 912.343, -289.944, 1, 0.00141095, 0.0195154, 0.014313, 463.75, -158.752, 0.241422, 0.00140017, 0.0155307, 0.0116311, 247.964, -87.823, 0.241422, 0.00139831, 14.2689, 6.05306, 455.935, 10.6572, 9.36879, 243.443, -0.00776472, -0.00833837, 0.0190802, -0.00663785, -0.00663785, -0.00663785
4195, 1,0.0229957, 0.00326326, 0.00227702, 363.706, 117.756, 0.0851101, 1088.13, -361.969, 1, 0.001294, 0.026092, 0.0194139, 480.999, -182.439, 0.368686, 0.00128168, 0.0199504, 0.0151778, 246.877, -96.869, 0.336408, 0.00127939, 52.4796, 24.4827, 470.354, 31.5201, 19.1786, 239.908, -0.00959958, -0.0119673, 0.0252938, -0.00777736, -0.00777736, -0.00777736
4196, 1,0.00243742, -0.000421435, 0.000368179, 147.91, -23.0334, 0.0297109, 465.71, -213.093, 0.458146, 0.00158821, 0.00270596, 0.0023453, 157.639, -38.6888, 0, 0.00158184, 0.00218681, 0.00172192, 138.984, -46.9404, 0, 0.00158205, 25.0511, 23.7917, 67.2237, 24.1661, 29.8862, 86.769, -6.29157E-05, -0.000122938, 0.00081363, -0.00020828, -0.00020828, -0.00020828
4197, 1,0.00378168, -0.000310801, 0.000280155, 222.158, -16.9993, 0.0415326, 404.563, -109.007, 0.675335, 0.00134021, 0.00398364, 0.00297472, 229.587, -54.6425, 0, 0.0013376, 0.00358433, 0.00254956, 214.925, -60.685, 0, 0.00133773, -19.7783, 2.4321, 181.274, -20.5963, 24.1047, 178.547, -0.00126224, -0.000861367, 0.00301026, -0.00136793, -0.00136793, -0.00136793
4198, 1,0.00543766, 0.00045181, 0.000407907, 272.741, 19.54, 0.04359, 408.596, -106.107, 0.709035, 0.00121213, 0.0056592, 0.0042758, 284.444, -87.2242, 0.0207471, 0.00121041, 0.00525046, 0.00385962, 262.351, -83.3997, 0.0207471, 0.00121034, 9.21422, -27.0081, 279.467, 5.71942, -9.13532, 253.615, -0.00157104, -0.00256833, 0.00557125, -0.00161386, -0.00161386, -0.00161386
4199, 1,0.00144821, -0.00122673, 0.000863571, -9.64736, -82.4987, 0.00319799, 145.815, 7.11356, 0, 0.0016669, 0.0019464, 0.00359815, -10.5978, 137.915, 0, 0.00166337, 0.000953139, 0.0018922, -8.39371, 72.169, 0, 0.00166514, -11.512, -55.6551, -346.579, -8.48174, -21.0454, -186.98, 0.0019212, 0.001002, -0.00516117, 0.000951419, 0.000951419, 0.000951419
4200, 1,0.00243508, -0.00157898, 0.00113452, 1.807, -108.202, 0.00180009, 92.1755, -9.04129, 0, 0.00117284, 0.00311864, 0.00528349, 0.640554, 196.613, 0, 0.00116894, 0.00175656, 0.00303195, 3.25729, 106.635, 0, 0.00117064, -5.44465, -108.694, -475.701, 0.6519, -49.5236, -271.032, 0.00297551, 0.000807879, -0.00697386, 0.0016901, 0.0016901, 0.0016901
4201, 1,0.00369688, -0.00229075, 0.00158429, 19.0058, -150.062, 0.00203388, 12.8299, 110.797, 0, 0.00103443, 0.00455947, 0.00801899, 17.8703, 260.823, 0.00212054, 0.00103191, 0.00284651, 0.00489944, 20.8512, 148.47, 0.00212054, 0.00103379, -4.47734, -152.147, -625.845, 6.93847, -93.7707, -358.577, 0.00406325, 0.000939759, -0.00924042, 0.00253752, 0.00253752, 0.00253752
4202, 1,0.0104908, -0.00504877, 0.00343719, -52.9972, -207.377, 0.0270195, -71.8634, 345.565, 0.763464, 0.000798667, 0.0122086, 0.0207547, -69.2624, 339.843, 0.306394, 0.000801161, 0.00879092, 0.0140623, -36.4201, 176.663, 0.257079, 0.000803812, -98.7817, -154.212, -766.537, -54.7071, -80.2535, -395.028, 0.010596, 0.00777216, -0.0250201, 0.00746001, 0.00746001, 0.00746001
4203, 1,0.00598113, -0.00350432, 0.00241125, -32.4667, -191.794, 0.0150641, -75.7278, 359.487, 0.368272, 0.000928965, 0.00722975, 0.0126359, -37.7208, 312.014, 0.110828, 0.000930774, 0.00477203, 0.00794571, -26.0995, 169.847, 0.0969241, 0.000933088, -51.292, -261.95, -622.802, -36.8109, -150.412, -322.317, 0.00676712, -0.000111656, -0.0120524, 0.00433126, 0.00433126, 0.00433126
4204, 1,0.00298462, -0.00209814, 0.00148833, 26.7119, -137.419, 0.00414187, 47.5978, 198.896, 0, 0.00132775, 0.00385776, 0.00639262, 29.7324, 205.158, 0, 0.00132762, 0.00211587, 0.00343211, 23.913, 102.405, 0, 0.00132984, 23.8583, -276.404, -362.927, 22.4424, -147.198, -182.459, 0.00373137, -0.00261043, -0.00445011, 0.002083, 0.002083, 0.002083
4205, 1,0.0023434, -0.00132329, 0.0010075, 20.9705, -89.9002, 0.00334864, 42.4692, 155.533, 0, 0.00153682, 0.00303407, 0.00436445, 26.2594, 157.409, 0, 0.00153677, 0.00165363, 0.00235236, 15.7285, 83.9088, 0, 0.0015386, 16.4019, -305.811, -182.818, 11.1578, -165.607, -97.2773, 0.00282434, -0.00398978, -0.00138896, 0.00155577, 0.00155577, 0.00155577
4206, 1,0.00128652, -0.000753844, 0.000599463, 5.23375, -51.6871, 0.00232105, 38.9726, 94.86, 0, 0.00200125, 0.00173052, 0.00244867, 10.1444, 96.0209, 0, 0.00200122, 0.000843637, 0.00125241, 0.377386, 52.8552, 0, 0.00200262, 5.75267, -80.6232, -213.192, -1.06537, -43.4581, -114.042, 0.00163791, -0.000192311, -0.00300373, 0.000813236, 0.000813236, 0.000813236
4207, 1,0.00142852, -0.000875111, 0.000626953, 37.627, -50.5679, 0.00262616, 95.6447, 38.2925, 0, 0.00189074, 0.00180707, 0.00271262, 46.3107, 52.5783, 0, 0.0018903, 0.00105016, 0.00145969, 28.9526, 27.8431, 0, 0.00189106, 8.30515, 42.5476, -208.588, -1.37184, 25.7743, -107.932, 0.00100731, 0.00173035, -0.00359078, 0.000412966, 0.000412966, 0.000412966
4208, 1,0.00194615, -0.000904001, 0.000724152, 71.9536, -49.4997, 0.00331409, 143.376, 17.821, 0, 0.0018559, 0.00249038, 0.00310875, 90.9126, 36.0099, 0, 0.00185535, 0.00140198, 0.0016638, 52.9975, 17.8438, 0, 0.0018559, 8.1145, 85.7829, -201.927, -0.085809, 49.5423, -102.988, 0.000742694, 0.00238408, -0.00371104, 0.000283618, 0.000283618, 0.000283618
4209, 1,0.00143604, -0.00059076, 0.000508435, 62.02, -30.9089, 0.00215289, 108.838, -9.34816, 0, 0.00186223, 0.00186162, 0.00207563, 79.1577, 12.0709, 0, 0.00186158, 0.00101096, 0.00106545, 44.9076, 4.08429, 0, 0.00186182, 10.2278, 69.9347, -116.375, 3.40396, 38.9081, -54.5649, 0.000408371, 0.00167434, -0.00227854, 0.000138883, 0.000138883, 0.000138883
4210, 1,0.00065633, 0.000193587, 0.000161096, 48.954, 12.7875, 0.00153443, 108.618, -47.9933, 0, 0.00184086, 0.000827189, 0.000689399, 60.675, -28.1331, 0, 0.00184027, 0.000511642, 0.000430293, 38.4091, -18.3515, 0, 0.00183998, 7.32583, 37.5707, 39.5027, 3.43819, 19.9853, 31.631, -0.000286366, 0.000357188, 0.000385686, -0.00021359, -0.00021359, -0.00021359
4211, 1,0.00266827, 0.000726712, 0.000521056, 168.626, 45.5454, 0.00506691, 312.677, -97.9589, 0, 0.00182074, 0.00338828, 0.00238411, 213.883, -71.4495, 0, 0.00181996, 0.00195333, 0.00135947, 123.585, -41.3088, 0, 0.00181907, -3.0903, 7.64666, 209.792, -2.44714, 3.7928, 122.581, -0.00118697, -0.000960704, 0.00330702, -0.000697305, -0.000697305, -0.000697305
4212, 1,0.00117939, -0.000598877, 0.000466414, 41.8195, -33.4337, 0.00196377, 89.7875, 4.38287, 0, 0.00188751, 0.00151103, 0.00192457, 52.3614, 26.0007, 0, 0.00188684, 0.000849754, 0.000999904, 31.3768, 12.2369, 0, 0.00188727, 9.83106, 38.5067, -126.34, 2.74445, 20.7107, -60.1658, 0.000618474, 0.00122874, -0.00226908, 0.000252082, 0.000252082, 0.000252082
4213, 1,0.0010975, 0.000291146, 0.000206046, 69.9871, 17.2553, 0.00264063, 154.505, -39.4156, 0, 0.0018178, 0.00137723, 0.000974631, 86.7107, -28.1072, 0, 0.00181747, 0.000827137, 0.000602132, 53.6918, -18.6939, 0, 0.00181719, 12.1584, 30.6509, 41.5123, 6.91693, 15.7666, 33.3981, -0.000183372, 0.000211123, 0.000428332, -0.000145003, -0.000145003, -0.000145003
4214, 1,0.00304879, 0.000873471, 0.000614971, 191.956, 54.2131, 0.00629661, 359.763, -82.7765, 0, 0.00177618, 0.00391611, 0.00273322, 245.914, -80.4788, 0, 0.00177612, 0.00218647, 0.00151937, 138.204, -45.6654, 0, 0.00177511, -0.629929, 6.70222, 235.364, -1.16874, 3.58307, 134.582, -0.00127443, -0.00112258, 0.00370283, -0.000735538, -0.000735538, -0.000735538
4215, 1,0.000953897, -0.000638979, 0.000462896, 22.7611, -38.7551, 0.00163542, 54.4629, 30.9742, 0, 0.00198181, 0.00122696, 0.00186478, 27.0782, 41.9259, 0, 0.00198146, 0.00068937, 0.000962241, 18.8498, 18.9384, 0, 0.0019822, 21.026, 1.01547, -147.819, 12.0196, 2.29018, -71.1249, 0.00110613, 0.000685446, -0.00247188, 0.000553391, 0.000553391, 0.000553391
4216, 1,0.00136311, 0.000350358, 0.000295171, 71.3753, 18.0332, 0.00591954, 315.732, -47.8507, 0, 0.00174305, 0.00169351, 0.00136207, 88.4756, -10.4107, 0, 0.00174199, 0.00104771, 0.000842015, 54.9717, -6.42977, 0, 0.00174188, -8.38434, 2.0698, 37.5465, -10.952, -2.98253, 33.2238, -0.000334325, -0.000116643, 0.000619884, -0.000325021, -0.000325021, -0.000325021
4217, 1,0.00429095, 0.00116882, 0.000818119, 256.042, 71.2983, 0.0230752, 421.714, -130.89, 0.320713, 0.00168541, 0.00543827, 0.00394171, 326.347, -90.926, 0, 0.00168354, 0.00315915, 0.00235474, 186.445, -47.7741, 0, 0.00168236, -32.8502, -9.23379, 314.862, -31.3898, -9.20433, 183.916, -0.00210263, -0.00162422, 0.00520216, -0.00139031, -0.00139031, -0.00139031
4218, 1,0.0077902, 0.00161993, 0.00112991, 323.75, 93.29, 0.0563436, 509.722, -263.906, 0.930174, 0.00153969, 0.0093663, 0.00657286, 416.258, -124.666, 0.0516115, 0.00152922, 0.00623575, 0.00450954, 231.866, -68.8198, 0.0511731, 0.00152779, -12.2132, -20.0771, 406.287, -8.53005, -14.956, 229.945, -0.00334163, -0.00365388, 0.00907835, -0.00235455, -0.00235455, -0.00235455
4219, 1,0.0178037, 0.00245986, 0.00169511, 358.795, 113.342, 0.0729397, 748.614, -242.531, 1, 0.00136331, 0.0201855, 0.0153193, 471.863, -172.516, 0.257275, 0.00135565, 0.0154474, 0.012141, 246.018, -96.8371, 0.246872, 0.00135369, 59.4226, -4.36553, 462.491, 42.4688, 4.43629, 243.606, -0.00608298, -0.0102718, 0.0196234, -0.00474869, -0.00474869, -0.00474869
4220, 1,0.0274254, 0.004004, 0.00283515, 372.995, 121.119, 0.0781489, 893.735, -293.609, 1, 0.00124728, 0.0312393, 0.0238228, 493.673, -202.649, 0.469935, 0.00123941, 0.0236717, 0.0185288, 252.765, -107.532, 0.416223, 0.00123671, 99.2089, 32.7487, 475.989, 55.5547, 22.7181, 244.323, -0.00908347, -0.0159785, 0.0295191, -0.00742534, -0.00742534, -0.00742534
4221, 1,0.00221951, 0.000425307, 0.000366607, 120.187, 20.9599, 0.0186358, 471.111, -203.591, 0.236512, 0.00153809, 0.00262041, 0.00202951, 139.995, -19.8612, 0, 0.00153274, 0.00182994, 0.00134061, 100.907, -17.5666, 0, 0.00153269, -19.2539, -20.5223, 99.3599, -18.0977, -10.3672, 81.1646, -0.000693417, -0.000752464, 0.00176816, -0.000631827, -0.000631827, -0.000631827
4222, 1,0.00437405, 0.000638105, 0.000491894, 268.941, 34.474, 0.0329792, 447.199, -167.147, 0.518643, 0.00130255, 0.00497388, 0.00354557, 301.712, -86.9604, 0, 0.00129942, 0.00378712, 0.00261544, 236.736, -75.3621, 0, 0.00129918, -0.136998, -19.0664, 280.085, 2.16303, -1.73992, 225.663, -0.00133244, -0.00180132, 0.00454489, -0.00109817, -0.00109817, -0.00109817
4223, 1,0.00857459, 0.000947544, 0.000649271, 330.075, 53.7455, 0.0340038, 394.479, -89.4782, 0.540179, 0.00117802, 0.00945397, 0.00698228, 382.784, -133.833, 0.0710604, 0.00117824, 0.00771222, 0.00580964, 277.801, -98.7155, 0.0710604, 0.00117754, 39.276, -8.89759, 371.121, 29.6475, -5.485, 271.984, -0.00253598, -0.00428808, 0.00908544, -0.0021822, -0.0021822, -0.0021822
4224, 1,0.0013056, -0.000842694, 0.000616256, 7.91062, -56.9311, 0.00130091, -7.51617, 92.7366, 0, 0.00160975, 0.00168793, 0.00268203, 8.84539, 95.1062, 0, 0.00160969, 0.000930266, 0.00146438, 7.32957, 49.1469, 0, 0.00161089, 5.79746, -52.7369, -238.379, 5.62276, -24.4991, -128.564, 0.00162505, 0.000385118, -0.00355343, 0.000897094, 0.000897094, 0.000897094
4225, 1,0.00184164, -0.00106908, 0.000768232, -10.7436, -75.3162, 0.00223203, -22.1317, 170.845, 0, 0.00114074, 0.00230509, 0.00389802, -13.6042, 163.857, 0, 0.00114087, 0.00138149, 0.00237003, -7.73653, 97.2717, 0, 0.0011421, -25.8498, -109.362, -356.359, -15.1605, -62.2024, -214.452, 0.0020431, 0.000273775, -0.00497575, 0.00122032, 0.00122032, 0.00122032
4226, 1,0.00254938, -0.0015164, 0.00103179, -6.71359, -101.913, 0.00522174, 0.733273, 272.345, 0.0291181, 0.00100573, 0.00305378, 0.00568757, -13.1053, 210.033, 0, 0.00100682, 0.00206685, 0.00369132, 0.753557, 128.877, 0, 0.00100815, -33.5119, -103.182, -493.406, -15.4234, -61.8592, -309.347, 0.00261788, 0.00115099, -0.00717705, 0.00172258, 0.00172258, 0.00172258
4227, 1,0.00962121, -0.00388257, 0.00254146, -67.6145, -209.949, 0.0348892, -84.3144, 415.02, 0.858383, 0.00077777, 0.0107808, 0.0178704, -84.008, 390.108, 0.216961, 0.000782236, 0.00846824, 0.0128782, -51.0769, 220.298, 0.205277, 0.000784715, -195.132, -170.533, -804.661, -122.989, -103.806, -434.099, 0.00600237, 0.00714382, -0.0203486, 0.00430268, 0.00430268, 0.00430268
4228, 1,0.00424042, -0.00283786, 0.00189248, -48.1026, -179.922, 0.0190921, -111.852, 434.226, 0.449236, 0.000905862, 0.0051685, 0.0101566, -56.9654, 311.443, 0.0571036, 0.000909661, 0.00335529, 0.00643686, -37.987, 175.575, 0.0571036, 0.000911734, -80.4314, -245.142, -608.757, -49.6191, -146.409, -330.697, 0.00454769, 9.68081E-05, -0.00986428, 0.00300215, 0.00300215, 0.00300215
4229, 1,0.00302146, -0.00178607, 0.00126867, 32.6426, -117.605, 0.00623172, 29.3225, 247.196, 0.0535075, 0.0012857, 0.00376827, 0.00602003, 34.7285, 192.377, 2.71051E-20, 0.001287, 0.00227785, 0.00349465, 30.6977, 103.153, 2.71051E-20, 0.00128887, 17.7902, -267.36, -327.562, 22.5162, -153.272, -178.702, 0.00341584, -0.00262653, -0.00391107, 0.0021091, 0.0021091, 0.0021091
4230, 1,0.00223728, -0.00112866, 0.000884175, 32.4751, -74.5427, 0.00445126, 98.7255, 149.844, 0, 0.00147861, 0.00287599, 0.00395898, 41.4517, 126.733, 0, 0.00147916, 0.00159937, 0.00219285, 23.5315, 69.7553, 0, 0.00148053, 27.6223, -264.404, -143.416, 16.6254, -147.149, -78.7418, 0.00258681, -0.0036003, -0.00104313, 0.001456, 0.001456, 0.001456
4231, 1,0.00098227, -0.000551358, 0.000410214, 10.1294, -34.411, 0.00245713, 39.5656, 102.768, 0, 0.00193924, 0.00124846, 0.00195887, 14.3143, 59.8589, 0, 0.00194059, 0.000718039, 0.00114485, 6.02284, 37.3299, 0, 0.0019413, 9.66613, -23.7653, -165.477, 4.19369, -16.8707, -99.3127, 0.00115772, 0.000439744, -0.00256876, 0.000685564, 0.000685564, 0.000685564
4232, 1,0.00170318, -0.000619145, 0.000539535, 67.4487, -31.2468, 0.00318723, 112.925, 50.6678, 0, 0.00183, 0.00216305, 0.00258927, 87.169, 20.241, 0, 0.00183091, 0.00124337, 0.00151033, 47.7311, 14.8335, 0, 0.00183107, 12.331, 82.586, -155.64, 4.47938, 44.8631, -93.843, 0.000586986, 0.00206781, -0.00298315, 0.0003345, 0.0003345, 0.0003345
4233, 1,0.00211783, -0.000614715, 0.000598418, 95.1461, -28.8004, 0.00398735, 164.172, 32.6145, 0, 0.00179603, 0.00269994, 0.00286006, 122.89, 6.34177, 0, 0.0017968, 0.00153574, 0.00166487, 67.4027, 6.96832, 0, 0.00179678, 10.3496, 117.137, -146.512, 3.91916, 64.1184, -88.9425, 0.000325406, 0.00258026, -0.00300847, 0.000198453, 0.000198453, 0.000198453
4234, 1,0.00155132, 0.000425416, 0.000364485, 80.0417, 23.5296, 0.0029199, 131.512, 8.74953, 0, 0.00180232, 0.00197654, 0.00180425, 103.565, -13.5254, 0, 0.00180298, 0.00112624, 0.00108025, 56.5226, -4.32314, 0, 0.00180271, 11.5518, 94.7397, -65.7151, 5.53044, 51.6285, -44.1895, 3.59207E-05, 0.00179603, -0.00161239, 5.27944E-05, 5.27944E-05, 5.27944E-05
4235, 1,0.000885618, 0.00031956, 0.00026463, 67.9412, 24.1133, 0.00118509, 81.6154, -34.2506, 0, 0.00178206, 0.00119304, 0.000971782, 91.4686, -46.8457, 0, 0.00178243, 0.000589789, 0.00046585, 44.9606, -22.6672, 0, 0.00178173, 9.54653, 52.2616, 78.7289, 4.91176, 28.039, 35.051, -0.00053205, 0.000373209, 0.000919042, -0.000249722, -0.000249722, -0.000249722
4236, 1,0.00278056, 0.000920343, 0.000652004, 175.945, 58.0451, 0.00396696, 243.151, -74.6818, 0, 0.00176262, 0.00369891, 0.00260607, 233.882, -79.1177, 0, 0.00176275, 0.0018642, 0.00130843, 118.117, -40.0668, 0, 0.00176163, -3.90003, 12.3929, 228.86, -2.86139, 6.5764, 116.485, -0.0013251, -0.000981214, 0.00359014, -0.000688126, -0.000688126, -0.000688126
4237, 1,0.00135179, 0.000373386, 0.000361615, 62.9515, 19.1347, 0.0024793, 98.9824, 24.5368, 0, 0.00182691, 0.00172514, 0.00177125, 82.0839, -0.646914, 0, 0.00182766, 0.00097846, 0.00104817, 43.8208, 3.35461, 0, 0.00182754, 11.4977, 68.7482, -78.3052, 4.90395, 36.2178, -51.1856, 0.000238042, 0.00144817, -0.00167563, 0.000160586, 0.000160586, 0.000160586
4238, 1,0.00133871, 0.000438712, 0.000313681, 87.4695, 29.3018, 0.0016936, 93.3517, -17.6288, 0, 0.00175967, 0.00177263, 0.00124847, 116.54, -43.7112, 0, 0.00176041, 0.000909123, 0.000637106, 58.605, -20.706, 0, 0.00175976, 9.80023, 45.8733, 75.4599, 3.92463, 24.5529, 33.6404, -0.000477315, 0.000286967, 0.000899684, -0.000239628, -0.000239628, -0.000239628
4239, 1,0.00323037, 0.0010372, 0.000727698, 201.767, 64.8196, 0.00489359, 292.081, -81.2416, 0, 0.00172036, 0.00426418, 0.00300146, 266.423, -86.7186, 0, 0.00172051, 0.00219974, 0.00155677, 137.265, -44.2725, 0, 0.00171932, -5.16213, 12.0597, 253.258, -6.01738, 6.97473, 131.86, -0.0014715, -0.00110801, 0.00398666, -0.000820354, -0.000820354, -0.000820354
4240, 1,0.000938788, -0.000414444, 0.000330256, 33.1818, -21.5243, 0.00194422, 59.8236, 43.1854, 0, 0.00191785, 0.00118362, 0.00161548, 42.785, 17.6714, 0, 0.00191865, 0.000694719, 0.000960643, 23.6145, 12.3818, 0, 0.00191881, 16.8757, 32.9235, -102.813, 9.2999, 17.5855, -64.031, 0.000643056, 0.000976472, -0.0019062, 0.000398033, 0.000398033, 0.000398033
4241, 1,0.00162073, 0.000525912, 0.000383845, 91.9552, 31.4973, 0.00314154, 159.625, -14.6918, 0, 0.00168654, 0.00214607, 0.00158761, 123.423, -29.1584, 0, 0.00168694, 0.00109592, 0.000826857, 60.5156, -11.3323, 0, 0.00168645, 0.105442, 20.9084, 66.4614, -3.85799, 8.73425, 29.1205, -0.000450306, -1.34422E-05, 0.000936944, -0.000253733, -0.000253733, -0.000253733
4242, 1,0.00413055, 0.00127229, 0.000887444, 245.353, 78.377, 0.00881524, 378.414, -66.5624, 0.0377766, 0.00162977, 0.00540071, 0.00388343, 323.633, -90.6641, 0, 0.00163037, 0.0028622, 0.00211409, 167.155, -41.6243, 0, 0.00162907, -21.7168, -4.52941, 298.239, -23.5886, -7.34281, 155.804, -0.00187833, -0.0015205, 0.00486996, -0.00114391, -0.00114391, -0.00114391
4243, 1,0.00697803, 0.00166323, 0.00118334, 317.355, 96.621, 0.0319738, 445.547, -179.667, 0.499592, 0.00148303, 0.00862964, 0.00631491, 413.673, -106.901, 0.0322582, 0.00147966, 0.00533336, 0.00397903, 221.284, -52.6905, 0.0318484, 0.00147834, -40.1992, -22.4067, 383.309, -33.5196, -17.4854, 209.076, -0.00324845, -0.00281973, 0.00783457, -0.00226968, -0.00226968, -0.00226968
4244, 1,0.0167513, 0.00267292, 0.00186915, 371.744, 113.87, 0.0624797, 527.536, -239.673, 1, 0.00132034, 0.0193929, 0.0143064, 485.478, -192.066, 0.241431, 0.00131349, 0.014122, 0.0107713, 258.167, -117.609, 0.220162, 0.00131162, 89.9117, 25.4159, 460.869, 70.2896, 33.0003, 249.537, -0.00507998, -0.00918859, 0.0178705, -0.00372711, -0.00372711, -0.00372711
4245, 1,0.0269445, 0.0043019, 0.0030859, 371.893, 121.592, 0.0682058, 616.679, -200.175, 1, 0.00120395, 0.0311453, 0.0236751, 493.199, -200.205, 0.46712, 0.0012004, 0.0227805, 0.0177962, 250.879, -104.733, 0.397783, 0.00119775, 106.213, 32.264, 462.14, 57.6317, 20.6811, 235.887, -0.00802543, -0.0156382, 0.0280578, -0.00634151, -0.00634151, -0.00634151
4246, 1,0.00265159, 0.00066189, 0.000506905, 150.468, 36.8957, 0.00702092, 379.465, -63.6011, 0, 0.00148489, 0.00331346, 0.00242471, 187.361, -40.5398, 0, 0.00148434, 0.00198974, 0.00143126, 113.577, -25.5057, 0, 0.00148397, -8.95772, 0.792825, 129.784, -8.48735, 5.35747, 79.6468, -0.000812181, -0.000621568, 0.00209163, -0.000565662, -0.000565662, -0.000565662
4247, 1,0.00449946, 0.000977044, 0.000715506, 246.356, 55.7726, 0.0198802, 458.417, -188.222, 0.262663, 0.00126271, 0.00547435, 0.00393483, 302.027, -56.1159, 7.0012E-07, 0.00125934, 0.00352571, 0.00255401, 190.739, -30.4898, 7.0012E-07, 0.00125882, -29.4094, -33.2698, 231.027, -28.1439, -20.9433, 140.557, -0.00146171, -0.00159877, 0.00397115, -0.00103149, -0.00103149, -0.00103149
4248, 1,0.0102437, 0.00136808, 0.00096942, 392.103, 81.8546, 0.022772, 421.458, -125.657, 0.315344, 0.00114491, 0.0116068, 0.00832099, 473.881, -177.202, 0.0882077, 0.00114554, 0.00888224, 0.00645398, 310.371, -122.006, 0.0882077, 0.00114446, 75.1384, 24.3242, 432.143, 58.2183, 22.5385, 285.263, -0.00260253, -0.00449517, 0.0101222, -0.00204112, -0.00204112, -0.00204112
4249, 1,0.00100811, -0.000547529, 0.000391038, 12.9092, -34.8822, 0.00270755, 18.7899, 146.966, 0, 0.00155397, 0.00123741, 0.00196454, 14.7188, 58.9807, 0, 0.00155619, 0.000781777, 0.00119765, 11.2085, 34.6829, 0, 0.0015568, 7.24973, -21.9455, -162.246, 8.15728, -13.4404, -98.7656, 0.00109409, 0.000463562, -0.00251463, 0.000728571, 0.000728571, 0.000728571
4250, 1,0.00139175, -0.000671988, 0.000475668, -2.66177, -46.803, 0.00408595, -28.8978, 298.954, 0, 0.00110803, 0.00166475, 0.00256618, -4.87659, 112.164, 0, 0.0011114, 0.00112023, 0.00173603, -0.380085, 71.6047, 0, 0.00111213, -20.8428, -86.6189, -229.03, -9.02182, -60.8336, -144.959, 0.00134909, -6.54998E-05, -0.00310356, 0.000957803, 0.000957803, 0.000957803
4251, 1,0.0018747, -0.000840137, 0.000588983, -8.59221, -58.1977, 0.0115474, -79.199, 374.776, 0.242004, 0.00097411, 0.00221181, 0.00372462, -11.3169, 154.622, 0, 0.000978524, 0.00153808, 0.00259663, -5.82115, 104.747, 0, 0.000979317, -49.4804, -90.1149, -324.27, -30.5602, -65.8158, -217.865, 0.00143934, 0.000551999, -0.00450027, 0.00105072, 0.00105072, 0.00105072
4252, 1,0.00768378, -0.00283122, 0.00185587, -32.4905, -171.837, 0.037045, -99.4829, 411.72, 0.98115, 0.000754445, 0.0085072, 0.0143169, -44.925, 323.876, 0.151316, 0.000761286, 0.0068687, 0.0107037, -19.8427, 187.148, 0.151316, 0.000763133, -152.469, -115.152, -704.009, -90.5401, -67.504, -403.399, 0.00454875, 0.0059394, -0.0162283, 0.00355446, 0.00355446, 0.00355446
4253, 1,0.00373445, -0.00206033, 0.00139352, -4.55358, -132.191, 0.0194083, -102.212, 396.308, 0.496972, 0.00088395, 0.00445959, 0.00804299, -8.18328, 237.882, 0.0325744, 0.000888351, 0.00301012, 0.00526715, -0.893827, 138.354, 0.0323501, 0.000889814, -70.1986, -166.47, -476.976, -37.8767, -102.609, -274.578, 0.00293966, 0.000506718, -0.00737784, 0.002031, 0.002031, 0.002031
4254, 1,0.00223671, -0.00125863, 0.000915962, 22.9358, -82.5015, 0.00603794, 23.1544, 241.89, 0.0559107, 0.00124486, 0.00280717, 0.00442627, 26.8121, 142.771, -8.47033E-22, 0.00124702, 0.00166825, 0.00259865, 19.1404, 80.8173, -8.47033E-22, 0.00124828, -12.0218, -171.313, -244.977, -3.41973, -98.0846, -140.948, 0.0020136, -0.00138173, -0.00294861, 0.00121707, 0.00121707, 0.00121707
4255, 1,0.00186776, -0.000766065, 0.000626468, 35.1411, -50.2175, 0.00452469, 115.896, 131.588, 0, 0.0014218, 0.0023527, 0.00303361, 44.031, 90.116, 0, 0.00142275, 0.0013842, 0.00178482, 26.3001, 52.4297, 0, 0.00142362, 24.2476, -179.715, -114.881, 16.1018, -105.686, -67.7054, 0.00194638, -0.00238726, -0.00102155, 0.00117906, 0.00117906, 0.00117906
4256, 1,0.0013769, -0.000447144, 0.000428598, 47.5949, -21.3532, 0.00241924, 27.7733, 116.273, 0, 0.00187837, 0.00178364, 0.002185, 66.5467, 23.8973, 0, 0.00188118, 0.000972359, 0.00134095, 28.7458, 23.1627, 0, 0.00188121, 0.370359, 65.852, -137.914, -0.872787, 28.4446, -97.0598, 0.000393758, 0.0017681, -0.00254955, 0.000353479, 0.000353479, 0.000353479
4257, 1,0.00242876, 0.000661336, 0.00055971, 118.702, 36.8518, 0.00479354, 179.315, 63.4493, 0, 0.00176961, 0.00308986, 0.00295018, 155.543, -12.7802, 0, 0.0017718, 0.00176779, 0.00183397, 81.8678, 2.25664, 0, 0.00177137, 10.7143, 149.165, -121.538, 5.40086, 78.5353, -90.7061, 3.18157E-05, 0.00295614, -0.00278043, 0.000153812, 0.000153812, 0.000153812
4258, 1,0.00267538, 0.000725219, 0.000563808, 137.766, 42.4019, 0.00546006, 224.734, 44.7483, 0, 0.00173621, 0.00340059, 0.00303179, 180.168, -26.1358, 0, 0.00173821, 0.00195017, 0.00190453, 95.3644, -4.29811, 0, 0.00173759, 10.5812, 173.57, -105.744, 5.26244, 91.8812, -84.2493, -0.000182514, 0.00326287, -0.00265611, 4.6749E-05, 4.6749E-05, 4.6749E-05
4259, 1,0.00196829, 0.000513317, 0.000359436, 113.691, 34.9089, 0.00436262, 193.237, 17.3414, 0, 0.00174215, 0.00248104, 0.001852, 148.575, -42.0789, 0, 0.00174383, 0.00145586, 0.00126418, 78.8193, -13.4637, 0, 0.00174302, 8.96725, 140.852, -23.5822, 4.51332, 74.8252, -38.9474, -0.000469644, 0.00232228, -0.0011697, -0.000115294, -0.000115294, -0.000115294
4260, 1,0.00130737, 0.000573114, 0.000442311, 98.2876, 41.9833, 0.00222527, 124.761, -26.3547, 0, 0.001723, 0.00183889, 0.00144251, 138.268, -68.8001, 0, 0.00172419, 0.000831036, 0.000628324, 60.9272, -28.9007, 0, 0.00172307, 5.51899, 78.5775, 122.304, 2.76886, 42.1538, 41.7796, -0.000963937, 0.000584748, 0.00149569, -0.000395694, -0.000395694, -0.000395694
4261, 1,0.00308762, 0.00115663, 0.000798257, 197.283, 73.8008, 0.00283943, 181.577, -63.8897, 0, 0.00170417, 0.00424297, 0.00293995, 270.991, -94.743, 0, 0.00170502, 0.00193381, 0.00134695, 123.687, -43.4637, 0, 0.0017036, -3.80974, 20.1184, 267.92, -2.6141, 10.7249, 122.28, -0.00157025, -0.00106345, 0.00417113, -0.000739068, -0.000739068, -0.000739068
4262, 1,0.00204991, 0.000555977, 0.000389524, 112.047, 34.8504, 0.00423593, 174.073, 35.0708, 0, 0.00176659, 0.00260037, 0.00214659, 146.635, -31.8663, 0, 0.00176851, 0.00150253, 0.00139336, 77.6061, -8.83918, 0, 0.00176785, 9.29024, 127.097, -40.7885, 4.99299, 68.4029, -46.8784, -0.000300559, 0.00219057, -0.00137278, -3.11084E-05, -3.11084E-05, -3.11084E-05
4263, 1,0.00206465, 0.000718542, 0.000507958, 133.626, 48.341, 0.00328832, 170.904, -20.7974, 0, 0.00170224, 0.00275691, 0.00189175, 180.694, -67.5157, 0, 0.00170353, 0.00139545, 0.000943601, 87.6676, -28.968, 0, 0.00170247, 5.95471, 79.1699, 117.423, 2.34355, 43.8369, 40.7236, -0.000934248, 0.000616213, 0.0014137, -0.000405435, -0.000405435, -0.000405435
4264, 1,0.00353993, 0.00124249, 0.000851305, 223.051, 78.5559, 0.0038305, 235.047, -72.715, 0, 0.0016638, 0.0047788, 0.00330152, 301.407, -101.622, 0, 0.00166458, 0.00230505, 0.00160694, 144.915, -48.4369, 0, 0.00166315, -5.13598, 21.147, 288.856, -4.86418, 12.7225, 137.452, -0.00170787, -0.00115046, 0.00450737, -0.000865573, -0.000865573, -0.000865573
4265, 1,0.00200478, 0.000559431, 0.000463219, 99.8955, 32.262, 0.00405644, 151.461, 54.0756, 0, 0.00185482, 0.00255029, 0.00240966, 131.5, -14.6502, 0, 0.00185689, 0.0014673, 0.00153086, 68.6743, 0.962023, 0, 0.00185642, 10.8115, 107.385, -74.2462, 5.86835, 58.8101, -67.5645, 6.74851E-06, 0.00204078, -0.00180966, 0.000145393, 0.000145393, 0.000145393
4266, 1,0.00278083, 0.000895571, 0.000626795, 163.74, 55.3339, 0.00437144, 201.057, 7.46964, 0, 0.00163037, 0.00365333, 0.00267493, 217.955, -60.6508, 0, 0.00163218, 0.00192732, 0.00150808, 110.445, -25.7945, 0, 0.00163125, 3.08553, 72.896, 105.971, 0.536106, 43.4346, 33.4127, -0.000884912, 0.000589331, 0.00127987, -0.000391874, -0.000391874, -0.000391874
4267, 1,0.00443433, 0.0014388, 0.000971695, 275.053, 90.6386, 0.00556233, 321.165, -78.2338, 0, 0.00157654, 0.00586959, 0.00401937, 365.51, -118.514, 0, 0.00157757, 0.00300249, 0.00208632, 184.772, -57.7622, 0, 0.00157601, -3.05691, 19.6337, 338.964, -6.12939, 10.9365, 168.479, -0.0019315, -0.00144919, 0.00530382, -0.00104015, -0.00104015, -0.00104015
4268, 1,0.00596621, 0.00174731, 0.00120361, 329.266, 105.709, 0.0121086, 377.652, -84.9109, 0.109687, 0.00143114, 0.00771201, 0.00545223, 434.92, -114.884, 0.0066086, 0.00143172, 0.0042216, 0.00305353, 223.658, -51.9724, 0.0066086, 0.00143025, -26.653, -25.1031, 396.409, -21.9421, -22.5817, 200.441, -0.00250097, -0.00248239, 0.00685447, -0.00140258, -0.00140258, -0.00140258
4269, 1,0.0148959, 0.00279601, 0.00194884, 348.25, 115.301, 0.0358977, 400.905, -132.873, 0.576685, 0.00127345, 0.0176806, 0.012798, 463.476, -153.249, 0.203927, 0.00127298, 0.0121165, 0.00903362, 233.1, -76.3951, 0.174514, 0.00127115, 35.257, 9.28173, 415.21, 19.0669, 4.16367, 205.955, -0.00538333, -0.00686569, 0.0150552, -0.00375419, -0.00375419, -0.00375419
4270, 1,0.0258512, 0.00420295, 0.00293474, 362.667, 118.884, 0.0524183, 400.201, -139.034, 0.874472, 0.00116683, 0.0300346, 0.0222679, 481.484, -178.925, 0.441655, 0.00116619, 0.0216747, 0.0164402, 243.916, -92.2059, 0.370944, 0.0011639, 66.6664, 32.0828, 438.026, 36.8974, 18.9211, 220.799, -0.00933058, -0.0127291, 0.0259129, -0.00698905, -0.00698905, -0.00698905
4271, 1,0.00360065, 0.00112016, 0.00083753, 200.396, 65.6002, 0.0055707, 235.678, 37.0621, 0, 0.00143429, 0.00468652, 0.00375436, 264.375, -57.4996, 0, 0.00143649, 0.00254036, 0.0021809, 137.629, -23.6158, 0, 0.0014357, 7.52066, 48.4679, 116.51, 7.37997, 31.756, 31.7113, -0.000736463, 0.000118006, 0.00155163, -0.000208033, -0.000208033, -0.000208033
4272, 1,0.00548704, 0.00150521, 0.0010996, 307.912, 88.9333, 0.0105123, 326.824, -26.371, 0.0897223, 0.00121753, 0.00698788, 0.00524292, 396.631, -88.7739, 0, 0.00121873, 0.00398935, 0.00305551, 219.345, -41.2122, 0, 0.00121779, -14.4381, 20.0826, 260.677, -16.0665, 6.88583, 132.817, -0.00167152, -0.00098825, 0.00410045, -0.000959828, -0.000959828, -0.000959828
4273, 1,0.0111888, 0.00181958, 0.00125221, 358.36, 106.239, 0.00466288, 235.748, -21.4522, 0, 0.00110584, 0.0130082, 0.00931889, 464.596, -160.938, 0.113581, 0.00110854, 0.00936945, 0.00681818, 252.126, -92.2548, 0.113581, 0.00110722, 38.956, 56.8066, 387.051, 28.2587, 36.7149, 211.791, -0.00388412, -0.00323351, 0.00990614, -0.0029674, -0.0029674, -0.0029674
4274, 1,0.00191913, 0.000569977, 0.000568802, 72.9936, 27.2223, 0.00462114, 106.62, 135.357, 0.00780273, 0.00150085, 0.00244828, 0.00282498, 98.2896, 24.0239, 0, 0.00150358, 0.00141437, 0.00180268, 48.8588, 24.7196, 0, 0.00150356, -3.73752, 72.1843, -140.518, -1.83194, 41.2626, -113.589, 0.000314148, 0.00190008, -0.00260388, 0.000361978, 0.000361978, 0.000361978
4275, 1,0.00250911, -0.000792453, 0.000727601, 88.9543, -41.0072, 0.010747, -41.2432, 302.811, 0.245151, 0.00107499, 0.0031373, 0.00387641, 115.049, 45.42, 0, 0.00108033, 0.00190013, 0.00251997, 63.8306, 35.7618, 0, 0.0010805, -4.09442, 46.0402, -178.206, 1.94928, 32.7844, -142.019, 0.000658684, 0.00167578, -0.0030713, 0.000629672, 0.000629672, 0.000629672
4276, 1,0.00261855, -0.000763273, 0.000656671, 80.9744, -41.5314, 0.0191193, -29.303, 309.819, 0.494296, 0.000942572, 0.00314605, 0.00404702, 100.507, 62.1654, 0, 0.000948182, 0.00210051, 0.00279525, 61.9062, 47.3376, 0, 0.00094841, -15.9132, 33.5189, -204.102, -8.53155, 26.0435, -159.525, 0.000699338, 0.00167854, -0.00338642, 0.000614415, 0.000614415, 0.000614415
4277, 1,0.0047112, -0.00199618, 0.00134033, -34.3092, -122.871, 0.0360023, -51.6709, 393.935, 1, 0.000729972, 0.00528065, 0.00992342, -41.3114, 266.232, 0.0752416, 0.000737276, 0.00414864, 0.00740855, -27.0508, 175.77, 0.0752416, 0.000738406, -83.2002, -61.0599, -654.437, -53.2448, -43.7375, -430.328, 0.00408625, 0.00467885, -0.0132744, 0.00329587, 0.00329587, 0.00329587
4278, 1,0.00285487, -0.00130117, 0.000915717, 35.7497, -80.6891, 0.0222257, -95.0863, 346.831, 0.684819, 0.000859121, 0.0033465, 0.00580435, 39.3738, 152.043, 0.00562616, 0.00086484, 0.00238009, 0.00406592, 32.7802, 99.2248, 0.00562616, 0.000865584, -3.66078, -27.1949, -425.273, 11.6229, -19.3724, -289.925, 0.00248845, 0.00191562, -0.00687885, 0.00198113, 0.00198113, 0.00198113
4279, 1,0.0014958, -0.000679957, 0.000510324, 9.98567, -41.558, 0.00614886, 60.7149, 179.435, 0.0684034, 0.00120562, 0.00181372, 0.00299486, 15.6161, 95.4084, 0, 0.0012074, 0.00118908, 0.00203127, 4.80904, 69.9193, 0, 0.0012079, -15.9212, -54.692, -215.612, -11.1492, -47.3944, -151.214, 0.00119094, 0.000334106, -0.00307318, 0.000887047, 0.000887047, 0.000887047
4280, 1,0.000945818, -0.00034203, 0.000278147, 13.7644, -21.3007, 0.00309886, 51.2501, 128.051, 0, 0.00136577, 0.00115523, 0.00158442, 18.5088, 48.8636, 0, 0.00136753, 0.000738979, 0.00104352, 9.10937, 34.964, 0, 0.00136784, 2.38341, -50.8871, -98.0871, 0.220854, -39.4195, -65.6933, 0.000835426, -0.00031343, -0.00131498, 0.000568874, 0.000568874, 0.000568874
4281, 1,0.00423417, 0.000960595, 0.000660179, 263.453, 58.8584, 0.0329715, 445.661, -159.395, 0.508642, 0.00174577, 0.00519117, 0.00353844, 322.112, -100.774, 0, 0.00174233, 0.00327937, 0.00225761, 204.913, -64.7771, 0, 0.00174131, -14.5008, 15.8089, 301.013, -11.3755, 11.4107, 194.296, -0.00186277, -0.00124896, 0.00474695, -0.00123189, -0.00123189, -0.00123189
4282, 1,0.00314388, 0.00064929, 0.000448684, 200.482, 40.4359, 0.00998736, 413.084, -117.478, 0.0621968, 0.00183701, 0.00378217, 0.00260333, 240.419, -82.3342, 0, 0.00183584, 0.00251148, 0.00173639, 160.81, -56.0844, 0, 0.00183506, -4.03553, 19.9876, 231.05, -3.00464, 13.8682, 157.39, -0.0013803, -0.00087145, 0.0035877, -0.000943879, -0.000943879, -0.000943879
4283, 1,0.0025051, 0.000488301, 0.000346959, 161.628, 30.7133, 0.00619887, 392.306, -133.104, 0, 0.00187985, 0.00298417, 0.0020395, 191.965, -67.972, 0, 0.00187786, 0.00203061, 0.00137145, 131.476, -47.3467, 0, 0.00187723, 3.7122, 10.743, 189.461, 4.9918, 6.21969, 130.829, -0.000993127, -0.000840525, 0.00293654, -0.000639159, -0.000639159, -0.000639159
4284, 1,0.0018571, -0.000635826, 0.000553632, 92.1281, -35.4917, 0.0106677, 389.249, -92.1199, 0.0781351, 0.0018063, 0.00228124, 0.0022198, 106.745, 1.96139, 8.47033E-22, 0.00180342, 0.00147388, 0.00124865, 79.4713, -12.5368, 8.47033E-22, 0.00180384, -6.37986, 30.0397, -29.5441, -1.27352, 17.4111, 21.4728, -0.000100775, 0.000670954, -0.000601995, -0.000219271, -0.000219271, -0.000219271
4285, 1,0.00144887, -0.000475603, 0.000424562, 78.0507, -25.7364, 0.00476341, 285.819, -81.1136, 0, 0.00186541, 0.00176769, 0.00155668, 89.8879, -8.43744, 0, 0.00186321, 0.0011812, 0.000871615, 68.6329, -17.063, 0, 0.00186347, -4.66557, 37.2846, -7.30669, -2.50261, 22.1586, 31.5331, -0.000232201, 0.000659627, -0.000290532, -0.000320124, -0.000320124, -0.000320124
4286, 1,0.000829232, -0.000344049, 0.00030458, 52.2147, -18.1411, 0.00335555, 218.447, -80.1008, 0, 0.00189248, 0.00104196, 0.000822484, 60.4335, -15.0534, 0, 0.00189048, 0.000697886, 0.00048813, 47.8731, -19.9652, 0, 0.00189063, 4.64134, 39.9813, 0.537572, 3.24681, 23.6677, 32.9811, -0.000141823, 0.000613672, -0.00022761, -0.000246522, -0.000246522, -0.000246522
4287, 1,0.00137109, -0.00109157, 0.000747328, 30.9364, -72.1927, 0.00344641, 153.243, 13.0247, 0, 0.00204255, 0.00174231, 0.0027849, 27.9211, 72.9282, 0, 0.00204057, 0.00103188, 0.00137872, 35.5207, 17.7483, 0, 0.0020424, -8.94775, 22.0418, -231.879, 5.96586, 29.2255, -88.4364, 0.000960386, 0.00161247, -0.00375626, 0.000409503, 0.000409503, 0.000409503
4288, 1,0.00148699, -0.00101149, 0.000730414, 43.9856, -64.3924, 0.00288037, 147.314, -15.0271, 0, 0.00195256, 0.00192603, 0.00269136, 48.2151, 57.5073, 0, 0.00195026, 0.00105925, 0.00126557, 40.2851, 13.1017, 0, 0.00195167, -10.618, 38.5728, -200.477, 1.16848, 32.2571, -72.7307, 0.000680707, 0.00172363, -0.00333749, 0.000233269, 0.000233269, 0.000233269
4289, 1,0.00157568, -0.0009599, 0.000728645, 58.4073, -55.5738, 0.00211777, 123.147, -30.9695, 0, 0.00192455, 0.00207187, 0.00266871, 71.7112, 35.2603, 0, 0.00192248, 0.00108091, 0.00121593, 45.1676, 7.98792, 0, 0.00192333, 6.65518, 66.0354, -178.472, 2.66888, 41.2614, -67.8941, 0.000693189, 0.00195628, -0.00322162, 0.000181544, 0.000181544, 0.000181544
4290, 1,0.00205638, -0.00127926, 0.000938707, 64.0994, -75.4679, 0.00321708, 148.972, 4.12797, 0, 0.00191626, 0.00265442, 0.00371637, 77.4129, 64.542, 0, 0.00191439, 0.00145846, 0.00183976, 50.7913, 24.3715, 0, 0.00191563, 5.49913, 73.9682, -273.093, 0.913141, 48.3854, -122.413, 0.00113139, 0.00258295, -0.00476162, 0.000403898, 0.000403898, 0.000403898
4291, 1,0.00169001, -0.00124852, 0.000850146, 34.6036, -82.1533, 0.0029452, 119.427, 26.5511, 0, 0.00195373, 0.00214044, 0.00343255, 32.8035, 91.8309, 0, 0.00195166, 0.0012408, 0.00173964, 36.46, 29.7945, 0, 0.00195363, -14.1867, 30.0823, -291.388, 3.21665, 34.5219, -127.122, 0.00114615, 0.00208305, -0.00471932, 0.000539746, 0.000539746, 0.000539746
4292, 1,0.00112654, -0.00104907, 0.000687474, -18.4003, -81.6997, 0.00154577, 11.2085, 82.7351, 0, 0.00206204, 0.00145206, 0.00275944, -35.0603, 139.129, 0, 0.00206015, 0.00080133, 0.00139235, -1.70703, 52.956, 0, 0.00206304, -36.4555, -93.3715, -287.56, -2.13872, -25.7898, -130.939, 0.00141838, 0.000212386, -0.00388843, 0.0007891, 0.0007891, 0.0007891
4293, 1,0.00189762, -0.00126434, 0.000935991, 15.9076, -88.4552, 0.00285615, 44.2496, 121.829, 0, 0.00152629, 0.00250446, 0.00363391, 15.9139, 137.612, 0, 0.0015259, 0.00129147, 0.00176433, 15.9551, 60.5454, 0, 0.00152781, 11.087, -247.566, -176.356, 13.9619, -111.441, -84.1566, 0.00239948, -0.00307722, -0.00155532, 0.00124775, 0.00124775, 0.00124775
4294, 1,0.00262766, -0.00213637, 0.00150056, 23.0426, -139.349, 0.00422676, 79.6178, 160.991, 0, 0.00132956, 0.00349153, 0.00581905, 25.6148, 187.024, 0, 0.001329, 0.00176463, 0.00282099, 20.5062, 84.0595, 0, 0.00133122, 24.3684, -226.501, -358.938, 20.0382, -100.826, -171.39, 0.00345792, -0.00185942, -0.00463341, 0.00174715, 0.00174715, 0.00174715
4295, 1,0.00544117, -0.00385914, 0.00266959, -4.7556, -194.666, 0.012483, -59.3299, 343.78, 0.296434, 0.000928423, 0.00691531, 0.0118323, -9.30501, 280.732, 0.0952578, 0.000930164, 0.00397093, 0.00650903, -0.141056, 136.095, 0.0663792, 0.000932509, -17.1821, -209.27, -615.743, -5.88359, -98.7587, -303.644, 0.00663395, 0.000622145, -0.0120674, 0.00373032, 0.00373032, 0.00373032
4296, 1,0.0104378, -0.00600563, 0.00415489, -60.1646, -210.042, 0.0257158, -84.4374, 405.122, 0.682061, 0.000834528, 0.0127347, 0.0215202, -75.599, 353.059, 0.319527, 0.000837572, 0.00814403, 0.0132293, -44.6622, 186.892, 0.233545, 0.000840495, -97.1482, -158.406, -803.622, -58.8478, -84.6951, -417.133, 0.0115295, 0.00825665, -0.0267583, 0.00719427, 0.00719427, 0.00719427
4297, 1,0.00299222, -0.00267286, 0.00186854, 3.20342, -175.768, 0.00221593, 35.3879, 95.4386, 0, 0.00104486, 0.00404785, 0.00708947, 3.78539, 251.198, 0, 0.00104222, 0.00194538, 0.00336569, 3.2025, 118.773, 0, 0.00104446, -12.7628, -98.1277, -642.703, -10.2455, -42.0575, -304.017, 0.00370331, 0.00186077, -0.00964006, 0.00167804, 0.00167804, 0.00167804
4298, 1,0.00846584, 0.000378651, 0.000364482, 268.734, 13.5589, 0.0436437, 345.377, -81.8017, 0.742268, 0.00119663, 0.00872175, 0.00670271, 281.046, -89.5551, 0.0870122, 0.00119574, 0.00821689, 0.00611363, 256.574, -89.1928, 0.0870122, 0.00119573, 10.7201, 20.2605, 237.685, 13.2686, 30.8344, 223.475, -0.00285467, -0.00257159, 0.00695375, -0.00296952, -0.00296952, -0.00296952
4299, 1,0.0267177, 0.00360535, 0.00258479, 362.258, 118.119, 0.081855, 991.78, -324.782, 1, 0.00126898, 0.0302367, 0.0224896, 480.152, -178.995, 0.445145, 0.00125879, 0.0232237, 0.0175176, 244.587, -92.2605, 0.40075, 0.00125636, 39.8327, 27.4743, 469.678, 20.8344, 18.4692, 237.478, -0.0120489, -0.0133493, 0.0292628, -0.00991697, -0.00991697, -0.00991697
4300, 1,0.0020712, -0.00197434, 0.00138815, -4.48747, -131.936, 0.00313649, 142.169, 10.3585, 0, 0.00116635, 0.00287152, 0.00530943, -5.12341, 188.144, 0, 0.00116299, 0.001281, 0.00255982, -2.26093, 84.6923, 0, 0.00116494, -11.2467, -52.5496, -500.637, -7.30403, -5.09029, -241.683, 0.00273146, 0.00183726, -0.00762164, 0.00119062, 0.00119062, 0.00119062
4301, 1,0.00493457, -0.000730144, 0.000618416, 234.214, -36.5618, 0.0411625, 394.996, -115.54, 0.678334, 0.00134417, 0.00532097, 0.00435184, 246.599, -40.4488, 0.0165084, 0.001341, 0.00458299, 0.00336705, 223.137, -56.0602, 0.0161752, 0.00134135, -21.1322, 23.3281, 119.151, -16.4885, 34.6936, 149.976, -0.00130391, -0.000251041, 0.00221759, -0.0015531, -0.0015531, -0.0015531
4302, 1,0.0174043, 0.00201227, 0.00141278, 347.713, 106.847, 0.0757372, 814.915, -258.378, 1, 0.00141157, 0.0194088, 0.014306, 454.528, -148.204, 0.239192, 0.00140212, 0.0154015, 0.0115944, 240.928, -81.6242, 0.239192, 0.00140038, 2.59792, 2.03324, 439.982, 3.33495, 7.63955, 233.898, -0.0078298, -0.00792372, 0.018529, -0.00678335, -0.00678335, -0.00678335
4303, 1,0.00144828, -0.00150046, 0.00101184, -4.49022, -98.8576, 0.00428332, 168.796, 45.6343, 0, 0.00166437, 0.00187807, 0.00377329, -12.3742, 134.691, 0, 0.00166197, 0.00109022, 0.00191815, 6.80115, 59.8495, 0, 0.00166399, -19.8341, -19.1871, -365.051, -12.6253, 4.32508, -171.248, 0.00170591, 0.00170849, -0.00560002, 0.000683261, 0.000683261, 0.000683261
4304, 1,0.00291097, -0.000751627, 0.000632939, 166.396, -41.3283, 0.0283209, 451.943, -197.879, 0.432266, 0.00160406, 0.00336418, 0.00307409, 182.042, -28.6168, 0, 0.00159803, 0.00249485, 0.00197251, 152.494, -44.0834, 0, 0.00159843, 15.3949, 49.4542, 21.0015, 16.7307, 43.3737, 72.1458, -0.000110264, 0.000595599, -2.08156E-05, -0.000324206, -0.000324206, -0.000324206
4305, 1,0.00834954, 0.00143317, 0.000998161, 316.175, 83.1106, 0.0651348, 571.377, -229.137, 1, 0.00159048, 0.00977399, 0.00682351, 399.144, -124.847, 0.0669068, 0.00158048, 0.0069287, 0.00496617, 233.31, -72.2097, 0.0655274, 0.00157908, -10.3501, 4.59973, 380.291, -10.093, 1.90241, 224.82, -0.00374463, -0.00328888, 0.00913804, -0.00290562, -0.00290562, -0.00290562
4306, 1,0.00422346, 0.00116791, 0.000813492, 254.3, 71.9151, 0.0181273, 443.488, -112.207, 0.207413, 0.0016918, 0.00538416, 0.00385862, 325.907, -94.8635, 1.65853E-07, 0.00169092, 0.00306834, 0.00225009, 182.934, -50.0851, 1.65853E-07, 0.00168969, -32.617, -3.12788, 320.335, -26.7458, -4.0014, 181.002, -0.00216547, -0.00155759, 0.00526231, -0.00133807, -0.00133807, -0.00133807
4307, 1,0.00297985, 0.000875792, 0.000618981, 188.828, 54.4922, 0.00625652, 371.211, -101.26, 0, 0.00178134, 0.00385396, 0.00270158, 243.237, -81.7789, 0, 0.00178078, 0.00210717, 0.00146898, 134.489, -46.588, 0, 0.00177976, -4.05036, 11.1604, 238.227, -0.898384, 7.98928, 132.673, -0.00137078, -0.00105006, 0.00374784, -0.000749781, -0.000749781, -0.000749781
4308, 1,0.00266596, 0.00072408, 0.000519183, 168.481, 45.5438, 0.00521536, 323.609, -103.228, 0, 0.00182175, 0.00338734, 0.00237567, 213.904, -71.7805, 0, 0.00182082, 0.00194666, 0.00134528, 123.15, -41.3354, 0, 0.00181992, -3.63774, 7.90064, 211.078, -2.13729, 3.78047, 122.363, -0.00120412, -0.000960908, 0.00332976, -0.000692133, -0.000692133, -0.000692133
4309, 1,0.00136065, 0.000382851, 0.000352058, 68.9286, 18.2487, 0.00543626, 287.886, -40.8484, 0, 0.00174967, 0.00173198, 0.00146544, 86.6118, -5.69548, 0, 0.00174867, 0.000998614, 0.000798997, 51.7011, -5.27882, 0, 0.00174866, -15.4309, 6.51622, 26.0011, -10.8239, 1.42847, 25.2318, -0.000404907, 5.1767E-05, 0.000445573, -0.000300418, -0.000300418, -0.000300418
4310, 1,0.00118519, 0.000340513, 0.000296982, 73.8129, 18.7264, 0.00273311, 155.564, -35.0097, 0, 0.00180663, 0.00151759, 0.00115383, 92.1444, -27.1566, 0, 0.0018064, 0.000860598, 0.000583111, 55.8576, -20.0788, 0, 0.00180619, 5.1353, 35.7195, 40.6152, 5.4285, 21.2693, 33.5385, -0.000313582, 0.00033174, 0.000422518, -0.00019523, -0.00019523, -0.00019523
4311, 1,0.000743927, 0.000222746, 0.000204097, 53.103, 13.7416, 0.00181116, 124.975, -52.5335, 0, 0.0018325, 0.000951682, 0.000788981, 66.1139, -28.2191, 0, 0.00183178, 0.000553711, 0.000438914, 40.9426, -19.585, 0, 0.00183152, 5.59226, 39.1241, 39.9409, 3.71064, 22.1116, 32.9327, -0.000323128, 0.000388053, 0.000392986, -0.000226084, -0.000226084, -0.000226084
4312, 1,0.000901968, -0.000648121, 0.000462655, 19.8479, -41.4128, 0.0013254, 29.0738, 45.1829, 0, 0.00197548, 0.00117411, 0.00188116, 21.9997, 44.7546, 0, 0.00197549, 0.000634438, 0.000971099, 17.8868, 15.8656, 0, 0.00197642, 9.7313, 9.56017, -153.555, 12.1725, 11.1786, -70.9479, 0.000917452, 0.000907563, -0.00255123, 0.000515294, 0.000515294, 0.000515294
4313, 1,0.00124206, -0.000603771, 0.000494099, 44.5563, -35.5861, 0.0020171, 87.7613, 10.2529, 0, 0.00188814, 0.00162531, 0.00201191, 55.6477, 28.5439, 0, 0.00188758, 0.00085989, 0.00103389, 33.5144, 9.6707, 0, 0.00188816, 0.383208, 43.4557, -129.471, 4.32802, 26.9619, -60.302, 0.000462584, 0.00137189, -0.00229763, 0.000249856, 0.000249856, 0.000249856
4314, 1,0.00146877, -0.000609047, 0.00052692, 63.3899, -32.9543, 0.00220511, 109.124, -6.51804, 0, 0.00186216, 0.00191353, 0.00212554, 80.2654, 13.7938, 0, 0.00186155, 0.00102403, 0.00108046, 46.5147, 2.65335, 0, 0.00186188, 6.54553, 71.1859, -119.113, 4.51263, 41.7024, -54.175, 0.000359026, 0.0017274, -0.00231022, 0.000141505, 0.000141505, 0.000141505
4315, 1,0.00197129, -0.000911302, 0.000737138, 72.8137, -51.4439, 0.00329214, 140.674, 20.048, 0, 0.00185532, 0.00253427, 0.00314463, 91.0691, 38.5774, 0, 0.00185476, 0.00140832, 0.00167665, 54.5582, 16.1385, 0, 0.00185544, 3.76359, 86.0546, -205.55, 2.69979, 51.6153, -102.731, 0.000691312, 0.00243003, -0.00374728, 0.000316366, 0.000316366, 0.000316366
4316, 1,0.00151447, -0.000840779, 0.00063429, 42.2379, -51.6244, 0.0025419, 86.8729, 44.6917, 0, 0.00189027, 0.00194204, 0.00277011, 50.5847, 55.3595, 0, 0.00188994, 0.00108707, 0.00150597, 33.8992, 23.4898, 0, 0.00189092, -2.69599, 47.1738, -210.556, 4.73052, 32.1451, -107.345, 0.000817362, 0.00187095, -0.0035866, 0.000473647, 0.000473647, 0.000473647
4317, 1,0.00116884, -0.000720046, 0.000503943, 1.19802, -53.1977, 0.00240878, 35.4227, 105.34, 0, 0.00198944, 0.00145643, 0.00230106, -4.33099, 98.205, 0, 0.00198967, 0.000881443, 0.00129567, 6.74142, 46.7741, 0, 0.00199133, -6.88682, -73.6019, -214.126, 5.12761, -32.9659, -112.484, 0.00139891, -1.17672E-05, -0.00298072, 0.000844037, 0.000844037, 0.000844037
4318, 1,0.00212852, -0.00111524, 0.000848161, 30.9141, -75.3824, 0.00453728, 95.7466, 159.635, 0, 0.00146477, 0.00270709, 0.00376465, 35.5868, 124.261, 0, 0.00146561, 0.00155184, 0.00207304, 26.3533, 63.3663, 0, 0.00146706, 27.1748, -257.28, -142.679, 21.9376, -135.83, -76.2066, 0.00252665, -0.00349039, -0.00105267, 0.00145749, 0.00145749, 0.00145749
4319, 1,0.00287979, -0.00189193, 0.00132678, 26.4356, -125.223, 0.00602501, 54.0483, 260.966, 0.0230298, 0.001283, 0.00364024, 0.00587128, 26.6314, 195.272, -1.35525E-20, 0.00128444, 0.00212028, 0.00322146, 26.3115, 99.1791, -1.35525E-20, 0.00128645, 22.989, -273.298, -335.506, 23.6359, -145.563, -175.61, 0.00356056, -0.00271468, -0.00401462, 0.00206279, 0.00206279, 0.00206279
4320, 1,0.00417827, -0.00313946, 0.00209574, -52.4861, -193.674, 0.0174368, -120.825, 470.608, 0.396929, 0.000901663, 0.00511951, 0.0102548, -66.4325, 318.074, 0.0594171, 0.000905704, 0.00330899, 0.00621488, -36.4062, 170.816, 0.0553933, 0.000907951, -68.0983, -254.703, -631.419, -47.3001, -138.45, -326.698, 0.00508578, -4.33421E-05, -0.0103809, 0.002993, 0.002993, 0.002993
4321, 1,0.01004, -0.0046223, 0.00310048, -61.9387, -218.95, 0.0337487, -100.781, 474.116, 0.811611, 0.000815606, 0.0115978, 0.0187233, -80.246, 397.89, 0.2307, 0.00082105, 0.00848467, 0.0125553, -43.5702, 217.18, 0.194863, 0.000823891, -186.223, -164.15, -843.298, -119.634, -89.0706, -442.836, 0.00692464, 0.00794596, -0.0222811, 0.00422205, 0.00422205, 0.00422205
4322, 1,0.00214335, -0.00164056, 0.00112442, -5.65731, -111.131, 0.00507337, 31.9835, 278.227, 0, 0.00101564, 0.00272742, 0.00490004, -11.5733, 186.826, 0, 0.00101715, 0.00157452, 0.00269894, 1.01834, 96.8174, 0, 0.00101863, -22.8392, -101.845, -435.793, -12.6394, -53.6655, -224.147, 0.00249381, 0.000797192, -0.00632265, 0.00129576, 0.00129576, 0.00129576
4323, 1,0.010759, 0.0012857, 0.000898061, 380.557, 76.8027, 0.0348668, 402.466, -86.4926, 0.554125, 0.00116302, 0.0120432, 0.00900946, 457.351, -163.181, 0.09925, 0.00116391, 0.0094752, 0.00721675, 303.768, -110.928, 0.09925, 0.00116287, 38.7346, -0.169499, 450.979, 30.5169, 2.43701, 299.831, -0.00373085, -0.00528294, 0.0118171, -0.00301707, -0.00301707, -0.00301707
4324, 1,0.0302654, 0.00498821, 0.00367271, 374.423, 122.378, 0.0781847, 904.512, -307.382, 1, 0.00122779, 0.0352019, 0.0271909, 496.657, -204.964, 0.542625, 0.00121981, 0.0253478, 0.019986, 252.333, -106.963, 0.44902, 0.00121682, 91.9593, 29.7812, 493.151, 51.3294, 20.2799, 249.281, -0.011394, -0.0186455, 0.03481, -0.00860595, -0.00860595, -0.00860595
4325, 1,0.00176698, -0.00123992, 0.000884009, -12.3456, -86.5697, 0.0030614, 5.42406, 186.283, 0, 0.00113163, 0.00228994, 0.00388233, -15.5552, 164.439, 0, 0.00113203, 0.00124828, 0.00212647, -8.8568, 89.4695, 0, 0.0011334, -17.8939, -105.498, -369.925, -11.3853, -55.5581, -201.465, 0.00224073, 0.000355025, -0.00526408, 0.00120055, 0.00120055, 0.00120055
4326, 1,0.00458328, 0.000747189, 0.000598644, 256.478, 39.1592, 0.0307066, 470.615, -182.135, 0.468918, 0.0013097, 0.00531581, 0.00387796, 295.043, -69.8781, 0.00417672, 0.00130595, 0.00385713, 0.00271643, 218.172, -56.4101, 0.00317312, 0.00130567, -27.9454, -30.9003, 268.48, -19.7451, -15.355, 204.33, -0.00174662, -0.00185936, 0.00474261, -0.00134713, -0.00134713, -0.00134713
4327, 1,0.0176472, 0.00279026, 0.0019494, 355.087, 114.526, 0.071763, 728.715, -248.912, 1, 0.00137014, 0.020437, 0.015572, 469.613, -166.981, 0.260083, 0.00136199, 0.0148577, 0.0116747, 240.561, -89.7526, 0.23314, 0.00135995, 45.6284, -11.8055, 467.121, 32.6543, -2.69051, 239.294, -0.00667725, -0.0104056, 0.0202526, -0.00482384, -0.00482384, -0.00482384
4328, 1,0.00122311, -0.000929887, 0.000648831, 3.44221, -63.6335, 0.00160721, -8.01498, 112.346, 0, 0.00160872, 0.00159088, 0.00270805, 1.22137, 98.1212, 0, 0.00160909, 0.000855356, 0.00141234, 5.66636, 45.3447, 0, 0.00161047, 0.171206, -45.5384, -248.996, 5.2185, -16.6761, -124.577, 0.00156307, 0.000579813, -0.00373507, 0.000840423, 0.000840423, 0.000840423
4329, 1,0.00215109, 0.000446063, 0.000405836, 116.758, 20.9155, 0.0158462, 455.669, -159.588, 0.173696, 0.0015534, 0.00258051, 0.00202342, 136.878, -18.1307, 0, 0.00154941, 0.0017321, 0.00125663, 97.1339, -18.6364, 0, 0.00154943, -26.387, -13.5366, 94.3158, -18.0492, -4.29748, 78.2559, -0.000819378, -0.000568615, 0.00168226, -0.000651503, -0.000651503, -0.000651503
4330, 1,0.00750297, 0.00164109, 0.0011286, 318.382, 94.507, 0.0505313, 550.344, -271.648, 0.810316, 0.00154412, 0.00913581, 0.00646226, 412.763, -113.662, 0.0445046, 0.00153465, 0.00587439, 0.00427343, 224.099, -58.122, 0.0429059, 0.00153323, -34.2281, -32.6207, 407.834, -21.9611, -25.6589, 221.986, -0.00354769, -0.00354198, 0.00898095, -0.0023299, -0.0023299, -0.0023299
4331, 1,0.00438769, 0.00137198, 0.000947422, 262.055, 85.0615, 0.00941049, 431.53, -102.344, 0.0378253, 0.00163924, 0.00575926, 0.00407037, 347.098, -100.522, 0, 0.00163914, 0.00301648, 0.00218094, 177.027, -46.3907, 0, 0.0016377, -35.112, -4.88559, 341.563, -28.0534, -7.37019, 174.596, -0.00232585, -0.00168568, 0.00564268, -0.00132714, -0.00132714, -0.00132714
4332, 1,0.00330955, 0.0010977, 0.000766775, 208.22, 68.8649, 0.00539024, 331.304, -102.876, 0, 0.00172576, 0.00440719, 0.00308066, 277.074, -92.2532, 0, 0.00172546, 0.00221198, 0.00155237, 139.376, -46.7143, 0, 0.00172418, -9.95851, 14.1822, 272.536, -6.25625, 9.28467, 137.115, -0.00166075, -0.00115078, 0.00430856, -0.000866624, -0.000866624, -0.000866624
4333, 1,0.00280684, 0.000941368, 0.000665289, 177.452, 59.5098, 0.00415008, 255.175, -79.321, 0, 0.00176334, 0.00374715, 0.00263296, 236.89, -80.1351, 0, 0.00176336, 0.00186762, 0.00130717, 118.085, -39.851, 0, 0.00176221, -6.28166, 11.9074, 234.78, -4.02071, 6.01506, 117.559, -0.00139103, -0.00100757, 0.00369897, -0.000709482, -0.000709482, -0.000709482
4334, 1,0.00163946, 0.000582099, 0.00044061, 92.6226, 34.3735, 0.00341826, 180.916, -25.6537, 0, 0.00169411, 0.00221918, 0.00166095, 126.903, -29.1668, 0, 0.00169421, 0.00106234, 0.000817415, 58.4383, -10.8081, 0, 0.00169371, -9.60254, 17.4439, 79.6589, -7.47318, 8.00413, 31.8934, -0.000653488, -8.5924E-05, 0.00121273, -0.000320578, -0.000320578, -0.000320578
4335, 1,0.0013179, 0.000490585, 0.000375165, 86.0563, 31.9654, 0.00199273, 109.947, -21.0927, 0, 0.00174857, 0.00180502, 0.00131942, 117.86, -43.3977, 0, 0.0017492, 0.000834619, 0.000576117, 54.425, -19.8693, 0, 0.00174853, 3.67775, 44.0072, 82.508, 1.75579, 23.4567, 34.3954, -0.000598959, 0.000251999, 0.00105121, -0.000269896, -0.000269896, -0.000269896
4336, 1,0.000878027, 0.000354721, 0.000295323, 67.7303, 25.8662, 0.00142397, 93.4541, -35.1469, 0, 0.00177263, 0.00122532, 0.00100634, 93.2104, -47.0486, 0, 0.00177297, 0.000540489, 0.000432737, 42.7388, -22.6535, 0, 0.00177227, 7.60763, 52.064, 81.4741, 4.49062, 28.123, 35.3468, -0.00057526, 0.000365724, 0.00097303, -0.000257567, -0.000257567, -0.000257567
4337, 1,0.000782245, -0.000379194, 0.000309138, 23.5094, -20.5955, 0.0016617, 36.2253, 56.085, 0, 0.00191033, 0.00101766, 0.00151217, 32.0016, 21.8274, 0, 0.00191139, 0.000554506, 0.000909493, 15.2031, 14.644, 0, 0.00191161, 14.656, 25.7326, -105.871, 10.8741, 13.6585, -68.4646, 0.000660478, 0.000892193, -0.00190683, 0.000467181, 0.000467181, 0.000467181
4338, 1,0.00126325, 0.000381125, 0.000358436, 57.1051, 18.9264, 0.00234772, 87.2453, 31.8379, 0, 0.00182412, 0.00164264, 0.00170296, 75.9577, 2.4055, 0, 0.001825, 0.000885262, 0.00100125, 38.3081, 4.85325, 0, 0.00182492, 5.76307, 64.568, -77.5476, 4.54805, 33.7158, -52.8236, 0.000165257, 0.00140857, -0.00161281, 0.000177724, 0.000177724, 0.000177724
4339, 1,0.00152069, 0.000430891, 0.000366753, 78.0292, 23.7093, 0.0028879, 128.405, 10.8545, 0, 0.00180012, 0.00195073, 0.00177996, 101.703, -12.6559, 0, 0.00180081, 0.0010913, 0.00106241, 54.3821, -3.67137, 0, 0.00180055, 9.24921, 93.5978, -64.8794, 5.33841, 50.6705, -44.9948, 1.27818E-06, 0.0017856, -0.00158144, 5.95681E-05, 5.95681E-05, 5.95681E-05
4340, 1,0.00209684, -0.00059877, 0.000592921, 93.3958, -28.2802, 0.00391443, 157.892, 36.4169, 0, 0.00179454, 0.00268384, 0.00284355, 121.147, 7.6611, 0, 0.00179538, 0.00150989, 0.00166195, 65.6465, 7.68432, 0, 0.00179538, 8.26216, 115.717, -146.962, 4.63958, 62.8071, -90.4997, 0.000301223, 0.00257107, -0.00299653, 0.000224542, 0.000224542, 0.000224542
4341, 1,0.00163546, -0.00058928, 0.000529989, 61.4612, -30.8106, 0.00293117, 91.4794, 63.2, 0, 0.0018273, 0.00210604, 0.00255405, 80.7397, 25.2643, 0, 0.00182842, 0.00116497, 0.00149629, 42.1863, 17.3047, 0, 0.00182866, 6.89248, 77.011, -159.696, 5.96705, 40.4605, -98.3416, 0.000547297, 0.00202928, -0.00298649, 0.000402241, 0.000402241, 0.000402241
4342, 1,0.00105743, -0.00052433, 0.000370844, 8.10668, -34.8405, 0.00280578, 37.698, 127.381, 0, 0.00191844, 0.00127459, 0.00197801, 8.32404, 69.6263, 0, 0.00192023, 0.000840337, 0.00123781, 7.89197, 42.6123, 0, 0.00192108, 6.49133, -39.6674, -175.703, 6.39842, -27.5396, -106.696, 0.00123436, 0.00025852, -0.00262269, 0.000807148, 0.000807148, 0.000807148
4343, 1,0.00199076, -0.000851399, 0.00065978, 31.7771, -57.2955, 0.00504642, 111.03, 171.294, 0, 0.00140523, 0.00245732, 0.00333195, 36.7756, 106.73, 0, 0.00140671, 0.00152524, 0.00201625, 26.8339, 60.9111, 0, 0.00140775, 26.2896, -220.809, -125.672, 19.3721, -128.876, -73.229, 0.00223671, -0.00299206, -0.000976577, 0.00136921, 0.00136921, 0.00136921
4344, 1,0.0023945, -0.00139313, 0.000991162, 12.9133, -92.7137, 0.00668284, 3.98645, 289.402, 0.0655463, 0.00123816, 0.00297775, 0.00490552, 13.6252, 170.264, 0, 0.00124078, 0.00181488, 0.00293737, 12.3861, 98.1107, 0, 0.00124223, 3.7842, -229.833, -284.743, 3.53191, -135.395, -162.469, 0.00277465, -0.00218193, -0.00335561, 0.00163397, 0.00163397, 0.00163397
4345, 1,0.00403023, -0.00236997, 0.00159044, -29.128, -150.844, 0.0208723, -127.554, 466.217, 0.515944, 0.000875647, 0.00475093, 0.00904395, -40.5826, 268.585, 0.052132, 0.000881036, 0.00336146, 0.00600435, -15.8727, 150.692, 0.051006, 0.000882775, -60.2531, -197.826, -547.676, -39.5381, -113.162, -299.375, 0.00424666, 0.000458063, -0.00919371, 0.00267566, 0.00267566, 0.00267566
4346, 1,0.00846329, -0.00321481, 0.00213093, -47.0326, -193.041, 0.0371328, -110.652, 459.01, 0.954134, 0.000794655, 0.00941002, 0.0155344, -61.5521, 354.741, 0.172306, 0.000802291, 0.00753432, 0.0114125, -32.0841, 197.905, 0.1713, 0.000804554, -142.025, -137.741, -784.457, -92.5401, -79.1178, -422.057, 0.00630454, 0.0064961, -0.0191696, 0.00443128, 0.00443128, 0.00443128
4347, 1,0.0014235, -0.000567198, 0.000403323, -23.4465, -42.9278, 0.0101502, -84.8077, 381.313, 0.198768, 0.000985018, 0.00165512, 0.00293222, -28.5995, 140.624, 0, 0.000989637, 0.00119469, 0.00215959, -18.1331, 97.4176, 0, 0.000990331, -36.042, -105.278, -280.551, -22.9847, -73.621, -195.647, 0.00149668, 1.97395E-05, -0.00379852, 0.00109336, 0.00109336, 0.00109336
4348, 1,0.0127132, 0.00229718, 0.0015841, 372.824, 115.055, 0.0274564, 468.81, -156.29, 0.397351, 0.00113102, 0.0150053, 0.0110955, 487.84, -199.338, 0.157246, 0.00113134, 0.0104231, 0.0079401, 257.847, -118.413, 0.144233, 0.0011297, 80.0234, 35.2759, 482.716, 64.1699, 35.6638, 255.407, -0.00452854, -0.0067171, 0.0147914, -0.00308399, -0.00308399, -0.00308399
4349, 1,0.029895, 0.00608466, 0.00451854, 369.888, 123.272, 0.0727777, 745.33, -243.825, 1, 0.00118761, 0.035955, 0.02754, 493.053, -194.879, 0.554296, 0.00118243, 0.0238468, 0.018604, 246.828, -97.4839, 0.417595, 0.00117946, 76.1698, 20.6055, 487.861, 38.9266, 10.7557, 242.769, -0.012181, -0.0186593, 0.0354189, -0.00840614, -0.00840614, -0.00840614
4350, 1,0.00125653, -0.000617741, 0.00044095, -13.6702, -46.2863, 0.00482641, -10.6679, 315.157, 0.00206121, 0.00109721, 0.00151892, 0.00249097, -18.3389, 119.207, 0, 0.00110071, 0.000994713, 0.00170608, -8.9719, 73.3133, 0, 0.00110153, -19.4564, -96.4701, -241.693, -9.67856, -60.2845, -149.977, 0.00149758, -0.000157003, -0.00327501, 0.000982017, 0.000982017, 0.000982017
4351, 1,0.00480054, 0.00134356, 0.000955524, 257.164, 78.4816, 0.0211157, 496.912, -204.453, 0.276295, 0.00127328, 0.0061419, 0.00451759, 335.416, -57.205, 0, 0.00126948, 0.0034608, 0.0026103, 179.077, -17.2834, 0, 0.00126865, -64.7419, -70.5203, 306.877, -52.0133, -56.5087, 160.372, -0.00224573, -0.00239146, 0.00556535, -0.00135312, -0.00135312, -0.00135312
4352, 1,0.0182483, 0.0036442, 0.00258406, 372.506, 117.952, 0.0656001, 618.427, -269.821, 1, 0.00133119, 0.0218857, 0.0163404, 490.411, -197.169, 0.289685, 0.00132311, 0.014614, 0.0111891, 254.651, -113.817, 0.230633, 0.00132087, 76.5909, 26.7794, 488.136, 59.4311, 29.071, 252.949, -0.00720771, -0.0107369, 0.021761, -0.00467664, -0.00467664, -0.00467664
4353, 1,0.00105348, -0.000516815, 0.000364399, 6.54081, -34.7202, 0.0031153, 20.2571, 169.718, 0, 0.00155446, 0.00125918, 0.00198858, 5.99989, 70.7778, 0, 0.00155695, 0.000850654, 0.00128775, 7.21029, 43.1313, 0, 0.00155765, 5.20829, -37.4381, -180.104, 5.86024, -23.2665, -111.988, 0.00124051, 0.000325693, -0.00271469, 0.000819044, 0.000819044, 0.000819044
4354, 1,0.00274635, 0.000799239, 0.000599801, 157.87, 44.8486, 0.00749126, 413.737, -83.4766, 0.00117766, 0.00150277, 0.003544, 0.00257633, 202.643, -46.1897, -1.35525E-20, 0.00150186, 0.00195007, 0.00141203, 113.159, -27.3244, -1.35525E-20, 0.0015014, -22.2832, -0.590151, 161.442, -13.0211, 6.78698, 88.2075, -0.00118399, -0.000736232, 0.00266976, -0.00069333, -0.00069333, -0.00069333
4355, 1,0.0077411, 0.00184091, 0.00128535, 328.173, 106.023, 0.0328393, 496.563, -193.115, 0.495317, 0.00149172, 0.00957938, 0.00677664, 434.165, -112.464, 0.0436717, 0.00148805, 0.00590443, 0.00427641, 222.208, -53.6381, 0.0428726, 0.0014866, -49.5821, -44.5767, 431.549, -28.5886, -31.7655, 221.268, -0.00388957, -0.00375681, 0.00951663, -0.00244216, -0.00244216, -0.00244216
4356, 1,0.00470739, 0.0016438, 0.00111366, 291.637, 102.475, 0.00678125, 396.402, -101.747, 0, 0.00158636, 0.00634438, 0.00433173, 393.679, -125.84, 0, 0.00158698, 0.00307755, 0.00212295, 190.046, -59.4861, 0, 0.00158527, -15.2404, 11.4702, 381.291, -9.45869, 7.33299, 180.584, -0.00230486, -0.00173748, 0.00608441, -0.00114128, -0.00114128, -0.00114128
4357, 1,0.00374131, 0.00137768, 0.000938126, 236.014, 87.3922, 0.00458282, 288.767, -96.8496, 0, 0.00166924, 0.00511717, 0.00352626, 323.285, -109.265, 0, 0.00166958, 0.00236757, 0.0016549, 148.883, -49.6051, 0, 0.00166796, -9.46147, 20.8298, 316.428, -7.4579, 11.7326, 144.541, -0.00191715, -0.0012767, 0.00496697, -0.000938155, -0.000938155, -0.000938155
4358, 1,0.0031625, 0.00120816, 0.000832057, 202.224, 77.0281, 0.0031569, 202.051, -71.0922, 0, 0.00170472, 0.00437045, 0.00302007, 279.212, -97.6047, 0, 0.00170545, 0.00195482, 0.00135732, 125.283, -44.2321, 0, 0.00170398, -4.66621, 19.8283, 277.652, -2.55506, 10.4361, 124.815, -0.00163236, -0.00111434, 0.00433059, -0.000749474, -0.000749474, -0.000749474
4359, 1,0.00252162, 0.000998289, 0.000686325, 148.462, 61.7958, 0.00391862, 182.838, 3.20317, 0, 0.00163803, 0.00349026, 0.00248338, 208.84, -59.0714, 0, 0.00163969, 0.00158517, 0.00122517, 89.621, -19.9715, 0, 0.00163865, -5.91887, 50.1576, 132.976, -4.03689, 27.2293, 36.7222, -0.00105163, 0.000137351, 0.00187287, -0.000398796, -0.000398796, -0.000398796
4360, 1,0.00189038, 0.000794484, 0.000564454, 124.465, 53.196, 0.00300828, 159.295, -23.1757, 0, 0.0016908, 0.00265881, 0.00187395, 176.438, -68.2626, 0, 0.00169204, 0.00115462, 0.000791306, 74.0275, -26.3729, 0, 0.00169089, 2.48604, 70.3096, 131.992, 0.658318, 36.9306, 41.5299, -0.00101836, 0.000418939, 0.00170718, -0.000399661, -0.000399661, -0.000399661
4361, 1,0.00119865, 0.00061399, 0.000469949, 92.9057, 44.4114, 0.0021623, 122.855, -27.9615, 0, 0.00171285, 0.00179528, 0.00143113, 136.496, -69.3353, 0, 0.001714, 0.000652355, 0.00053462, 51.6836, -28.1303, 0, 0.00171285, 4.45573, 76.2101, 127.34, 2.3758, 39.9981, 42.017, -0.000994283, 0.000526885, 0.00159258, -0.000391468, -0.000391468, -0.000391468
4362, 1,0.00156004, 0.000541559, 0.000420766, 73.4731, 32.1384, 0.00309168, 89.5694, 75.5627, 0, 0.00184577, 0.0020602, 0.00203388, 103.664, -8.69067, 0, 0.00184829, 0.00108574, 0.00130235, 44.4941, 8.83748, 0, 0.00184777, 11.1343, 81.0048, -66.0671, 7.22004, 38.5397, -72.2721, 0.000101087, 0.00158503, -0.00154506, 0.000292698, 0.000292698, 0.000292698
4363, 1,0.00174594, 0.000539891, 0.000370482, 93.299, 34.7697, 0.00372836, 141.854, 46.0025, 0, 0.00176058, 0.00226654, 0.00187646, 127.158, -27.0048, 0, 0.00176267, 0.00123613, 0.00122918, 59.9443, -2.17997, 0, 0.00176196, 5.97773, 110.683, -35.6464, 3.45091, 54.337, -51.248, -0.000297004, 0.00192305, -0.00118778, 3.86981E-05, 3.86981E-05, 3.86981E-05
4364, 1,0.00186747, 0.000504048, 0.000361635, 107.688, 34.7454, 0.00420142, 182.857, 21.0151, 0, 0.00173842, 0.00236661, 0.00175712, 142.203, -40.8046, 0, 0.00174016, 0.00137061, 0.00121158, 73.2785, -11.4648, 0, 0.00173933, 7.82237, 136.336, -21.7448, 4.12649, 70.8131, -40.545, -0.000474407, 0.00224756, -0.00111092, -9.24539E-05, -9.24539E-05, -9.24539E-05
4365, 1,0.002592, 0.000717681, 0.000548592, 131.94, 42.2483, 0.00528061, 211.96, 50.5115, 0, 0.00173401, 0.00330945, 0.00297169, 174.178, -23.8773, 0, 0.00173611, 0.00187469, 0.00187511, 89.7092, -1.4961, 0, 0.00173548, 9.77696, 168.083, -106.228, 5.07523, 86.6311, -87.218, -0.000165044, 0.00318271, -0.00263009, 8.61739E-05, 8.61739E-05, 8.61739E-05
4366, 1,0.00218487, 0.000639633, 0.00052226, 101.226, 36.1895, 0.00419983, 136.473, 83.2895, 0, 0.00176496, 0.00282335, 0.00279384, 137.362, -5.28955, 0, 0.0017675, 0.00154709, 0.00175231, 65.1232, 10.7214, 0, 0.00176704, 8.95043, 132.381, -125.462, 4.83208, 62.9772, -99.9735, 0.000108624, 0.00272054, -0.00274326, 0.000272266, 0.000272266, 0.000272266
4367, 1,0.000891364, -0.000399088, 0.000376993, 10.9646, -19.7561, 0.00256392, 3.89306, 157.261, 0, 0.00184854, 0.00122529, 0.00189157, 25.9253, 42.7497, 0, 0.00185198, 0.000646835, 0.00121691, 0.171219, 40.2961, 0, 0.00185205, -1.66623, 25.7552, -152.338, -2.51932, -5.12341, -113.246, 0.000638907, 0.00122184, -0.00255443, 0.000581388, 0.000581388, 0.000581388
4368, 1,0.00133892, -0.000378524, 0.000308929, 12.9682, -26.2882, 0.00410421, 57.8416, 182.71, 0, 0.00134684, 0.00157812, 0.00212098, 15.8627, 78.692, 0, 0.00134912, 0.00109979, 0.00150698, 10.0763, 56.1098, 0, 0.00134961, 6.03626, -130.364, -111.749, 3.06494, -95.4005, -75.9937, 0.00136671, -0.00151623, -0.00112742, 0.000947967, 0.000947967, 0.000947967
4369, 1,0.00196171, -0.000674401, 0.000496104, 11.1566, -44.4126, 0.00864662, 26.3162, 240.576, 0.136512, 0.00119501, 0.0022778, 0.00359963, 13.555, 125.384, 0, 0.00119764, 0.00164637, 0.00261523, 8.79507, 91.6909, 0, 0.00119829, -1.14846, -127.108, -247.896, -2.42657, -96.7617, -175.885, 0.00196277, -0.000708188, -0.00328921, 0.00140517, 0.00140517, 0.00140517
4370, 1,0.00404403, -0.00134704, 0.000922913, 8.55311, -81.3037, 0.0249046, -106.242, 369.759, 0.757361, 0.00084848, 0.00454272, 0.00785138, 8.19943, 175.12, 0.0589965, 0.000854829, 0.00354543, 0.00603028, 8.91866, 116.537, 0.0575893, 0.000855671, -3.21516, -74.7243, -447.421, 0.428217, -51.9601, -298.079, 0.0042202, 0.00205428, -0.0092129, 0.00328443, 0.00328443, 0.00328443
4371, 1,0.00649848, -0.00205011, 0.00135199, -29.3506, -122.125, 0.0365717, -52.5401, 394.306, 1, 0.000772784, 0.00711377, 0.0122193, -37.5435, 257.96, 0.141157, 0.0007805, 0.00589477, 0.00960413, -20.8376, 162.814, 0.14016, 0.00078181, -58.0927, -76.7699, -639.016, -38.8868, -50.9238, -398.633, 0.00636004, 0.00563877, -0.0165429, 0.0050886, 0.0050886, 0.0050886
4372, 1,0.0013208, 0.000681472, 0.000565792, 30.939, 35.9407, 0.018352, -18.1606, 247.419, 0.466372, 0.000956483, 0.00160035, 0.00210294, 47.5702, 34.9677, 0, 0.000961143, 0.00123295, 0.0018352, 23.1133, 45.0304, 0, 0.000960986, 1.4156, -2.03085, -104.288, 8.21085, -4.20835, -139.094, 0.000634104, 0.000538745, -0.00174065, 0.000934497, 0.000934497, 0.000934497
4373, 1,0.012871, 0.00329141, 0.00234485, 353.451, 120.026, 0.0144099, 443.94, -129.119, 0.14337, 0.00109616, 0.0161574, 0.0119197, 473.371, -169.507, 0.176151, 0.00109701, 0.00958793, 0.00731613, 233.64, -81.9936, 0.125301, 0.00109523, 37.6013, 21.7594, 449.16, 22.7901, 3.9652, 219.225, -0.00555689, -0.00637968, 0.0149867, -0.00308818, -0.00308818, -0.00308818
4374, 1,0.0294151, 0.00666159, 0.0048259, 367.305, 121.057, 0.0651611, 547.108, -192.862, 1, 0.00115069, 0.0360499, 0.0270199, 488.205, -183.731, 0.552869, 0.00114751, 0.0227958, 0.0174088, 246.569, -96.3704, 0.395442, 0.00114487, 47.0836, 27.5189, 476.591, 31.7757, 18.7233, 238.612, -0.0141294, -0.0163896, 0.0348307, -0.00889766, -0.00889766, -0.00889766
4375, 1,0.00107738, -0.000609519, 0.000596997, -7.82471, -31.0575, 0.0108031, -44.7656, 327.065, 0.19904, 0.00106325, 0.001354, 0.00240801, 4.03243, 77.411, 0, 0.00106827, 0.00101459, 0.00188685, -7.7748, 71.3544, 0, 0.00106838, -17.0769, -27.3703, -187.786, -10.1976, -26.3064, -177.559, 0.000886302, 0.000654162, -0.00279675, 0.000935016, 0.000935016, 0.000935016
4376, 1,0.00648876, 0.00191867, 0.00134318, 323.692, 110.157, 0.0122101, 432.868, -121.711, 0.103029, 0.00123433, 0.00839461, 0.0061127, 433.307, -108.944, 0.0192402, 0.00123395, 0.00459312, 0.0034561, 214.592, -47.2015, 0.0171077, 0.0012327, -29.35, -3.27476, 359.457, -18.4758, -6.35782, 166.438, -0.00274024, -0.00210063, 0.00662772, -0.00146148, -0.00146148, -0.00146148
4377, 1,0.0180132, 0.00428285, 0.00303525, 348.437, 119.043, 0.0470184, 500.3, -186.102, 0.740789, 0.00128636, 0.0222749, 0.0163721, 467.244, -155.173, 0.292297, 0.00128361, 0.0137643, 0.0103296, 229.865, -72.4172, 0.209179, 0.00128146, 7.17051, 3.72638, 454.623, 0.0872964, -3.27801, 220.442, -0.00913865, -0.00934321, 0.0214903, -0.0057472, -0.0057472, -0.0057472
4378, 1,0.00124844, 0.000509864, 0.00048673, 30.7878, 25.0605, 0.00393282, 49.5886, 181.635, 0, 0.00150214, 0.00165183, 0.00216085, 50.9668, 35.1614, 0, 0.00150572, 0.000917536, 0.00145671, 13.9573, 37.6908, 0, 0.00150565, -4.69076, 30.7025, -131.496, -3.99102, 9.72335, -118.805, 0.000463314, 0.00121151, -0.00224539, 0.000516351, 0.000516351, 0.000516351
4379, 1,0.00374658, 0.00134842, 0.000952852, 219.806, 81.21, 0.00582319, 284.628, -12.4811, 0, 0.00145257, 0.00503486, 0.00376115, 298.048, -80.5153, 0, 0.00145418, 0.00251343, 0.00203321, 144.278, -33.7782, 0, 0.00145308, 1.43625, 49.3765, 190.733, 5.67545, 35.7583, 59.9008, -0.00123457, -0.000217917, 0.00275902, -0.00041278, -0.00041278, -0.00041278
4380, 1,0.00880965, 0.00230491, 0.00160704, 338.787, 113.94, 0.0200287, 466.636, -147.909, 0.245811, 0.00144234, 0.0111006, 0.00784751, 452.347, -136.676, 0.0729565, 0.00144166, 0.00652836, 0.00467404, 225.606, -66.6864, 0.058176, 0.00143994, -21.5057, -7.95539, 439.488, -10.1428, -5.45326, 215.655, -0.00443542, -0.00395575, 0.010703, -0.00264552, -0.00264552, -0.00264552
4381, 1,0.00238694, -0.00135502, 0.000968558, 27.0288, -88.7864, 0.00651273, 21.8848, 227.013, 0.086664, 0.00119492, 0.00295148, 0.004725, 28.9321, 150.255, 0, 0.00119663, 0.00183439, 0.00283286, 25.5878, 83.5409, 0, 0.00119793, -77.4471, -171.923, -201.393, -33.6113, -92.6042, -124.407, 0.000804942, -0.00126619, -0.00197668, 0.000677357, 0.000677357, 0.000677357
4382, 1,0.00385548, -0.00220884, 0.00150626, 5.08164, -139.671, 0.023575, -80.0193, 379.024, 0.628489, 0.000895637, 0.00461014, 0.00849829, 2.47485, 240.942, 0.0301949, 0.000900573, 0.00312722, 0.0055973, 8.46319, 139.469, 0.0301949, 0.000902082, -185.167, -150.818, -386.84, -91.024, -83.9734, -243.408, 0.000273315, 0.000935062, -0.00518418, 0.000736491, 0.000736491, 0.000736491
4383, 1,0.00858628, -0.00310038, 0.00208184, -57.1925, -174.086, 0.0349116, -114.975, 424.939, 0.98308, 0.000776883, 0.00946213, 0.016619, -69.0197, 334.618, 0.210765, 0.000784003, 0.00775403, 0.0128307, -44.5509, 200.743, 0.210765, 0.000785935, -321.508, -170.281, -512.065, -173.29, -110.979, -317.961, -0.000985802, 0.00516187, -0.0103278, 0.000828701, 0.000828701, 0.000828701
4384, 1,0.00202448, -0.00085794, 0.000596561, 8.98201, -57.573, 0.00463361, 64.0432, 206.014, 0, 0.00101147, 0.00234205, 0.0038741, 7.02456, 135.394, 0, 0.00101263, 0.00171183, 0.00270126, 11.1917, 89.7473, 0, 0.00101338, -173.746, -40.6443, -191.791, -116.495, -20.8722, -131.875, -0.00157082, 0.00128207, -0.00190827, -0.0010776, -0.0010776, -0.0010776
4385, 1,0.0124763, 0.00138565, 0.000935863, 329.343, 76.3413, 0.0491147, 446.528, -117.578, 0.790623, 0.00120223, 0.0137681, 0.0102153, 405.187, -148.763, 0.151954, 0.0012013, 0.0112058, 0.00848198, 253.804, -94.2188, 0.151954, 0.00120014, 168.858, 61.3029, 216.129, 100.405, 44.0838, 138.168, 0.00136097, -0.00365104, 0.00492517, 0.000451983, 0.000451983, 0.000451983
4386, 1,0.0336354, 0.00460938, 0.00322667, 376.205, 120.156, 0.0983067, 1363.96, -456.348, 1, 0.00130352, 0.0380154, 0.0280465, 495.947, -201.842, 0.529087, 0.00128783, 0.029323, 0.0220477, 256.897, -112.343, 0.45905, 0.00128501, 238.686, 71.8074, 295.032, 125.199, 52.7028, 159.127, 0.00480271, -0.0146994, 0.0145379, 0.00207164, 0.00207164, 0.00207164
4387, 1,0.00168702, -0.000712411, 0.00048683, 14.6345, -46.4249, 0.00354607, 102.46, 84.8481, 0, 0.00112777, 0.00188386, 0.00323486, 10.8946, 101.77, 0, 0.00112746, 0.00149542, 0.00233291, 18.6041, 67.5445, 0, 0.00112809, -128.179, 1.20121, -178.333, -90.0541, 13.1869, -125.766, -0.00113403, 0.00162318, -0.00214027, -0.000866124, -0.000866124, -0.000866124
4388, 1,0.0100182, 0.00123611, 0.000884681, 309.277, 66.8669, 0.0583494, 449.57, -107.487, 0.93884, 0.00132, 0.0111762, 0.00811629, 375.629, -126.405, 0.104521, 0.00131804, 0.00887991, 0.00648752, 243.231, -86.8003, 0.104269, 0.00131714, 111.089, 73.7287, 194.396, 66.6724, 60.2834, 133.445, -0.000352855, -0.00158824, 0.00411797, -0.00100182, -0.00100182, -0.00100182
4389, 1,0.0263396, 0.00314314, 0.00221144, 364.648, 115.785, 0.0916415, 1248.11, -407.847, 1, 0.00140791, 0.0292962, 0.0214994, 480.123, -180.785, 0.416406, 0.00139229, 0.0234309, 0.0175762, 249.491, -99.922, 0.392346, 0.00138986, 199.067, 41.5319, 301.758, 102.092, 32.226, 165.448, 0.00186736, -0.0117758, 0.0137256, -6.68387E-05, -6.68387E-05, -6.68387E-05
4390, 1,0.00140975, -0.000663569, 0.00044991, 11.1799, -43.1735, 0.00514922, 238.266, 6.35919, 0, 0.00160224, 0.00161962, 0.0027935, 9.49465, 91.3931, 0, 0.00160003, 0.00120299, 0.0019232, 12.9952, 59.6529, 0, 0.00160085, -112.874, 2.7095, -164.015, -75.3888, 9.23671, -112.807, -0.000953626, 0.00149426, -0.00202329, -0.000661128, -0.000661128, -0.000661128
4391, 1,0.00423472, 0.000925555, 0.000704174, 240.947, 52.7925, 0.0472967, 479.054, -158.231, 0.754182, 0.0015789, 0.00512767, 0.00384514, 293.181, -69.0494, 1.69407E-21, 0.00157368, 0.0033585, 0.0024834, 189.007, -43.8048, 1.69407E-21, 0.00157303, 54.575, 30.5976, 121.976, 23.3272, 21.9471, 86.1401, -0.000231622, -0.000496156, 0.00184762, -0.000489502, -0.000489502, -0.000489502
4392, 1,0.0131906, 0.00192387, 0.00133736, 339.908, 104.651, 0.0816354, 980.005, -314.031, 1, 0.00160174, 0.0150346, 0.0108682, 444.285, -140.271, 0.154587, 0.00158733, 0.0113715, 0.00846813, 235.774, -74.1529, 0.154357, 0.00158546, 154.412, 4.05359, 262.348, 72.7109, 2.81813, 146.93, 0.000609141, -0.00554097, 0.00742073, -0.000523792, -0.000523792, -0.000523792
4393, 1,0.00551258, 0.0014484, 0.000983568, 315.811, 87.3763, 0.0680962, 657.036, -262.421, 1, 0.00177242, 0.00693596, 0.00476052, 403.027, -128.599, 0.00862516, 0.0017591, 0.00410617, 0.0028706, 228.714, -71.1942, 0.00731346, 0.00175746, 152.084, 9.43414, 224.28, 77.4235, 4.60512, 131.554, 0.000671278, -0.00201837, 0.00344307, -2.0198E-05, -2.0198E-05, -2.0198E-05
4394, 1,0.00379628, 0.00115924, 0.000789672, 249.562, 72.3033, 0.0362029, 489.342, -175.831, 0.550932, 0.00185216, 0.00494409, 0.00333428, 321.769, -116.926, 0, 0.00184805, 0.00265853, 0.00178797, 177.44, -68.903, 0, 0.00184661, 137.03, 31.5024, 182.247, 75.0699, 26.2424, 105.397, 0.000727132, -0.00117885, 0.00234807, 0.000178269, 0.000178269, 0.000178269
4395, 1,0.00351443, 0.00102365, 0.000701308, 218.151, 64.6016, 0.0127179, 452.053, -130.202, 0.103437, 0.00188846, 0.00453067, 0.00314445, 282.632, -91.8186, 0, 0.00188704, 0.00250419, 0.00176483, 153.769, -47.7456, 0, 0.00188569, 109.424, 6.51665, 159.515, 52.6022, 0.510405, 90.1241, 0.00070107, -0.0013085, 0.00209655, 0.000196195, 0.000196195, 0.000196195
4396, 1,0.00235973, 0.0006938, 0.000522336, 139.859, 40.0261, 0.0327127, 515.813, -220.744, 0.489066, 0.00183038, 0.00304265, 0.00244382, 179.659, -46.5822, 0, 0.00182276, 0.00168511, 0.00143175, 100.228, -26.5667, 0, 0.00182217, 33.025, 46.2753, 60.4463, 13.7501, 29.6356, 36.3145, -0.000237691, 0.000225671, 0.000767525, -0.000326995, -0.000326995, -0.000326995
4397, 1,0.00197993, 0.00052576, 0.000357782, 123.094, 32.9829, 0.0152489, 460.552, -142.577, 0.153514, 0.00189008, 0.00249998, 0.00177048, 155.995, -49.6833, 0, 0.00188682, 0.00146403, 0.00107762, 90.2465, -27.4499, 0, 0.00188614, 44.3805, 49.4954, 55.1739, 23.4437, 28.0007, 30.9053, 1.23911E-05, 0.00026135, 0.000532086, -7.77962E-05, -7.77962E-05, -7.77962E-05
4398, 1,0.00146181, 0.000357213, 0.000267935, 92.3501, 24.758, 0.0060577, 361.251, -100.588, 0, 0.00191033, 0.00181125, 0.00134643, 116.913, -41.827, 0, 0.00190851, 0.00111728, 0.000830124, 67.9104, -20.4418, 0, 0.00190785, 33.2731, 40.7702, 51.4377, 13.07, 19.41, 28.8455, -3.6374E-05, 0.000203508, 0.000511324, -0.000125409, -0.000125409, -0.000125409
4399, 1,0.00146232, -0.000508753, 0.000406847, 55.8839, -27.8036, 0.00586999, 289.48, -16.4807, 0, 0.00216729, 0.00175967, 0.00220603, 66.2713, 22.9685, 0, 0.00216591, 0.00116807, 0.00140575, 45.6084, 12.8729, 0, 0.00216626, -46.1223, 50.7573, -73.5407, -26.4584, 33.9311, -46.0915, -0.000624323, 0.00143427, -0.00118246, -0.000367553, -0.000367553, -0.000367553
4400, 1,0.00140717, -0.000438203, 0.000407158, 59.0779, -22.0586, 0.00470871, 235.41, -17.2902, 0, 0.00200946, 0.00178088, 0.00194022, 75.4446, 11.8378, 0, 0.00200852, 0.00103515, 0.00113005, 42.7549, 8.25072, 0, 0.00200863, -43.1634, 60.6891, -53.0393, -26.2544, 33.0889, -31.5866, -0.000748521, 0.00146989, -0.000913273, -0.000447203, -0.000447203, -0.000447203
4401, 1,0.00140968, 0.000382901, 0.000382075, 64.9704, 18.2591, 0.00316331, 189.53, -53.627, 0, 0.00195045, 0.00179178, 0.00183054, 83.2037, 2.10757, 0, 0.00194869, 0.00102818, 0.00106811, 46.7555, 2.55517, 0, 0.00194867, -36.367, 79.1926, -49.1484, -21.4804, 43.9463, -30.1314, -0.000765087, 0.00170861, -0.000977545, -0.000443143, -0.000443143, -0.000443143
4402, 1,0.00190559, -0.000725388, 0.000626136, 73.2933, -38.7106, 0.00336865, 173.051, -18.5812, 0, 0.0019321, 0.00243231, 0.00290417, 93.7634, 28.4789, 0, 0.00193062, 0.00137898, 0.00165343, 52.8277, 16.5908, 0, 0.001931, -74.7938, 93.4574, -104.1, -40.5534, 52.5856, -61.8045, -0.00113535, 0.00242599, -0.00175234, -0.000599099, -0.000599099, -0.000599099
4403, 1,0.00166562, -0.000721606, 0.000579049, 54.9702, -40.4396, 0.00376338, 174.382, 4.70411, 0, 0.00201007, 0.00210176, 0.00278329, 69.2312, 40.4803, 0, 0.0020089, 0.00122971, 0.00162776, 40.7195, 23.4111, 0, 0.00200946, -79.4688, 68.1395, -110.112, -43.6366, 39.8759, -66.4725, -0.00102716, 0.00207924, -0.0017085, -0.000539104, -0.000539104, -0.000539104
4404, 1,0.0010387, -0.000622359, 0.000446128, -0.83579, -42.6426, 0.00224957, 39.8697, 89.5194, 0, 0.00216353, 0.00130675, 0.00219859, -1.44967, 85.6095, 0, 0.00216366, 0.000771888, 0.00131124, -0.176947, 49.9672, 0, 0.00216491, -84.993, -48.1021, -123.733, -47.5862, -26.3463, -75.969, -0.00041421, 0.000330586, -0.00130522, -0.000185779, -0.000185779, -0.000185779
4405, 1,0.0017516, -0.000836492, 0.000645926, 25.2955, -56.1126, 0.00388175, 80.5943, 138.447, 0, 0.00137972, 0.00220371, 0.00304662, 30.0668, 100.136, 0, 0.00138058, 0.00130174, 0.00176447, 20.5975, 55.5356, 0, 0.00138158, -26.1866, -199.403, -74.818, -10.8082, -109.92, -45.8787, 0.00106072, -0.00264152, -4.42476E-05, 0.000681865, 0.000681865, 0.000681865
4406, 1,0.00290564, -0.00155246, 0.00110192, 25.7232, -101.935, 0.0103423, -68.1837, 359.745, 0.214729, 0.001151, 0.00353943, 0.00575246, 27.0436, 189.649, -1.69407E-21, 0.00115509, 0.00228173, 0.0035822, 24.7446, 112.543, -1.69407E-21, 0.00115654, -94.0385, -275.716, -199.193, -42.1148, -169.535, -125.98, 0.00111383, -0.00283677, -0.00135449, 0.000993679, 0.000993679, 0.000993679
4407, 1,0.00493016, -0.00243891, 0.00163328, -32.1538, -152.709, 0.0325324, -153.713, 549.724, 0.771262, 0.000870277, 0.00557401, 0.0104071, -44.6423, 282.728, 0.0796173, 0.00087978, 0.00429958, 0.00738003, -19.1929, 165, 0.0796173, 0.000881541, -250.19, -211.934, -386.06, -135.23, -121.166, -238.604, -0.000322662, 0.000615977, -0.00509333, 0.000423006, 0.000423006, 0.000423006
4408, 1,0.010457, -0.00316905, 0.00207103, -44.823, -184.187, 0.0416474, -100.828, 520.43, 1, 0.000763438, 0.0112928, 0.0177812, -58.9662, 377.379, 0.211718, 0.000772783, 0.00962874, 0.0138603, -30.5062, 226.876, 0.211718, 0.000774925, -443.106, -162.936, -526.096, -257.66, -99.306, -323.661, -0.00454416, 0.00699355, -0.00939066, -0.00255272, -0.00255272, -0.00255272
4409, 1,0.00198405, -0.00106513, 0.00071323, -11.4818, -71.6385, 0.0113965, -0.473847, 329.539, 0.187932, 0.000986822, 0.00233029, 0.00455679, -16.692, 169.01, 0, 0.000990016, 0.00164436, 0.00315854, -5.98039, 111.372, 0, 0.000990942, -194.901, -73.1569, -238.971, -123.437, -43.7177, -166.962, -0.00131808, 0.00115283, -0.00257659, -0.00071423, -0.00071423, -0.00071423
4410, 1,0.0115138, 0.00115058, 0.000786134, 325.99, 66.2969, 0.033014, 404.098, -77.1827, 0.516859, 0.00117174, 0.0126193, 0.00959271, 392.058, -155.161, 0.138822, 0.00117287, 0.0104186, 0.00818672, 260.052, -105.405, 0.138822, 0.00117185, 201.382, 17.7155, 246.385, 131.791, 11.3553, 173.068, 0.00281995, -0.00597325, 0.00588029, 0.00192288, 0.00192288, 0.00192288
4411, 1,0.0329858, 0.00430063, 0.00306382, 387.284, 121.811, 0.0918844, 1263.91, -424.432, 1, 0.00126137, 0.0370544, 0.0281977, 508.77, -226.506, 0.567882, 0.00124856, 0.0289807, 0.0225637, 266.143, -128.629, 0.512054, 0.0012455, 277.475, 72.8624, 329.181, 148.082, 55.7529, 182.051, 0.00702608, -0.0175299, 0.015878, 0.00382487, 0.00382487, 0.00382487
4412, 1,0.0014669, -0.000796177, 0.000567446, -18.2167, -56.2227, 0.00496036, 33.1072, 270.423, 0, 0.0010975, 0.00180475, 0.00320551, -20.9746, 141.53, 0, 0.0010998, 0.00112956, 0.00208033, -15.4523, 91.3506, 0, 0.00110069, -147.587, -93.1413, -183.861, -94.8147, -58.9795, -120.258, -0.000818717, 0.000264854, -0.00174224, -0.000493181, -0.000493181, -0.000493181
4413, 1,0.00634167, 0.000875478, 0.000624904, 285.483, 48.2345, 0.0410292, 432.654, -100.908, 0.661305, 0.00128869, 0.0071784, 0.00522791, 333.213, -104.551, 0.0362353, 0.00128758, 0.00551687, 0.00404701, 237.98, -80.2292, 0.0358708, 0.00128706, 126.879, 1.22054, 185.553, 88.0273, 8.01853, 144.642, 0.000893284, -0.00247262, 0.00330978, 0.000370746, 0.000370746, 0.000370746
4414, 1,0.0230396, 0.00268038, 0.001856, 364.22, 114.582, 0.0856654, 1098.97, -356.38, 1, 0.00136589, 0.0256249, 0.0195507, 478.654, -183.18, 0.362536, 0.00135316, 0.0204792, 0.0161339, 249.942, -102.657, 0.349664, 0.00135092, 233.358, 10.1467, 306.035, 123.75, 13.092, 171.129, 0.00442273, -0.0131055, 0.0124047, 0.00257745, 0.00257745, 0.00257745
4415, 1,0.00115796, -0.000657563, 0.00047626, -0.0933395, -45.3746, 0.00247608, 2.09804, 154.64, 0, 0.00154368, 0.00145083, 0.00241983, -0.616899, 92.4055, 0, 0.00154524, 0.00086642, 0.00147284, 0.465963, 53.839, 0, 0.00154621, -90.8461, -49.0165, -137.354, -51.6681, -24.5833, -85.2656, -0.000411281, 0.000418525, -0.00150638, -0.000190811, -0.000190811, -0.000190811
4416, 1,0.00308223, 0.000615543, 0.000475934, 167.223, 33.1699, 0.0338017, 483.616, -175.101, 0.51635, 0.00152992, 0.00365613, 0.00272547, 199.248, -36.9254, 0, 0.00152474, 0.00252646, 0.00186112, 135.719, -25.3572, 0, 0.00152445, 23.5914, -6.25711, 93.4418, 4.2285, -2.44823, 74.2914, -0.000286508, -0.000747455, 0.00163276, -0.000510208, -0.000510208, -0.000510208
4417, 1,0.0102287, 0.00170539, 0.00119841, 330.986, 95.4357, 0.0753741, 830.412, -286.289, 1, 0.00155528, 0.0118862, 0.00857996, 426.166, -134.234, 0.0987556, 0.00154257, 0.00858934, 0.00643803, 236.019, -75.9694, 0.09832, 0.00154102, 172.347, -22.3454, 252.699, 94.0128, -16.0944, 149.99, 0.00156512, -0.00520491, 0.00594379, 0.000706834, 0.000706834, 0.000706834
4418, 1,0.00459938, 0.00124708, 0.00086458, 271.072, 76.073, 0.0519687, 561.943, -284.701, 0.831391, 0.00172119, 0.00581993, 0.0041504, 346.73, -97.8503, 0, 0.00170913, 0.00339761, 0.00248502, 195.717, -50.6768, 0, 0.00170782, 110.433, -7.76458, 190.882, 48.0937, -9.51005, 113.447, 0.000404191, -0.00171774, 0.00290057, -0.000166022, -0.000166022, -0.000166022
4419, 1,0.00343582, 0.000982239, 0.000679686, 212.855, 61.3036, 0.0182865, 434.856, -95.9936, 0.208947, 0.00179475, 0.00440674, 0.00314609, 273.936, -87.3352, 0, 0.00179413, 0.00247362, 0.00181794, 151.946, -46.8432, 0, 0.00179295, 94.49, 11.7617, 155.754, 42.7809, 6.48309, 91.2655, 0.000448574, -0.00112716, 0.00209504, -3.74518E-06, -3.74518E-06, -3.74518E-06
4420, 1,0.00302948, 0.000858055, 0.000602217, 191.551, 53.9423, 0.0065349, 394.113, -114.268, 0, 0.00183209, 0.0038814, 0.00265982, 245.331, -82.3968, 0, 0.00183115, 0.00218257, 0.00147244, 137.902, -46.175, 0, 0.00183007, 90.1525, 8.4775, 148.56, 46.6481, 2.66802, 89.209, 0.000526243, -0.00111855, 0.00192883, 0.000179087, 0.000179087, 0.000179087
4421, 1,0.0016704, 0.000448563, 0.000344403, 86.4418, 25.1977, 0.0180861, 482.707, -176.001, 0.210263, 0.00177516, 0.00210593, 0.00168033, 111.374, -14.9698, -1.0842E-19, 0.00176985, 0.00124344, 0.00101522, 61.6841, -3.93166, -1.0842E-19, 0.00176954, 4.55445, 14.9152, 25.4396, -7.35239, 5.69778, 13.4496, -0.000248555, 7.18321E-05, 0.000419414, -0.000323983, -0.000323983, -0.000323983
4422, 1,0.0014522, 0.00037518, 0.000263257, 91.9584, 23.9691, 0.00640133, 339.745, -49.8169, 0, 0.00183159, 0.00182002, 0.00127413, 115.721, -39.1901, 0, 0.00183128, 0.00108956, 0.000767723, 68.339, -22.2937, 0, 0.00183077, 29.7736, 42.1601, 45.6366, 14.2688, 23.0094, 29.603, -3.90069E-05, 0.000273497, 0.000401283, -9.92439E-05, -9.92439E-05, -9.92439E-05
4423, 1,0.00100763, 0.000246538, 0.000202795, 74.2172, 18.172, 0.00306581, 177.805, -44.2216, 0, 0.00185134, 0.0012513, 0.000952108, 92.3133, -43.6794, 0, 0.00185133, 0.000765861, 0.000558366, 56.1681, -26.06, 0, 0.0018508, 34.667, 51.1099, 45.2614, 19.9625, 29.4514, 28.7661, 8.84265E-06, 0.000393156, 0.000306679, -2.34678E-05, -2.34678E-05, -2.34678E-05
4424, 1,0.000835227, -0.000482774, 0.000351567, 22.545, -28.3005, 0.00192316, 40.1423, 68.1265, 0, 0.0020963, 0.00105466, 0.00165322, 27.3954, 30.8356, 0, 0.00209757, 0.00061647, 0.000952622, 17.7117, 16.0008, 0, 0.00209807, -40.4691, 15.2637, -67.3016, -20.7603, 10.0526, -37.2948, -0.000335204, 0.000807962, -0.000972913, -0.000152493, -0.000152493, -0.000152493
4425, 1,0.00122867, -0.000432111, 0.000382641, 50.0394, -22.4917, 0.00268717, 103.146, 32.0517, 0, 0.00194417, 0.00156115, 0.00181196, 63.6638, 14.0011, 0, 0.00194474, 0.000896683, 0.00104874, 36.435, 8.38619, 0, 0.00194492, -37.5863, 55.3538, -59.7708, -20.9765, 30.9527, -35.1347, -0.000557883, 0.00139118, -0.00106022, -0.000295193, -0.000295193, -0.000295193
4426, 1,0.00145521, -0.000401219, 0.000399017, 69.4809, 18.8955, 0.00265655, 133.633, -10.7663, 0, 0.00188874, 0.00185037, 0.00187185, 88.3047, -0.90656, 0, 0.00188844, 0.00106127, 0.00107836, 50.7099, -0.521707, 0, 0.00188843, -29.3858, 85.1734, -53.0679, -15.7976, 48.3204, -30.9577, -0.000628082, 0.00178771, -0.00114462, -0.000334815, -0.000334815, -0.000334815
4427, 1,0.00195059, -0.000717977, 0.000629111, 78.2221, -37.5759, 0.00354335, 152.877, 19.6074, 0, 0.00187143, 0.00249069, 0.00290803, 100.071, 23.7273, 0, 0.0018713, 0.0014106, 0.00165213, 56.3777, 13.8457, 0, 0.0018716, -64.596, 99.8382, -106.424, -34.7959, 56.2099, -62.951, -0.000960572, 0.00248617, -0.00191011, -0.000486932, -0.000486932, -0.000486932
4428, 1,0.0014972, -0.000705044, 0.000558001, 47.3273, -39.3716, 0.0027374, 90.9778, 51.5957, 0, 0.00194485, 0.00190773, 0.00260606, 60.6321, 39.7073, 0, 0.00194522, 0.00108694, 0.00149374, 34.0327, 23.3114, 0, 0.00194574, -69.349, 60.1217, -109.895, -37.5881, 33.6806, -66.0269, -0.000793541, 0.00189744, -0.00174776, -0.000381253, -0.000381253, -0.000381253
4429, 1,0.00126832, -0.00061541, 0.000472161, 8.4215, -42.5495, 0.00351299, 64.3409, 136.932, 0, 0.00208461, 0.00159381, 0.002256, 10.2761, 87.7295, 0, 0.00208627, 0.000945269, 0.00132051, 6.62707, 51.3662, 0, 0.0020875, -69.7322, -76.5921, -116.864, -37.0153, -46.0288, -71.0544, -2.81265E-05, -0.000238732, -0.00115654, 8.93733E-05, 8.93733E-05, 8.93733E-05
4430, 1,0.00223302, -0.00099697, 0.000773922, 41.3079, -65.4733, 0.0064487, 153.472, 203.541, 0, 0.0013198, 0.0027811, 0.00376783, 48.8261, 111.536, 0, 0.00132177, 0.00168681, 0.00222572, 33.8312, 62.1365, 0, 0.00132283, -16.0356, -259.655, -58.9166, -2.84172, -149.886, -33.682, 0.00147909, -0.00373665, 0.000447157, 0.000978191, 0.000978191, 0.000978191
4431, 1,0.00290014, -0.00161832, 0.00114592, 33.6877, -105.725, 0.0125819, -116.181, 394.761, 0.335261, 0.00110928, 0.00357013, 0.00575025, 35.8827, 177.859, 0, 0.00111484, 0.00223255, 0.00347419, 31.5128, 98.7964, 0, 0.00111627, -124.791, -277.751, -131.034, -60.0149, -167.841, -68.533, 0.000327476, -0.0030606, -0.000153148, 0.000450989, 0.000450989, 0.000450989
4432, 1,0.00623778, -0.00256359, 0.0017035, -42.8054, -158.166, 0.0360683, -224.107, 600.926, 0.953211, 0.000845616, 0.00687734, 0.012023, -56.0256, 315.935, 0.109655, 0.000858718, 0.00560252, 0.0088384, -29.4524, 192.269, 0.10962, 0.000860556, -360.031, -250.477, -337.296, -219.373, -154.163, -203.27, -0.0028175, 0.000458694, -0.00310091, -0.0017513, -0.0017513, -0.0017513
4433, 1,0.0113989, -0.0032984, 0.00214459, -34.8638, -187.095, 0.0410609, -96.819, 570.066, 1, 0.000745616, 0.0122761, 0.0190175, -47.5507, 351.249, 0.250632, 0.000756358, 0.0105255, 0.0148837, -22.0824, 199.956, 0.250632, 0.000758521, -456.601, -150.828, -446.318, -257.647, -86.7455, -255.476, -0.00637273, 0.00751358, -0.00776393, -0.00423221, -0.00423221, -0.00423221
4434, 1,0.00295378, -0.00132682, 0.000907823, -6.57839, -86.6237, 0.0172303, -89.9906, 416.155, 0.409743, 0.000958141, 0.00342727, 0.00619508, -10.939, 212.993, 0.00904371, 0.000963214, 0.00248655, 0.00439938, -1.93587, 143.72, 0.0080436, 0.000964304, -292.22, -87.6092, -259.15, -203.229, -54.545, -173.387, -0.00256075, 0.00172352, -0.00263498, -0.00176339, -0.00176339, -0.00176339
4435, 1,0.00925481, 0.00073711, 0.000558345, 345.652, 42.8666, 0.0200422, 392.87, -85.1497, 0.268924, 0.00114179, 0.00993439, 0.00715381, 387.866, -154.481, 0.0851517, 0.00114294, 0.00858482, 0.00621998, 303.64, -123.576, 0.0851517, 0.00114234, 196.963, 28.782, 237.697, 149.228, 23.0163, 198.483, 0.00234151, -0.00404027, 0.00432954, 0.00164327, 0.00164327, 0.00164327
4436, 1,0.0296389, 0.00343772, 0.00240979, 382.098, 120.549, 0.0822526, 1011.18, -335.126, 1, 0.00121997, 0.032996, 0.0253237, 502.542, -219.966, 0.507755, 0.00121107, 0.0263014, 0.0207587, 261.763, -122.211, 0.473956, 0.00120831, 299.959, 60.2939, 299.645, 159.028, 42.4803, 165.123, 0.00964573, -0.0162344, 0.0115643, 0.00673369, 0.00673369, 0.00673369
4437, 1,0.00197863, -0.0010005, 0.0007101, -16.5182, -69.118, 0.0101437, -90.8321, 442.322, 0.158454, 0.00106593, 0.00239683, 0.00409708, -19.0668, 175.73, 0, 0.0010713, 0.00156104, 0.00271067, -13.9192, 116.402, 0, 0.00107233, -200.242, -135.534, -191.415, -128.801, -97.0005, -123.403, -0.00124161, -8.1003E-05, -0.00152813, -0.00066546, -0.00066546, -0.00066546
4438, 1,0.00437606, 0.000559033, 0.000439466, 255.676, 29.6554, 0.0282352, 440.589, -129.895, 0.421807, 0.00125726, 0.00490734, 0.00369455, 284.371, -67.69, 0, 0.00125517, 0.00385276, 0.00285017, 227.258, -58.5695, 0, 0.00125499, 107.156, -26.7495, 122.663, 84.0483, -17.574, 109.234, 0.00103395, -0.00167147, 0.00173555, 0.000692298, 0.000692298, 0.000692298
4439, 1,0.0183584, 0.00221746, 0.00153582, 363.87, 112.198, 0.0782954, 889.332, -282.649, 1, 0.00132332, 0.0205476, 0.0157123, 476.025, -182.427, 0.266801, 0.00131423, 0.0161768, 0.0128526, 251.757, -105.572, 0.263876, 0.0013123, 279, 6.97995, 261.301, 153.752, 12.4174, 150.546, 0.00678727, -0.010531, 0.00721865, 0.00504146, 0.00504146, 0.00504146
4440, 1,0.00143105, -0.000771665, 0.0005552, 10.4865, -52.1796, 0.00465159, 2.02314, 293.821, 0, 0.00148739, 0.00176661, 0.00271498, 10.4508, 97.2156, 0, 0.00149215, 0.0010976, 0.0016125, 10.561, 54.6388, 0, 0.00149318, -109.334, -63.8832, -118.429, -58.1556, -38.2708, -67.4899, -0.000653083, 0.00018152, -0.00110552, -0.000241858, -0.000241858, -0.000241858
4441, 1,0.00243318, 0.00044715, 0.000381925, 127.849, 22.5865, 0.0224034, 490.768, -193.908, 0.300926, 0.00148121, 0.00287463, 0.00236734, 150.285, -16.9368, 0, 0.00147602, 0.0019942, 0.0016119, 105.478, -12.7839, 0, 0.00147592, 27.1364, -5.67911, 29.3532, 18.141, -3.67103, 23.8819, 0.00022323, -0.000404735, 0.000456236, 0.000100607, 0.000100607, 0.000100607
4442, 1,0.00818702, 0.00152779, 0.00105977, 328.216, 89.0076, 0.0663978, 644.795, -287.888, 1, 0.00150817, 0.00968809, 0.00686093, 416.899, -132.482, 0.0600003, 0.00149564, 0.00669751, 0.00485537, 239.774, -77.4888, 0.0600003, 0.00149426, 217.612, -3.99721, 183.831, 127.388, -4.43196, 109.51, 0.002964, -0.00359634, 0.00285573, 0.00191074, 0.00191074, 0.00191074
4443, 1,0.00441732, 0.00109949, 0.00076307, 261.788, 67.3913, 0.0301573, 486.952, -177.053, 0.442387, 0.00166241, 0.00550368, 0.0038998, 328.903, -92.304, 0, 0.00165856, 0.00333924, 0.00240971, 194.847, -50.2394, 0, 0.00165743, 123.824, -2.46043, 155.548, 60.8885, -6.53384, 96.3634, 0.000949723, -0.00150982, 0.00205717, 0.00028357, 0.00028357, 0.00028357
4444, 1,0.00316542, 0.000820014, 0.000574842, 197.294, 51.1533, 0.00728316, 414.031, -92.2617, 0, 0.00174018, 0.00397867, 0.00277574, 248.242, -80.4802, 0, 0.00173985, 0.00235688, 0.00164389, 146.488, -46.9441, 0, 0.0017389, 95.6253, 11.9928, 133.823, 50.5993, 5.75885, 84.4741, 0.000677469, -0.00101444, 0.00164247, 0.00025516, 0.00025516, 0.00025516
4445, 1,0.00255647, 0.000682944, 0.000487744, 161.304, 43.1148, 0.0048162, 299.723, -96.2527, 0, 0.00177505, 0.00323425, 0.00229649, 204.243, -68.4229, 0, 0.00177425, 0.00188245, 0.00133513, 118.491, -39.1677, 0, 0.00177341, 69.6559, 14.489, 121.124, 35.3257, 7.54964, 74.6278, 0.000350227, -0.000771283, 0.00153107, 8.66749E-05, 8.66749E-05, 8.66749E-05
4446, 1,0.00159938, 0.000378094, 0.000313768, 86.3981, 20.5222, 0.00678173, 350.923, -40.2635, 0, 0.00171824, 0.00197357, 0.00154736, 106.778, -17.7762, 0, 0.00171762, 0.00122736, 0.000928099, 66.099, -10.5704, 0, 0.00171741, 6.60738, 31.7468, 14.9744, 2.38741, 18.8126, 10.5113, -0.000154924, 0.000388411, 5.50237E-05, -0.000129675, -0.000129675, -0.000129675
4447, 1,0.00127848, 0.000321087, 0.0002261, 80.6298, 20.1721, 0.00328547, 167.208, -15.5149, 0, 0.00177502, 0.00159344, 0.00113365, 100.552, -33.602, 0, 0.00177554, 0.000967635, 0.000692791, 60.8751, -20.1352, 0, 0.00177516, 16.9698, 49.5873, 34.249, 8.80267, 27.4257, 24.1772, -0.00017072, 0.000518871, 0.00019718, -0.000130594, -0.000130594, -0.000130594
4448, 1,0.000840792, 0.000199728, 0.000162016, 60.6726, 14.9768, 0.00215478, 113.916, -16.0758, 0, 0.00179289, 0.00103511, 0.00079032, 75.4061, -35.1733, 0, 0.00179345, 0.000649526, 0.000477568, 46.0741, -20.2768, 0, 0.00179302, 18.1042, 57.7393, 29.6765, 9.32989, 32.1475, 19.353, -0.000164898, 0.000667389, 6.83705E-05, -0.000115159, -0.000115159, -0.000115159
4449, 1,0.000831926, -0.000561358, 0.000392415, 15.0861, -33.0008, 0.00252809, 36.8594, 111.589, 0, 0.00202747, 0.00104338, 0.00180534, 18.5181, 41.0251, 0, 0.00202979, 0.000624134, 0.00103744, 11.7801, 23.4066, 0, 0.00203037, -58.2287, 10.0793, -74.926, -30.3659, 3.51494, -43.3686, -0.000502681, 0.000859138, -0.00102181, -0.00019172, -0.00019172, -0.00019172
4450, 1,0.00133206, -0.000503435, 0.00043951, 53.0344, -26.183, 0.00291068, 97.1898, 54.2844, 0, 0.00188016, 0.0017058, 0.00203194, 68.2542, 16.7132, 0, 0.00188131, 0.000959639, 0.0011593, 37.8709, 10.1233, 0, 0.00188151, -46.5335, 63.1842, -66.7902, -25.1064, 34.215, -39.4787, -0.000663328, 0.00159962, -0.00120706, -0.00031456, -0.00031456, -0.00031456
4451, 1,0.00164757, -0.00047332, 0.000466635, 78.446, -22.14, 0.00342089, 139.282, 30.0947, 0, 0.00182716, 0.00210572, 0.00214551, 100.284, -0.910316, 0, 0.00182808, 0.00119073, 0.00121816, 56.6656, -0.433104, 0, 0.00182807, -36.131, 98.7258, -59.8639, -19.3127, 55.34, -34.728, -0.000730172, 0.00207441, -0.001329, -0.000367486, -0.000367486, -0.000367486
4452, 1,0.00222442, -0.000772503, 0.00069302, 93.9302, -39.4568, 0.00453589, 172.75, 55.9137, 0, 0.00181105, 0.00283777, 0.00319653, 119.895, 19.1158, 0, 0.00181213, 0.00161121, 0.00181381, 67.9711, 10.99, 0, 0.00181237, -67.9985, 119.81, -109.159, -36.7497, 67.9, -64.1203, -0.00106602, 0.00283612, -0.00207963, -0.000534362, -0.000534362, -0.000534362
4453, 1,0.00165977, -0.000760073, 0.000611793, 54.7689, -41.8289, 0.00309168, 74.5426, 96.1499, 0, 0.00188049, 0.00212312, 0.00285102, 70.6701, 39.8726, 0, 0.00188221, 0.00119654, 0.00163251, 38.8727, 23.7577, 0, 0.0018827, -75.444, 70.3808, -114.554, -40.6078, 38.6454, -69.3106, -0.000883029, 0.00211714, -0.00188053, -0.000401433, -0.000401433, -0.000401433
4454, 1,0.00137731, -0.00066191, 0.000500146, 9.13317, -45.0555, 0.00440277, 70.2027, 185.595, 0, 0.00200768, 0.00170963, 0.00242182, 11.0027, 93.4515, 0, 0.00201069, 0.00104922, 0.0014381, 7.36583, 56.174, 0, 0.0020119, -82.5168, -81.9926, -115.845, -43.3153, -53.4201, -71.7868, -0.000176587, -0.000262795, -0.00107686, 6.40948E-05, 6.40948E-05, 6.40948E-05
4455, 1,0.00231087, -0.00100691, 0.00078494, 35.0406, -66.3019, 0.00782527, 153.322, 206.872, 0.0330556, 0.00126256, 0.0028675, 0.00395074, 42.6356, 124.63, 0, 0.00126432, 0.00175837, 0.00239226, 27.5546, 74.2384, 0, 0.00126536, -39.0197, -281.993, -52.8783, -17.4317, -171.56, -33.7237, 0.00122125, -0.00400301, 0.000758684, 0.000883186, 0.000883186, 0.000883186
4456, 1,0.00277313, -0.00157095, 0.00111402, 15.747, -101.359, 0.0210587, -93.2906, 426.845, 0.52075, 0.00106716, 0.00341432, 0.00569995, 18.7156, 189.735, 0, 0.00107432, 0.00214248, 0.0035097, 12.9916, 116.042, 0, 0.0010756, -166.415, -253.217, -149.572, -91.6207, -164.881, -91.623, -0.000228248, -0.00235549, -0.00049513, 0.000193141, 0.000193141, 0.000193141
4457, 1,0.00709358, -0.00263827, 0.0017884, -26.3837, -155.073, 0.0402618, -89.772, 553.504, 1, 0.000821419, 0.00789363, 0.013639, -33.4341, 273.956, 0.159387, 0.000834204, 0.00631826, 0.0102478, -18.8383, 158.62, 0.159281, 0.00083592, -335.043, -190.893, -295.932, -189.353, -111.735, -174.772, -0.00319289, 0.0017428, -0.00342828, -0.00169392, -0.00169392, -0.00169392
4458, 1,0.0111832, -0.00353002, 0.00238286, -25.9528, -186.189, 0.0430123, -53.4674, 594.82, 1, 0.000726075, 0.0121701, 0.0199439, -33.9365, 300.723, 0.29218, 0.000737793, 0.0102079, 0.0155157, -17.8409, 162.44, 0.289986, 0.000739776, -380.631, -113.649, -407.889, -197.93, -61.3521, -228.039, -0.00492558, 0.00808521, -0.00898637, -0.00257934, -0.00257934, -0.00257934
4459, 1,0.00480372, -0.00167445, 0.00115532, -3.94907, -104.534, 0.0242504, -73.9134, 384.514, 0.634834, 0.000929174, 0.00539872, 0.00893509, -6.32106, 229.342, 0.0629727, 0.000934585, 0.00421828, 0.00668931, -1.33805, 149.796, 0.0623972, 0.000935836, -310.379, -74.21, -303.438, -200.499, -44.7398, -204.15, -0.00300993, 0.00336992, -0.00421492, -0.00187072, -0.00187072, -0.00187072
4460, 1,0.0042113, 0.000235757, 0.000185453, 275.354, 12.2978, 0.00384193, 176.41, 6.77431, 0, 0.00110734, 0.00435354, 0.00318469, 283.11, -104.594, 0, 0.00110934, 0.00407796, 0.00291669, 268.025, -101.655, 0, 0.00110929, 144.545, 34.4798, 134.756, 134.623, 31.541, 138.801, 0.00150716, -0.000922764, 0.00111334, 0.00134344, 0.00134344, 0.00134344
4461, 1,0.0228536, 0.00243373, 0.00163955, 361.384, 114.995, 0.0682748, 619.542, -204.169, 1, 0.00118223, 0.0252337, 0.0189092, 476.298, -179.156, 0.354556, 0.00117766, 0.0204856, 0.0157477, 246.548, -94.7809, 0.347714, 0.00117564, 253.091, 36.6475, 247.729, 127.903, 20.6828, 135.757, 0.00654256, -0.0104284, 0.00750737, 0.00433158, 0.00433158, 0.00433158
4462, 1,0.00250101, -0.00124121, 0.000864991, 10.8081, -82.1581, 0.0204218, -40.2295, 389.396, 0.449298, 0.00103454, 0.00298604, 0.00508728, 9.38747, 176.148, 0, 0.00104032, 0.00201787, 0.00337052, 12.2401, 111.665, 0, 0.00104141, -257.387, -71.6534, -199.405, -164.529, -45.0155, -125.45, -0.00217353, 0.001278, -0.00196146, -0.00122665, -0.00122665, -0.00122665
4463, 1,0.00389795, 0.000492345, 0.000491164, 210.706, -23.6248, 0.0141945, 334.687, -93.1095, 0.189787, 0.00122197, 0.00434992, 0.00361291, 231.647, -34.3918, 0, 0.00122059, 0.00345953, 0.00272008, 190.385, -35.7746, 0, 0.00122062, 34.6917, 14.6662, 53.8174, 38.5194, 12.2177, 56.5867, 0.000289622, -0.000265736, 0.000534761, 0.000349495, 0.000349495, 0.000349495
4464, 1,0.0148037, 0.00185993, 0.00126508, 369.741, 102.366, 0.0654738, 553.894, -196.116, 1, 0.00128412, 0.0166328, 0.011934, 471.978, -172.469, 0.186235, 0.00127889, 0.012983, 0.00952409, 267.614, -104.57, 0.186235, 0.00127732, 271.325, 40.9528, 205.129, 158.296, 32.1996, 123.215, 0.00571183, -0.00587423, 0.00328433, 0.00423333, 0.00423333, 0.00423333
4465, 1,0.00148061, -0.000981597, 0.000665947, -0.864493, -62.8242, 0.0104305, -24.9081, 351.242, 0.169591, 0.0014333, 0.00181648, 0.00336521, -1.5675, 117.167, 0, 0.00143961, 0.00115397, 0.00207122, 0.0122782, 72.259, 0, 0.00144066, -160.6, -31.168, -159.733, -91.4616, -23.0104, -102.305, -0.00128023, 0.00118866, -0.0018088, -0.00052589, -0.00052589, -0.00052589
4466, 1,0.00291736, 0.000554123, 0.000539979, 149.456, 26.5938, 0.013472, 319.573, -18.2799, 0.155755, 0.00142788, 0.0034656, 0.00322717, 175.775, -15.6363, 0, 0.00142778, 0.00237198, 0.00215982, 123.275, -14.5634, 0, 0.00142776, -16.6128, 40.6157, 22.906, -8.13687, 26.8792, 24.9479, -0.000504119, 0.000597046, 0.000161366, -0.000307528, -0.000307528, -0.000307528
4467, 1,0.00664385, 0.00135891, 0.000921758, 336.107, 82.2741, 0.0426789, 477.552, -184.476, 0.677726, 0.00145344, 0.00799189, 0.00558984, 418.169, -116.988, 0.0195553, 0.00144924, 0.00530112, 0.00377676, 254.171, -65.6096, 0.0195553, 0.00144802, 195.409, -15.58, 171.136, 113.644, -21.6717, 104.856, 0.00231541, -0.0026109, 0.00221409, 0.00138104, 0.00138104, 0.00138104
4468, 1,0.00439051, 0.000978889, 0.000667939, 265.458, 60.8941, 0.015823, 406.043, -107.976, 0.178524, 0.00160818, 0.00536627, 0.00368181, 326.274, -98.0329, 0, 0.00160761, 0.00341653, 0.00235783, 204.686, -58.464, 0, 0.00160658, 140.463, 9.92272, 143.714, 83.0115, 0.150057, 92.2306, 0.00134347, -0.00133853, 0.00158541, 0.000752448, 0.000752448, 0.000752448
4469, 1,0.0029326, 0.000700096, 0.000487151, 189.05, 44.1755, 0.00522236, 310.548, -85.1378, 0, 0.00168497, 0.00362973, 0.00250938, 233.117, -82.7252, 0, 0.0016849, 0.00223736, 0.00154338, 145.053, -52.8394, 0, 0.00168408, 98.5187, 30.7161, 118.941, 58.7772, 21.7971, 77.9437, 0.000751502, -0.000653854, 0.00124451, 0.00038258, 0.00038258, 0.00038258
4470, 1,0.00223518, 0.000545044, 0.00038858, 142.794, 35.1896, 0.00317495, 200.824, -67.9429, 0, 0.00171687, 0.00277854, 0.00197104, 177.905, -62.2438, 0, 0.00171672, 0.00169291, 0.00119817, 107.733, -36.9002, 0, 0.00171601, 69.9247, 18.8044, 98.0024, 39.3929, 9.85594, 61.4518, 0.00049649, -0.000582636, 0.00109611, 0.000250765, 0.000250765, 0.000250765
4471, 1,0.00203819, 0.000514488, 0.000464584, 109.27, 26.8874, 0.0056817, 257.791, 14.6276, 0, 0.00166458, 0.0025526, 0.00231573, 136.154, -20.7209, 0, 0.00166554, 0.00152384, 0.00139826, 82.3889, -13.8158, 0, 0.00166535, -4.43412, 67.2362, -0.639234, 2.36348, 40.2254, -1.1414, -0.000351103, 0.0010929, -0.000405109, -9.84694E-05, -9.84694E-05, -9.84694E-05
4472, 1,0.00164062, 0.000390404, 0.000300212, 96.9196, 23.0317, 0.00398139, 174.357, 18.6993, 0, 0.00171795, 0.00202709, 0.00154279, 119.757, -31.957, 0, 0.00171936, 0.00125644, 0.000956187, 74.1995, -19.6459, 0, 0.00171902, 3.8929, 73.2122, 18.7659, 3.06115, 41.906, 13.9707, -0.00036788, 0.00104454, -0.000157759, -0.000191433, -0.000191433, -0.000191433
4473, 1,0.00103149, 0.000258382, 0.000179408, 69.7136, 17.2166, 0.00341912, 166.302, -6.29327, 0, 0.00173438, 0.00127922, 0.000888588, 86.4138, -34.7594, 0, 0.00173519, 0.000790479, 0.000545805, 53.3465, -21.3011, 0, 0.00173481, 9.38404, 77.379, 17.5153, 6.2422, 44.1027, 13.5583, -0.000297999, 0.00108946, -0.000227081, -0.000152355, -0.000152355, -0.000152355
4474, 1,0.00142453, -0.000728549, 0.000559867, 43.4432, -40.8354, 0.00374479, 72.2511, 141.198, 0, 0.00196061, 0.00181527, 0.00264134, 55.342, 41.1406, 0, 0.0019638, 0.00103409, 0.00152827, 31.5811, 23.5597, 0, 0.00196436, -83.5913, 53.5621, -93.3926, -44.9301, 30.0736, -55.8226, -0.000984265, 0.00178113, -0.0014638, -0.000444685, -0.000444685, -0.000444685
4475, 1,0.00188847, -0.000646471, 0.000585444, 78.9534, -32.7945, 0.00473608, 156.081, 91.0422, 0, 0.00181551, 0.00241149, 0.00271696, 101.313, 17.0402, 0, 0.00181769, 0.00136648, 0.00155564, 56.6441, 10.7127, 0, 0.00181787, -65.1596, 95.7257, -81.6866, -35.2515, 52.3538, -49.2404, -0.00100304, 0.00229334, -0.00156611, -0.000471202, -0.000471202, -0.000471202
4476, 1,0.00217898, 0.000601526, 0.000600074, 105.366, 28.9773, 0.00517696, 200.013, 59.9686, 0, 0.00176553, 0.00277899, 0.00276471, 134.272, -3.95261, 0, 0.00176737, 0.00158008, 0.00157271, 76.5127, -2.47594, 0, 0.00176732, -51.2738, 133.42, -70.2888, -27.1706, 75.54, -40.9416, -0.00105224, 0.00276062, -0.00164354, -0.000520125, -0.000520125, -0.000520125
4477, 1,0.00283729, -0.000904041, 0.000845682, 125.285, -44.7655, 0.00657903, 212.855, 85.91, 0.0193893, 0.00175097, 0.00362448, 0.00391061, 160.322, 14.7425, 6.77626E-21, 0.00175302, 0.00205018, 0.00222663, 90.2537, 8.92026, 6.77626E-21, 0.00175318, -83.9808, 160.275, -120.522, -44.5285, 90.1926, -72.4249, -0.00142606, 0.00362346, -0.00243573, -0.000684933, -0.000684933, -0.000684933
4478, 1,0.00222182, -0.000901027, 0.000764258, 80.6487, -48.2926, 0.00478615, 125.35, 135.482, 0, 0.00181708, 0.00284911, 0.00353929, 104.451, 40.5752, 0, 0.00181988, 0.00159468, 0.0020187, 56.8531, 24.8754, 0, 0.00182034, -96.106, 104.126, -129.746, -52.0761, 56.5627, -79.1127, -0.00126718, 0.00284223, -0.00223264, -0.000584904, -0.000584904, -0.000584904
4479, 1,0.00126725, -0.000780155, 0.000537918, -1.55105, -51.0202, 0.00427738, 13.5589, 253.576, 0, 0.00193257, 0.00155788, 0.00263561, -2.07975, 101.561, 0, 0.00193734, 0.000980044, 0.00157493, -0.963175, 63.187, 0, 0.00193855, -112.984, -57.6942, -134.006, -63.2164, -43.8065, -82.5382, -0.000662494, 0.000379105, -0.00136427, -0.000215617, -0.000215617, -0.000215617
4480, 1,0.0020267, -0.000886316, 0.000690043, 19.8706, -59.6341, 0.00701468, 113.027, 253.773, 0.0159487, 0.00120601, 0.00251433, 0.0035349, 25.1683, 125.522, 0, 0.00120857, 0.00154348, 0.00217544, 14.6658, 77.6749, 0, 0.00120951, -61.485, -251.364, -63.7168, -31.8673, -160.277, -40.8798, 0.000775687, -0.0033409, 0.000527656, 0.000647909, 0.000647909, 0.000647909
4481, 1,0.0397359, 0.00506028, 0.00350485, 370.245, 120.247, 0.0822364, 1024.35, -357.098, 1, 0.00111445, 0.0446476, 0.0329404, 490.254, -188.622, 0.707688, 0.00110551, 0.0348646, 0.0261174, 250.474, -99.7886, 0.635648, 0.0011027, 83.6102, 69.5926, 412.664, 51.8332, 42.7705, 204.762, -0.0134325, -0.0155304, 0.0340203, -0.0101616, -0.0101616, -0.0101616
4482, 1,0.0403436, 0.00495031, 0.00347583, 369.512, 121.98, 0.0983384, 1374.14, -471.4, 1, 0.00107731, 0.045143, 0.0342193, 491.202, -192.651, 0.659812, 0.00106408, 0.0355835, 0.0274609, 248.106, -97.0116, 0.585842, 0.00106131, 124.25, 42.3393, 411.362, 69.3395, 21.5767, 200.119, -0.00893134, -0.0205131, 0.0343902, -0.00634174, -0.00634174, -0.00634174
4483, 1,0.0331757, 0.00401975, 0.00281025, 371.537, 122.808, 0.108503, 1481.83, -537.72, 1, 0.00104204, 0.0371043, 0.0281963, 493.853, -202.495, 0.381408, 0.00102594, 0.0292711, 0.0227687, 249.731, -103.811, 0.318502, 0.00102377, 145.405, 51.269, 410.809, 86.6735, 26.4321, 198.327, -0.0076576, -0.0169951, 0.0288243, -0.00546874, -0.00546874, -0.00546874
4484, 1,0.0237719, 0.0023659, 0.00161924, 341.324, 119.142, 0.112976, 1486.74, -523.403, 1, 0.00100809, 0.0260889, 0.0195144, 460.2, -152.255, 0.0876253, 0.000991472, 0.0214643, 0.0164105, 222.709, -63.2394, 0.0713467, 0.000989958, 61.3382, -8.59368, 404.02, 28.019, -25.886, 187.585, -0.0085083, -0.0113725, 0.0224757, -0.00719437, -0.00719437, -0.00719437
4485, 1,0.0373406, 0.00474918, 0.00330302, 373.507, 119.185, 0.0811213, 1003.84, -359.819, 1, 0.00107856, 0.041884, 0.0312142, 492.363, -194.267, 0.661403, 0.00106973, 0.0328528, 0.0250519, 254.993, -108.18, 0.599056, 0.00106721, 79.2285, 106.721, 396.851, 54.5118, 70.5964, 199.433, -0.0139594, -0.0105173, 0.0294719, -0.0109213, -0.0109213, -0.0109213
4486, 1,0.0384324, 0.00433629, 0.00300093, 392.142, 120.454, 0.0989826, 1401.99, -505.394, 1, 0.00104504, 0.0426548, 0.0315784, 512.424, -229.088, 0.608353, 0.00103161, 0.0342368, 0.0257789, 272.051, -136.772, 0.550768, 0.00102912, 148.796, 121.953, 416.516, 102.622, 87.9177, 219.777, -0.010102, -0.014146, 0.0298734, -0.00781322, -0.00781322, -0.00781322
4487, 1,0.031847, 0.00335188, 0.00236968, 376.907, 120.891, 0.110264, 1478.48, -524.021, 1, 0.00100932, 0.0350697, 0.0264153, 497.041, -209.959, 0.317592, 0.000994192, 0.0286541, 0.0221269, 257.606, -116.82, 0.281164, 0.000992314, 168.902, 80.452, 380.523, 112.434, 49.4918, 188.533, -0.00622839, -0.0137647, 0.0241301, -0.00412957, -0.00412957, -0.00412957
4488, 1,0.0234318, 0.00202191, 0.00139714, 362.625, 109.214, 0.112775, 1478.17, -510.269, 1, 0.000975344, 0.0254154, 0.0186663, 470.919, -189.656, 0.0903226, 0.000960347, 0.0214546, 0.0160986, 255.272, -111.99, 0.0858249, 0.000959069, 128.987, 44.7714, 395.209, 98.4363, 29.5747, 207.958, -0.00708858, -0.0101913, 0.0205163, -0.00585403, -0.00585403, -0.00585403
4489, 1,0.0263482, 0.00392073, 0.0027704, 341.908, 118.054, 0.0772191, 869.183, -289.337, 1, 0.00107813, 0.0301559, 0.0227844, 459.568, -143.937, 0.443721, 0.00107005, 0.0225767, 0.0176808, 224.614, -60.6624, 0.390279, 0.00106808, 17.7118, 71.6443, 342.456, -2.47256, 29.896, 154.564, -0.0106316, -0.00603303, 0.0197682, -0.00813528, -0.00813528, -0.00813528
4490, 1,0.0257926, 0.00338773, 0.00235488, 363.649, 117.485, 0.0934519, 1302.52, -447.927, 1, 0.0010464, 0.029134, 0.0213903, 480.965, -180.33, 0.40631, 0.00103324, 0.0224645, 0.0169082, 246.505, -95.9208, 0.366459, 0.00103135, 80.3812, 100.168, 360.442, 49.5886, 58.6021, 179.572, -0.00818055, -0.00683662, 0.018799, -0.00624559, -0.00624559, -0.00624559
4491, 1,0.0237639, 0.00259276, 0.00185817, 362.577, 117.018, 0.106159, 1450.24, -495.705, 1, 0.00101221, 0.0262225, 0.0191758, 478.65, -180.588, 0.214764, 0.00099727, 0.0213365, 0.0159919, 247.484, -97.8039, 0.201606, 0.000995734, 127.047, 99.7318, 314.985, 86.3084, 58.0637, 149.04, -0.00505325, -0.00669309, 0.015071, -0.00342699, -0.00342699, -0.00342699
4492, 1,0.0187342, 0.00167977, 0.00116283, 334.387, 95.9889, 0.109104, 1450.45, -483.402, 1, 0.000978174, 0.020375, 0.0146855, 429.253, -151.744, 0.060003, 0.000963416, 0.0171001, 0.0125762, 240.432, -84.3772, 0.0585604, 0.000962326, 94.5059, 34.162, 326.563, 69.6122, 12.1119, 171.407, -0.00553604, -0.00694613, 0.0150239, -0.00459856, -0.00459856, -0.00459856
4493, 1,0.0171824, 0.0031146, 0.00219791, 349.524, 116.532, 0.075262, 815.342, -272.403, 1, 0.00107935, 0.0202819, 0.0149547, 465.897, -156.709, 0.255329, 0.00107178, 0.0140894, 0.0107164, 233.308, -76.9604, 0.216092, 0.00107012, 23.4082, 106.105, 340.613, 9.96508, 56.4598, 164.456, -0.00730928, -0.0026439, 0.012918, -0.00533206, -0.00533206, -0.00533206
4494, 1,0.0160399, 0.00261662, 0.00184218, 352.247, 114.793, 0.0890222, 1196.13, -398.879, 1, 0.0010476, 0.0186279, 0.0133469, 466.752, -159.476, 0.224349, 0.00103542, 0.0134626, 0.00993818, 238.026, -82.8538, 0.203701, 0.00103393, 45.7138, 119.056, 313.658, 28.7061, 68.1511, 151.704, -0.00567724, -0.00199689, 0.0106297, -0.00413857, -0.00413857, -0.00413857
4495, 1,0.0145385, 0.00200665, 0.00143345, 347.762, 110.782, 0.0998377, 1380.16, -462.252, 1, 0.00101468, 0.0164568, 0.0118745, 457.065, -147.863, 0.100417, 0.00100014, 0.0126469, 0.00921407, 239.842, -77.2879, 0.100417, 0.000998929, 74.3621, 106.441, 262.787, 53.6514, 62.2643, 115.948, -0.0035103, -0.00236966, 0.00841724, -0.00233902, -0.00233902, -0.00233902
4496, 1,0.0132843, 0.00140389, 0.000965864, 296.83, 86.3056, 0.106257, 1440.18, -479.266, 1, 0.000980556, 0.0146614, 0.0106585, 382.131, -117.176, 0.000158896, 0.000965286, 0.0119128, 0.00876487, 212.283, -60.2363, 4.65102E-05, 0.000964394, 46.879, 41.3035, 263.345, 32.8176, 15.3273, 132.564, -0.00428752, -0.0036983, 0.00988152, -0.00363872, -0.00363872, -0.00363872
4497, 1,0.0119495, 0.00253801, 0.00176522, 350.535, 115.954, 0.0737967, 770.317, -253.629, 1, 0.00108016, 0.0144751, 0.0104518, 466.211, -159.338, 0.142129, 0.00107316, 0.00943078, 0.00704035, 235.147, -81.2204, 0.119955, 0.00107166, 33.3924, 130.284, 314.339, 18.7819, 73.8714, 151.008, -0.00457469, -0.00092161, 0.00830409, -0.00310586, -0.00310586, -0.00310586
4498, 1,0.0110786, 0.00213736, 0.00148286, 351.004, 113.318, 0.0853073, 1089.11, -359.942, 1, 0.00104835, 0.0131758, 0.0094812, 463.599, -157.345, 0.117978, 0.00103742, 0.00899935, 0.00660381, 239.12, -83.9938, 0.111737, 0.00103609, 40.618, 151.875, 279.541, 28.9998, 92.9331, 130.049, -0.00386282, -1.51637E-05, 0.00660862, -0.00262877, -0.00262877, -0.00262877
4499, 1,0.00969338, 0.00172693, 0.00120851, 339.371, 100.248, 0.0938755, 1292.4, -425.875, 1, 0.001016, 0.0113562, 0.00808124, 437.779, -143.734, 0.0647156, 0.00100266, 0.00805752, 0.00589126, 242.511, -78.6277, 0.0647156, 0.00100156, 67.9622, 115.937, 247.305, 49.9362, 71.897, 114.05, -0.00215783, -0.00105989, 0.00563375, -0.00122656, -0.00122656, -0.00122656
4500, 1,0.00958032, 0.00123699, 0.000839493, 270.03, 78.2368, 0.101596, 1396.41, -466.208, 1, 0.000981961, 0.0108067, 0.00763753, 346.807, -124.473, 0, 0.000967246, 0.00835675, 0.00603547, 194.487, -71.8178, 0, 0.00096642, 73.7195, 72.173, 227.525, 58.7695, 41.516, 115.168, -0.00250429, -0.00220977, 0.00672898, -0.00196164, -0.00196164, -0.00196164
4501, 1,0.0092133, 0.00215788, 0.00147854, 345.37, 115.278, 0.0716759, 706.787, -228.91, 1, 0.00108012, 0.0113564, 0.00793543, 460.093, -150.22, 0.079515, 0.00107381, 0.00707904, 0.00507284, 231.193, -73.5312, 0.0695712, 0.00107241, 32.4714, 138.643, 279.546, 16.6152, 77.8606, 126.118, -0.00306716, -0.000226358, 0.00584382, -0.00190515, -0.00190515, -0.00190515
4502, 1,0.00800801, 0.00182513, 0.00124141, 349.937, 110.021, 0.0814247, 976.779, -318.131, 1, 0.00104804, 0.00980606, 0.00691355, 458.863, -151.015, 0.0501153, 0.00103849, 0.00622482, 0.00450117, 242.01, -80.0262, 0.0501153, 0.00103726, 37.2499, 152.015, 263.779, 25.531, 94.0569, 120.491, -0.00250457, 0.000108325, 0.00491539, -0.00151877, -0.00151877, -0.00151877
4503, 1,0.00746732, 0.00150557, 0.00103966, 319.076, 90.1126, 0.0890946, 1185.66, -384.193, 1, 0.00101566, 0.00892613, 0.00635365, 407.335, -127.228, 0.0461743, 0.00100356, 0.00603075, 0.00442834, 232.21, -68.798, 0.0460748, 0.00100258, 47.5111, 115.701, 218.472, 33.1183, 72.3793, 100.896, -0.00175407, -0.000479812, 0.00434994, -0.000964763, -0.000964763, -0.000964763
4504, 1,0.00617893, 0.00106802, 0.000726784, 260.002, 69.3717, 0.0956488, 1318.86, -428.901, 1, 0.000981943, 0.00723859, 0.00510895, 327.78, -102.778, 0, 0.000968214, 0.00512254, 0.00372472, 193.301, -56.5696, 0, 0.000967488, 48.5781, 65.2557, 194.5, 36.0155, 35.724, 97.9694, -0.00138164, -0.00139095, 0.00443636, -0.000902406, -0.000902406, -0.000902406
4505, 1,0.0072267, 0.00190842, 0.00128791, 346.017, 114.258, 0.0689989, 634.735, -207.915, 1, 0.00108042, 0.0091271, 0.00624069, 459.508, -150.793, 0.0347684, 0.00107488, 0.00533191, 0.00370973, 233.274, -75.4674, 0.0320443, 0.00107354, 33.9555, 152.793, 265.629, 18.3258, 89.9559, 118.12, -0.00219881, 0.000127934, 0.00456574, -0.00124217, -0.00124217, -0.00124217
4506, 1,0.0065562, 0.00162969, 0.00110382, 346.965, 102.066, 0.0777386, 872.901, -282.326, 1, 0.00104725, 0.00816331, 0.00569137, 447.579, -147.39, 0.020149, 0.00103896, 0.004963, 0.00354691, 247.537, -80.641, 0.020149, 0.00103782, 38.6936, 155.959, 247.518, 26.047, 99.8472, 116.029, -0.00184409, 0.000164791, 0.00409624, -0.00100308, -0.00100308, -0.00100308
4507, 1,0.00563294, 0.00131116, 0.000894575, 306.703, 82.6325, 0.0845429, 1063.25, -347.373, 1, 0.00101519, 0.0069115, 0.00485066, 386.926, -120.398, 0.01163, 0.0010043, 0.00437242, 0.00317944, 228.14, -66.2404, 0.0111264, 0.00100341, 44.568, 119.138, 197.487, 31.3787, 76.3943, 90.9483, -0.00119438, -0.000289938, 0.0034477, -0.000557108, -0.000557108, -0.000557108
4508, 1,0.00517869, 0.000917649, 0.000624045, 270.5, 60.7316, 0.0916465, 1248.08, -410.567, 1, 0.000982539, 0.00608256, 0.00421437, 329.898, -102.203, 0, 0.000969444, 0.00428026, 0.00304086, 211.819, -61.7778, 0, 0.000968809, 42.1365, 78.8947, 185.579, 30.9496, 51.6299, 102.754, -0.00102739, -0.000991263, 0.00367355, -0.000611129, -0.000611129, -0.000611129
4509, 1,0.00583438, 0.00172589, 0.00116063, 346.467, 110.221, 0.0669818, 572.798, -181.692, 1, 0.00108055, 0.0075513, 0.00507589, 455.956, -145.67, 0.00195545, 0.00107591, 0.00412486, 0.00282007, 237.639, -73.2091, 0.00195545, 0.00107464, 34.1751, 145.653, 257.183, 18.36, 84.5641, 116.703, -0.00149875, -1.35211E-05, 0.0038783, -0.000676883, -0.000676883, -0.000676883
4510, 1,0.00544584, 0.00145803, 0.000988046, 324.226, 93.8796, 0.0737305, 767.113, -253.399, 1, 0.00104717, 0.0068796, 0.00472813, 416.643, -131.132, 0.000903057, 0.00103968, 0.00402888, 0.00281309, 232.927, -69.8139, 0.00090151, 0.00103864, 31.9302, 138.567, 222.899, 20.4727, 85.4764, 103.493, -0.00137185, -4.7933E-05, 0.00354695, -0.000629439, -0.000629439, -0.000629439
4511, 1,0.00496787, 0.00114405, 0.000779479, 293.76, 74.8241, 0.079918, 935.855, -306.452, 1, 0.00101458, 0.00607216, 0.0042142, 366.152, -114.501, 5.12449E-05, 0.00100509, 0.00388475, 0.00279167, 222.901, -65.5343, 3.86047E-05, 0.0010043, 46.0799, 113.109, 184.315, 34.7357, 72.5436, 89.3234, -0.00086521, -0.000418097, 0.00313838, -0.000314582, -0.000314582, -0.000314582
4512, 1,0.00452609, 0.000775668, 0.000530309, 266.213, 52.4759, 0.0872358, 1139.26, -372.815, 1, 0.000982095, 0.00527919, 0.00359079, 317.943, -108.684, 0, 0.000970453, 0.00378132, 0.00264914, 214.86, -73.7804, 0, 0.000969904, 50.1088, 87.4221, 188.52, 40.6955, 62.4308, 118.215, -0.000732257, -0.000957925, 0.00345029, -0.000363557, -0.000363557, -0.000363557
4513, 1,0.00533041, 0.00162215, 0.00108683, 329.725, 104.165, 0.0639647, 508.351, -179.761, 1, 0.00108142, 0.00694572, 0.00464615, 432.896, -147.746, 0, 0.00107689, 0.00372104, 0.00251548, 227.5, -78.9029, 0, 0.00107568, 43.9642, 159.411, 239.861, 27.1233, 99.8118, 109.774, -0.00128647, 0.000235704, 0.00344794, -0.000547205, -0.000547205, -0.000547205
4514, 1,0.0047296, 0.0013336, 0.000904282, 285.644, 86.4325, 0.0693753, 645.828, -212.902, 1, 0.00104662, 0.00601951, 0.00409769, 369.852, -122.248, 0, 0.00104054, 0.0034712, 0.00241857, 203.244, -65.4306, 0, 0.00103958, 46.0521, 132.228, 188.465, 34.5618, 80.1762, 81.5539, -0.000908904, -3.54605E-05, 0.0029268, -0.000241126, -0.000241126, -0.000241126
4515, 1,0.00468812, 0.00101262, 0.000689892, 276.626, 66.8171, 0.074956, 801.003, -264.898, 1, 0.00101381, 0.00566822, 0.00387392, 341.743, -110.346, 0, 0.0010058, 0.00372428, 0.00262876, 212.559, -66.3804, 0, 0.00100508, 46.2582, 107.282, 177.498, 36.102, 69.7861, 93.2531, -0.000772081, -0.000474652, 0.00303474, -0.000275394, -0.000275394, -0.000275394
4516, 1,0.00435887, 0.000665219, 0.000456799, 252.26, 45.8077, 0.0820763, 996.51, -326.755, 1, 0.000981241, 0.00500273, 0.0034277, 297.102, -98.4539, 0, 0.000971088, 0.00372191, 0.00263622, 207.846, -68.0893, 0, 0.00097061, 47.8872, 82.8162, 164.658, 39.7373, 60.8321, 103.699, -0.000575492, -0.000965161, 0.00313432, -0.000249132, -0.000249132, -0.000249132
4517, 1,0.00484256, 0.00151585, 0.00101735, 288.897, 96.963, 0.0486213, 487.44, -163.006, 0.763413, 0.00108009, 0.00634658, 0.00426906, 384.719, -122.091, 0, 0.00107726, 0.00334909, 0.00229473, 194.165, -58.1999, 0, 0.00107614, 34.0084, 133.455, 198.809, 18.1798, 76.7841, 79.6358, -0.00112068, 0.000247705, 0.00285408, -0.000440626, -0.000440626, -0.000440626
4518, 1,0.00479646, 0.00122128, 0.000828224, 285.845, 79.238, 0.0642681, 521.844, -189.009, 1, 0.00104677, 0.00598403, 0.00410051, 362.93, -116.447, 0, 0.00104149, 0.00363012, 0.00257544, 210.337, -64.499, 0, 0.00104061, 41.4328, 127.703, 180.205, 30.3114, 80.4344, 82.7512, -0.000910635, -6.90387E-07, 0.00279985, -0.000313445, -0.000313445, -0.000313445
4519, 1,0.00407883, 0.000905721, 0.000618214, 244.395, 59.9715, 0.0700739, 668.94, -224.243, 1, 0.0010129, 0.00494483, 0.00334064, 302.071, -99.9568, 0, 0.00100622, 0.00323345, 0.00224617, 188.132, -60.6968, 0, 0.00100558, 48.6132, 106.749, 144.509, 39.6479, 71.8644, 70.5783, -0.000549739, -0.000276258, 0.00244584, -0.000102979, -0.000102979, -0.000102979
4520, 1,0.0040279, 0.00056422, 0.000388832, 231.242, 39.2742, 0.0760913, 832.792, -275.911, 1, 0.000979949, 0.0045727, 0.00313353, 269.743, -90.5005, 0, 0.000971498, 0.0034887, 0.00246994, 193.061, -64.3677, 0, 0.000971086, 42.6625, 76.5666, 152.272, 35.7167, 57.1274, 100.259, -0.000538762, -0.000884323, 0.00288856, -0.000254747, -0.000254747, -0.000254747
4521, 1,0.00419351, 0.0014037, 0.00094248, 257.66, 89.3613, 0.0314845, 480.051, -162.292, 0.461992, 0.00107976, 0.00558415, 0.00373883, 345.983, -116.173, 0, 0.00107796, 0.00281595, 0.0018922, 170.42, -57.287, 0, 0.00107693, 42.8411, 125.475, 180.202, 28.1367, 71.632, 72.0922, -0.0008741, 0.00037876, 0.00238065, -0.000251939, -0.000251939, -0.000251939
4522, 1,0.00426269, 0.00111051, 0.000754632, 247.963, 71.7376, 0.0468071, 498.041, -183.046, 0.736374, 0.00104575, 0.00533959, 0.00363216, 317.709, -100.01, 0, 0.00104218, 0.00320789, 0.00226063, 179.718, -52.8678, 0, 0.00104138, 37.4824, 107.427, 155.122, 27.6997, 63.1395, 67.7643, -0.000750931, 1.18194E-05, 0.00236106, -0.000204837, -0.000204837, -0.000204837
4523, 1,0.0040847, 0.00080179, 0.000550172, 238.862, 53.1632, 0.0621572, 516.315, -198.964, 0.977815, 0.00101244, 0.00484793, 0.00332884, 289.683, -92.3588, 0, 0.00100678, 0.00333832, 0.0023713, 189.28, -57.5374, 0, 0.00100621, 42.045, 97.7147, 137.317, 34.2757, 67.1102, 71.2264, -0.000552196, -0.000259885, 0.00230901, -0.000151962, -0.000151962, -0.000151962
4524, 1,0.00349643, 0.00047898, 0.000330862, 204.192, 33.5865, 0.0702805, 670.768, -220.62, 1, 0.000978433, 0.00395835, 0.00270039, 236.848, -79.9474, 0, 0.0009718, 0.00303939, 0.00213886, 171.908, -57.7738, 0, 0.00097145, 39.5537, 72.9558, 127.333, 33.7286, 56.4595, 83.1333, -0.000422253, -0.000691011, 0.00240828, -0.000178098, -0.000178098, -0.000178098
4525, 1,0.00365533, 0.00129702, 0.000872747, 228.37, 82.0839, 0.0196283, 480.768, -171.778, 0.239226, 0.00108013, 0.00493268, 0.00332779, 308.99, -105.294, 0, 0.0010785, 0.00239982, 0.00165638, 149.447, -51.4701, 0, 0.00107756, 39.9099, 119.514, 156.46, 26.0214, 69.5179, 58.8711, -0.000783212, 0.000578703, 0.00191328, -0.000225706, -0.000225706, -0.000225706
4526, 1,0.00342096, 0.00100708, 0.000685435, 207.945, 64.3938, 0.0258551, 480.441, -168.702, 0.359095, 0.00104479, 0.00438869, 0.00293078, 270.209, -93.7781, 0, 0.00104281, 0.00248439, 0.00167285, 147.533, -51.4274, 0, 0.00104209, 46.4879, 99.7106, 135.136, 38.3959, 57.7029, 58.1833, -0.00048676, 0.000227259, 0.00178045, 1.56119E-05, 1.56119E-05, 1.56119E-05
4527, 1,0.00357339, 0.000712234, 0.000491103, 209.717, 46.563, 0.0406019, 488.689, -170.52, 0.626625, 0.00101017, 0.00424436, 0.00292582, 253.611, -81.4703, 0, 0.00100721, 0.00292095, 0.00209358, 167.22, -51.0172, 0, 0.00100671, 40.6777, 85.7884, 117.945, 34.2603, 58.4252, 60.3663, -0.000424272, -6.70032E-05, 0.0018118, -6.89148E-05, -6.89148E-05, -6.89148E-05
4528, 1,0.00344231, 0.000405345, 0.000280736, 197.699, 28.1908, 0.0585901, 511.523, -194.832, 0.924838, 0.000977314, 0.0038375, 0.00263953, 224.736, -70.0084, 0, 0.000972051, 0.00304979, 0.00214848, 171.036, -51.6671, 0, 0.000971762, 28.9957, 66.4398, 114.59, 24.2606, 54.4534, 76.2872, -0.000472257, -0.000531334, 0.00213751, -0.000267413, -0.000267413, -0.000267413
4529, 1,0.00305853, 0.00118752, 0.000802036, 189.712, 74.6651, 0.00981622, 454.482, -137.339, 0.0465108, 0.00107991, 0.0042163, 0.00282404, 262.625, -86.6416, 2.1684E-19, 0.00107896, 0.00193699, 0.00132605, 118.971, -37.8861, 2.1684E-19, 0.00107811, 33.4129, 102.226, 124.286, 20.9922, 56.2682, 36.3978, -0.000641859, 0.000657901, 0.00139015, -0.000134598, -0.000134598, -0.000134598
4530, 1,0.00310803, 0.000905806, 0.000619926, 186.972, 57.4426, 0.0152866, 470.634, -158.837, 0.154398, 0.00104488, 0.00396538, 0.00270082, 241.75, -78.5122, -2.1684E-19, 0.00104327, 0.0022878, 0.00162309, 134.384, -40.8875, -2.1684E-19, 0.00104263, 38.6687, 82.1902, 114.678, 31.7104, 45.0568, 45.8951, -0.000425815, 0.000270994, 0.00142817, 2.3836E-05, 2.3836E-05, 2.3836E-05
4531, 1,0.00293963, 0.000618817, 0.000430024, 176.8, 39.882, 0.0214574, 474.029, -159.153, 0.273349, 0.00100969, 0.00350597, 0.00234969, 213.692, -72.0644, 0, 0.0010078, 0.00239843, 0.00166593, 141.48, -45.926, 0, 0.00100737, 45.7197, 69.6223, 100.851, 41.1464, 45.2988, 51.3327, -0.000188439, 2.13397E-06, 0.00135435, 0.000134089, 0.000134089, 0.000134089
4532, 1,0.00298332, 0.000332449, 0.000231781, 175.232, 22.37, 0.0324075, 469.67, -143.597, 0.477214, 0.000974574, 0.0033042, 0.00226856, 196.466, -63.5179, 0, 0.000972486, 0.00266543, 0.00186588, 154.332, -48.974, 0, 0.000972257, 31.4935, 55.1805, 103.88, 28.0687, 46.3355, 72.5178, -0.000357962, -0.000324307, 0.00171109, -0.000191114, -0.000191114, -0.000191114
4533, 1,0.00252152, 0.00106635, 0.000721603, 156.95, 66.9183, 0.00597191, 366.919, -115.575, 0, 0.00108017, 0.00355777, 0.00237885, 222.307, -73.8984, 0, 0.00107944, 0.00152697, 0.00105125, 93.8201, -30.1999, 0, 0.00107868, 30.623, 84.1954, 106.877, 19.6856, 42.472, 28.4421, -0.00050304, 0.000534526, 0.00116797, -4.45703E-05, -4.45703E-05, -4.45703E-05
4534, 1,0.0026189, 0.000803594, 0.000554174, 160.372, 50.6575, 0.00990393, 456.416, -141.658, 0.0486645, 0.00104508, 0.00335165, 0.00226639, 207.274, -69.1989, 0, 0.00104379, 0.00194074, 0.00138463, 116.508, -36.2841, 0, 0.00104323, 39.6419, 75.4603, 92.4945, 34.2974, 42.2318, 32.3232, -0.000265648, 0.000362004, 0.00102592, 0.00014316, 0.00014316, 0.00014316
4535, 1,0.00267616, 0.000530833, 0.000373362, 158.536, 33.8037, 0.0136787, 456.706, -138.123, 0.122634, 0.00100963, 0.0031497, 0.00216826, 189.063, -58.9132, 0, 0.00100816, 0.00222786, 0.00160147, 129.546, -37.0374, 0, 0.00100781, 35.8017, 57.012, 83.9258, 32.5451, 37.5561, 41.0111, -0.000198742, 7.27884E-05, 0.00108067, 8.25796E-05, 8.25796E-05, 8.25796E-05
4536, 1,0.00237307, 0.000253212, 0.00018073, 146.211, 16.6555, 0.0158425, 469.953, -156.43, 0.165403, 0.000974651, 0.00260851, 0.00177317, 161.56, -56.2724, 0, 0.000972817, 0.00214202, 0.0014697, 131.207, -45.5115, 0, 0.000972647, 38.0658, 43.1601, 87.5913, 36.205, 37.1721, 63.1573, -0.00013123, -0.000230637, 0.00127324, 5.38247E-06, 5.38247E-06, 5.38247E-06
4537, 1,0.00212114, 0.000950301, 0.000645258, 131.933, 59.4887, 0.00407878, 249.726, -78.6607, 0, 0.00108029, 0.00303741, 0.00203686, 189.775, -63.3535, 0, 0.00108003, 0.00125571, 0.0008794, 76.6552, -24.6588, 0, 0.00107935, 26.9193, 72.4314, 90.7099, 17.4318, 35.5998, 20.9449, -0.000414569, 0.000481713, 0.000961252, -4.6766E-06, -4.6766E-06, -4.6766E-06
4538, 1,0.00220104, 0.000695143, 0.000483944, 132.613, 43.6613, 0.00667871, 398.928, -114.47, 0, 0.00104527, 0.00280345, 0.00193111, 171.556, -55.3935, 0, 0.00104427, 0.00166511, 0.00124995, 97.2146, -27.1545, 0, 0.00104379, 34.4614, 58.6033, 73.1158, 30.8025, 29.6079, 21.0532, -0.00016202, 0.000276096, 0.000784232, 0.000208207, 0.000208207, 0.000208207
4539, 1,0.00213839, 0.000440042, 0.000314455, 130.568, 27.7538, 0.00933227, 452.409, -136.113, 0.0375818, 0.00101013, 0.00250471, 0.00169181, 154.229, -51.5672, 0, 0.0010087, 0.00180411, 0.00127962, 108.751, -33.9558, 0, 0.00100841, 37.9967, 51.1359, 65.5689, 36.4847, 35.3711, 30.0116, -4.40189E-05, 0.000132394, 0.000747227, 0.000205788, 0.000205788, 0.000205788
4540, 1,0.0021468, 0.000183222, 0.000138203, 126.741, 11.712, 0.0121683, 462.03, -147.107, 0.0935723, 0.000974966, 0.00230094, 0.00159922, 136.592, -40.8392, 0, 0.000973159, 0.00199813, 0.0014155, 117.258, -33.8427, 0, 0.000973048, 23.3435, 31.3902, 67.7839, 22.5607, 29.8637, 49.1035, -0.000200237, -0.000177324, 0.00103859, -0.000101269, -0.000101269, -0.000101269
4541, 1,0.00169189, 0.000834525, 0.000569581, 103.683, 52.0904, 0.00244606, 146.175, -43.6808, 0, 0.00108042, 0.00248108, 0.00167257, 153.745, -50.6344, 0, 0.00108054, 0.000976826, 0.00071462, 57.176, -16.9076, 0, 0.00107995, 23.289, 56.9967, 71.6174, 15.2865, 25.0898, 10.3463, -0.000289626, 0.00038134, 0.000730333, 7.29792E-05, 7.29792E-05, 7.29792E-05
4542, 1,0.00182851, 0.000590064, 0.000415306, 109.215, 36.8952, 0.00504467, 302.655, -89.0294, 0, 0.00104547, 0.0023109, 0.00158828, 140.713, -45.0714, 0, 0.00104472, 0.00141999, 0.00108156, 81.598, -21.4652, 0, 0.00104432, 31.7821, 45.4129, 58.0191, 29.8021, 21.2495, 13.344, -5.65887E-05, 0.000187587, 0.000599862, 0.000275728, 0.000275728, 0.000275728
4543, 1,0.00186167, 0.000345715, 0.000255709, 110.53, 21.6264, 0.00722724, 435.681, -127.999, 0, 0.00101051, 0.00210975, 0.00148404, 126.923, -39.2836, 0, 0.00100906, 0.0016463, 0.00124265, 95.9327, -25.9026, 0, 0.00100884, 33.5978, 35.0531, 49.1999, 33.6187, 23.7118, 20.3772, 5.39731E-05, 1.99221E-05, 0.000562423, 0.000268963, 0.000268963, 0.000268963
4544, 1,0.00172154, 0.000116952, 0.000100556, 104.534, 6.91132, 0.00945002, 459.81, -150.012, 0.0415239, 0.000975427, 0.0017929, 0.00123539, 108.897, -35.9712, 0, 0.000973567, 0.00165679, 0.00115319, 100.546, -32.7621, 0, 0.000973517, 26.6041, 24.3411, 56.9683, 27.2757, 26.6014, 44.4094, -5.33233E-05, -0.000208899, 0.00084434, 1.58802E-05, 1.58802E-05, 1.58802E-05
4545, 1,0.00127181, 0.000719508, 0.000494021, 76.9226, 44.752, 0.00117874, 63.3925, -13.4873, 0, 0.00108067, 0.00193212, 0.00130376, 119.191, -39.3351, 0, 0.00108112, 0.00072071, 0.000561707, 39.7957, -10.5305, 0, 0.00108061, 20.5859, 42.3545, 55.0651, 14.1159, 15.5218, 1.95383, -0.000167879, 0.00027274, 0.000533878, 0.000149148, 0.000149148, 0.000149148
4546, 1,0.00148196, 0.000485729, 0.00034781, 86.3986, 30.1856, 0.00377143, 222.265, -61.9564, 0, 0.0010457, 0.00183381, 0.00128526, 109.952, -34.1267, 0, 0.00104523, 0.00120983, 0.000972485, 66.9957, -15.1229, 0, 0.00104491, 28.1069, 31.0832, 43.1901, 27.7926, 11.7418, 5.83439, 3.91284E-05, 7.87119E-05, 0.000435466, 0.000333701, 0.000333701, 0.000333701
4547, 1,0.00154312, 0.00025818, 0.000201489, 89.8517, 15.8417, 0.0060741, 369.466, -112.556, 0, 0.00101086, 0.00168415, 0.00120579, 99.51, -29.2619, 0, 0.0010095, 0.00143254, 0.00110862, 81.805, -20.0979, 0, 0.00100935, 30.5409, 22.2852, 34.9595, 32.1817, 15.6365, 12.4756, 0.000147938, -7.16846E-05, 0.000397501, 0.000330281, 0.000330281, 0.000330281
4548, 1,0.00146309, -0.000108153, 9.53217E-05, 85.555, -5.20466, 0.00795724, 455.298, -146.721, 0.0126177, 0.00097587, 0.00145392, 0.00104148, 84.5192, -24.3841, 0, 0.000973918, 0.00148166, 0.00106687, 87.0214, -24.977, 0, 0.000973928, 20.8616, 10.4512, 41.8395, 22.8703, 17.108, 34.9528, 8.76995E-06, -0.000291176, 0.000676585, 4.57921E-05, 4.57921E-05, 4.57921E-05
4549, 1,0.000875662, 0.000605318, 0.00041896, 50.9145, 37.4741, 0.000693122, 20.3617, 14.6225, 0, 0.00108093, 0.00139713, 0.000952471, 85.0312, -27.5837, 0, 0.00108167, 0.000519104, 0.000467308, 24.7866, -3.65863, 0, 0.00108125, 16.8308, 26.8757, 39.0448, 11.9282, 5.22725, -6.17955, -6.17136E-05, 0.000152244, 0.00035756, 0.000211165, 0.000211165, 0.000211165
4550, 1,0.00116559, 0.000384867, 0.000283241, 65.4489, 23.6527, 0.00270649, 153.93, -37.7136, 0, 0.00104597, 0.00138064, 0.000998762, 80.7301, -23.7179, 0, 0.00104573, 0.0010285, 0.000885686, 54.1842, -9.28403, 0, 0.00104549, 25.0019, 17.2372, 28.9146, 26.3836, 2.82717, -1.35863, 0.000138476, -2.92766E-05, 0.000275247, 0.000396456, 0.000396456, 0.000396456
4551, 1,0.00126642, 0.000178592, 0.000155574, 71.1874, 10.4213, 0.00494841, 297.126, -86.9875, 0, 0.00101103, 0.00130196, 0.000983056, 74.2023, -19.4223, 0, 0.00100993, 0.00125484, 0.00102423, 69.3585, -14.4678, 0, 0.00100985, 27.1911, 9.43476, 21.641, 30.472, 7.45401, 5.47753, 0.000234076, -0.000168443, 0.000248512, 0.000384285, 0.000384285, 0.000384285
4552, 1,0.00118887, -0.000166355, 0.000125345, 68.3297, -9.23142, 0.00688455, 425.915, -135.491, 0, 0.00097619, 0.00111393, 0.000849661, 62.5294, -16.7191, 0, 0.000974311, 0.00128082, 0.000951565, 74.814, -21.1393, 0, 0.000974381, 20.1814, -1.72831, 31.7044, 23.6101, 9.29187, 30.5161, 0.000117553, -0.000408043, 0.000560359, 0.000123854, 0.000123854, 0.000123854
4553, 1,0.000530055, 0.000492498, 0.000344931, 27.4175, 30.2804, 0.000854927, 9.59494, 40.6555, 0, 0.00108117, 0.00088059, 0.000618186, 51.9387, -16.0965, 0, 0.00108217, 0.00040351, 0.000458337, 14.5582, 2.99004, 0, 0.00108183, 13.2262, 11.4274, 23.6358, 9.93312, -4.99209, -13.9111, 4.32863E-05, 2.73246E-05, 0.000191116, 0.000273561, 0.000273561, 0.000273561
4554, 1,0.00089671, 0.000289163, 0.000223359, 46.6408, 17.3761, 0.0018961, 97.2612, -12.5825, 0, 0.00104617, 0.000970973, 0.000758736, 53.4284, -12.9653, 0, 0.00104617, 0.000882166, 0.00083736, 42.844, -3.07153, 0, 0.001046, 21.4506, 2.88849, 14.5568, 24.544, -6.53903, -8.79043, 0.000233851, -0.000142909, 0.00011907, 0.000456046, 0.000456046, 0.000456046
4555, 1,0.00102744, -0.000138747, 0.000128493, 54.8492, -6.18504, 0.00394038, 233.432, -65.4901, 0, 0.00101126, 0.000974012, 0.0008068, 52.0487, -10.2401, 0, 0.00101036, 0.00109809, 0.000951671, 58.3825, -9.48832, 0, 0.00101034, 24.4412, -3.51066, 9.78967, 29.3816, -0.701054, -0.215599, 0.000322742, -0.000278108, 0.000120573, 0.000441347, 0.000441347, 0.000441347
4556, 1,0.000961685, -0.000244327, 0.000175009, 52.1674, -14.335, 0.00602966, 373.299, -119.281, 0, 0.000976434, 0.000847173, 0.000719552, 42.8483, -7.51018, 0, 0.000974665, 0.00111275, 0.000858843, 62.9972, -15.7865, 0, 0.000974796, 16.881, -14.1803, 19.8298, 21.7941, 1.4081, 24.1572, 0.000196041, -0.000509232, 0.000433698, 0.000172574, 0.000172574, 0.000172574
4557, 1,0.000328566, 0.000381682, 0.000272588, 11.5029, 23.2008, 0.00116883, 6.08377, 65.8398, 0, 0.0010815, 0.000437286, 0.000357132, 22.4057, -4.58158, 0, 0.00108273, 0.000378897, 0.000540906, 9.03785, 9.70297, 0, 0.00108248, 9.42201, -4.1247, 8.44743, 7.78372, -15.2966, -21.5961, 0.000144502, -0.000100045, 3.046E-05, 0.000333724, 0.000333724, 0.000333724
4558, 1,0.000704549, 0.000203489, 0.000172843, 31.9129, 11.5905, 0.00144108, 58.65, 11.427, 0, 0.00104647, 0.000660753, 0.000616257, 31.4185, -2.48105, 0, 0.00104671, 0.000777919, 0.000829279, 33.7652, 2.89796, 0, 0.00104661, 18.0162, -11.394, 0.820902, 22.8445, -15.7996, -15.7387, 0.000327481, -0.0002598, -2.77477E-05, 0.000514782, 0.000514782, 0.000514782
4559, 1,0.000843728, -0.000176122, 0.000133828, 40.8862, -9.47294, 0.00303635, 174.047, -43.026, 0, 0.00101151, 0.000738812, 0.000725089, 34.1824, -0.578119, 0, 0.00101081, 0.000969479, 0.000910148, 48.4054, -4.02625, 0, 0.00101087, 21.1487, -16.7312, -2.68315, 27.783, -9.10836, -6.59586, 0.000407569, -0.000386122, -1.29616E-05, 0.000495342, 0.000495342, 0.000495342
4560, 1,0.000768902, -0.000329655, 0.000231238, 38.3103, -19.8481, 0.00508674, 312.771, -97.9361, 0, 0.000976633, 0.000661907, 0.000671881, 27.8755, 0.893244, 0, 0.000975068, 0.000952725, 0.000774963, 52.1975, -11.2691, 0, 0.000975261, 14.3615, -25.999, 8.95776, 20.8122, -5.83989, 18.8349, 0.000278467, -0.000608138, 0.000313893, 0.000225854, 0.000225854, 0.000225854
4561, 1,0.000320195, 0.000274282, 0.00020333, 5.56898, 16.3066, 0.00151919, 4.66573, 90.295, 0, 0.00108176, 0.00027306, 0.000374334, 7.13748, 6.8323, 0, 0.00108323, 0.000412955, 0.000681674, 6.29363, 16.3471, 0, 0.00108306, 5.52223, -19.5749, -6.44426, 5.59291, -25.5102, -29.1242, 0.000242163, -0.000227368, -0.000125049, 0.000392003, 0.000392003, 0.000392003
4562, 1,0.000608165, -0.000146006, 0.000142559, 21.8468, 6.84252, 0.00134672, 37.3273, 35.1631, 0, 0.00104666, 0.000518827, 0.000642158, 17.7906, 8.05327, 0, 0.00104712, 0.000717858, 0.000865919, 26.7658, 8.93977, 0, 0.00104711, 14.4107, -25.7214, -12.8491, 21.0025, -25.1042, -22.7176, 0.000418369, -0.000377198, -0.000172129, 0.00057174, 0.00057174, 0.00057174
4563, 1,0.000727599, -0.000242472, 0.00017268, 30.2847, -14.1998, 0.0022971, 122.472, -20.3071, 0, 0.00101169, 0.000626716, 0.000765776, 22.3953, 8.98444, 0, 0.00101121, 0.000871746, 0.000898598, 39.9936, 1.33655, 0, 0.00101134, 17.9502, -29.9221, -14.9813, 26.3105, -17.4826, -12.8376, 0.000492898, -0.000494942, -0.000144577, 0.00055053, 0.00055053, 0.00055053
4564, 1,0.000635412, -0.000418741, 0.000290437, 27.2598, -25.57, 0.00412333, 250.785, -75.8919, 0, 0.00097679, 0.000583431, 0.00073129, 18.1707, 9.58809, 0, 0.000975436, 0.000815064, 0.000712965, 42.3431, -6.49323, 0, 0.000975691, 11.47, -38.1038, -2.13048, 19.5227, -13.3256, 13.2826, 0.00035757, -0.000707489, 0.000193129, 0.00027663, 0.00027663, 0.00027663
4565, 1,0.000404087, 0.000174561, 0.000141385, 3.50605, 9.82046, 0.00188265, 3.89755, 114.643, 0, 0.00108203, 0.000363739, 0.000646117, 3.51438, 18.2168, 0, 0.00108372, 0.000476438, 0.000851837, 4.76433, 22.9926, 0, 0.00108364, 1.41875, -34.8785, -21.1907, 3.2573, -35.6201, -36.6151, 0.000335111, -0.000352286, -0.000277774, 0.000447313, 0.000447313, 0.000447313
4566, 1,0.00059537, -0.000182713, 0.000147062, 15.715, -9.99643, 0.00148099, 26.7063, 58.7118, 0, 0.00104694, 0.000528927, 0.000819444, 11.2329, 18.5202, 0, 0.00104762, 0.000696585, 0.000940977, 21.627, 14.9329, 0, 0.00104768, 10.7374, -39.9146, -26.3833, 19.128, -34.3034, -29.6234, 0.000506934, -0.000493033, -0.000314651, 0.000627432, 0.000627432, 0.000627432
4567, 1,0.000679163, -0.000325, 0.000228581, 22.8248, -19.7223, 0.00182086, 83.7225, 2.25254, 0, 0.00101196, 0.00062284, 0.000914827, 15.5789, 18.595, 0, 0.00101169, 0.000806444, 0.000919614, 33.082, 6.74507, 0, 0.00101189, 14.6164, -43.1144, -27.2872, 24.7416, -25.8839, -19.0928, 0.000576323, -0.00060319, -0.000275638, 0.0006046, 0.0006046, 0.0006046
4568, 1,0.00056999, -0.0005102, 0.000351378, 19.5765, -31.4227, 0.00321521, 191.286, -53.627, 0, 0.000977015, 0.000593748, 0.000880316, 12.7586, 18.2645, 0, 0.000975876, 0.000705609, 0.000679409, 33.9025, -1.76951, 0, 0.000976193, 8.54459, -50.2363, -13.1018, 18.2714, -20.8508, 7.88802, 0.000435795, -0.000807672, 7.43753E-05, 0.000327514, 0.000327514, 0.000327514
4569, 1,0.000519165, -0.000104989, 0.000100961, 2.63744, -4.92495, 0.00226186, 3.52958, 139.555, 0, 0.00108222, 0.000516004, 0.000979028, 2.43944, 29.5107, 0, 0.00108415, 0.000555239, 0.00103737, 3.87997, 29.5731, 0, 0.00108415, -2.83278, -49.8728, -35.8267, 0.84497, -45.4984, -44.0659, 0.000423596, -0.000472003, -0.000429762, 0.000500082, 0.000500082, 0.000500082
4570, 1,0.000637341, -0.000251385, 0.000185294, 11.9886, -14.9929, 0.00174159, 22.0739, 82.0639, 0, 0.0010472, 0.000618041, 0.00107557, 8.04932, 29.0006, 0, 0.0010481, 0.000705144, 0.00104604, 17.8324, 20.9557, 0, 0.00104823, 6.86386, -53.9508, -39.915, 17.0943, -43.4037, -36.5577, 0.000591684, -0.000605449, -0.000456998, 0.000680442, 0.000680442, 0.000680442
4571, 1,0.00068496, -0.000415268, 0.000289729, 17.8257, -25.6176, 0.00166558, 60.6434, 24.2871, 0, 0.00101221, 0.000686802, 0.00113172, 11.7548, 28.2048, 0, 0.00101214, 0.000771438, 0.000971129, 27.585, 12.1483, 0, 0.00101241, 11.1634, -56.1901, -39.5876, 23.1002, -34.2313, -25.3139, 0.000657502, -0.000709312, -0.000406564, 0.000657366, 0.000657366, 0.000657366
4572, 1,0.000562751, -0.000603336, 0.000413463, 14.52, -37.3679, 0.00245188, 139.192, -32.0317, 0, 0.000977233, 0.000658105, 0.0010848, 9.64358, 27.0798, 0, 0.000976296, 0.00062808, 0.000678778, 26.9035, 3.05852, 0, 0.000976677, 5.35078, -62.3617, -24.2284, 16.8303, -28.4116, 2.40572, 0.000510754, -0.000906055, -4.51656E-05, 0.000376264, 0.000376264, 0.000376264
4573, 1,0.00064415, -0.000150187, 0.000110465, 1.96572, -9.07234, 0.00267843, 4.76755, 164.902, 0, 0.00108238, 0.000681216, 0.00132514, 1.76347, 40.9347, 0, 0.00108456, 0.000640632, 0.00122951, 3.09542, 36.3045, 0, 0.00108464, -7.51171, -64.6811, -50.6111, -1.92187, -55.2806, -51.7109, 0.000505172, -0.000585206, -0.000583463, 0.000547813, 0.000547813, 0.000547813
4574, 1,0.000711276, -0.000338106, 0.000241097, 9.6618, -20.8274, 0.00209354, 21.6936, 105.458, 0, 0.00104755, 0.00074287, 0.00136712, 6.37391, 39.4366, 0, 0.00104868, 0.000735253, 0.00117289, 15.0335, 26.9469, 0, 0.00104889, 2.81184, -67.6631, -53.4583, 14.9303, -52.2733, -43.4977, 0.000672146, -0.000711709, -0.000600487, 0.000730398, 0.000730398, 0.000730398
4575, 1,0.000725314, -0.000509461, 0.000353091, 14.2371, -31.6992, 0.001789, 51.3223, 45.3837, 0, 0.00101255, 0.000785733, 0.00138473, 9.29092, 37.9648, 0, 0.00101267, 0.000759362, 0.00104726, 23.0374, 17.6961, 0, 0.00101301, 7.29024, -69.0871, -52.0975, 21.0906, -42.4933, -31.6855, 0.000732437, -0.000809595, -0.000539521, 0.000704922, 0.000704922, 0.000704922
4576, 1,0.000597497, -0.000697869, 0.000476465, 11.2756, -43.3901, 0.00194384, 99.9503, -11.3587, 0, 0.000977549, 0.00075403, 0.00132225, 7.78367, 35.9698, 0, 0.000976799, 0.000584276, 0.000712761, 21.4296, 7.92704, 0, 0.000977243, 1.93731, -74.3567, -35.4899, 15.2539, -35.9172, -3.11783, 0.000582444, -0.0010011, -0.000165986, 0.000423023, 0.000423023, 0.000423023
4577, 1,0.000782477, -0.000236164, 0.000163883, 2.14307, -15.0322, 0.00309814, 4.26722, 192.296, 0, 0.00108245, 0.000860708, 0.00168284, 2.19712, 51.6649, 0, 0.00108492, 0.000735225, 0.0014308, 3.09952, 42.3588, 0, 0.00108509, -11.8616, -78.0242, -65.1089, -4.27038, -63.7771, -59.0289, 0.000582788, -0.000678663, -0.000741692, 0.000593733, 0.000593733, 0.000593733
4578, 1,0.000798477, -0.000433106, 0.000303813, 7.7182, -27.0396, 0.00255542, 27.3423, 127.626, 0, 0.00104783, 0.000882275, 0.00167331, 5.07373, 50.0555, 0, 0.00104915, 0.000775051, 0.00131208, 12.5149, 33.1315, 0, 0.00104943, -1.83631, -80.9018, -67.4284, 12.2235, -60.7898, -50.8282, 0.000742799, -0.000804799, -0.000750302, 0.000771822, 0.000771822, 0.000771822
4579, 1,0.000787149, -0.00060594, 0.000417602, 11.6507, -37.8904, 0.00214447, 53.4615, 65.5978, 0, 0.00101284, 0.000903813, 0.00165657, 7.6698, 47.6245, 0, 0.00101313, 0.000764156, 0.00114039, 19.3467, 23.135, 0, 0.00101354, 3.12058, -81.4704, -64.5236, 18.8437, -50.359, -37.8897, 0.000799772, -0.000900312, -0.000672813, 0.000746031, 0.000746031, 0.000746031
4580, 1,0.000661104, -0.000793602, 0.000540226, 9.08979, -49.4794, 0.0017611, 76.9234, 8.30036, 0, 0.000977832, 0.000870824, 0.00158244, 6.58901, 45.0707, 0, 0.000977249, 0.000571537, 0.000779498, 17.1962, 12.9713, 0, 0.000977758, -1.87033, -86.1944, -47.1473, 13.3772, -43.3879, -8.90311, 0.000649421, -0.00109001, -0.000291651, 0.000466541, 0.000466541, 0.000466541
4581, 1,0.000908303, -0.000336086, 0.000230714, -0.12482, -21.5763, 0.00360177, 15.729, 209.545, 0, 0.00108276, 0.00101724, 0.00201157, 0.204742, 64.3194, 0, 0.00108532, 0.000813748, 0.00161024, -0.191489, 50.3506, 0, 0.00108557, -19.2771, -90.9589, -82.7222, -9.63003, -71.8614, -69.5602, 0.000626174, -0.000733655, -0.000935383, 0.000606687, 0.000606687, 0.000606687
4582, 1,0.000886643, -0.000532072, 0.000369102, 6.06877, -33.4326, 0.0031258, 37.3912, 150.722, 0, 0.00104818, 0.00101866, 0.00197404, 3.90926, 60.3652, 0, 0.00104971, 0.000815803, 0.00144661, 10.2572, 39.0133, 0, 0.00105008, -7.04121, -93.3322, -80.7223, 9.01693, -68.5828, -57.4739, 0.000796612, -0.000884905, -0.000891241, 0.000797672, 0.000797672, 0.000797672
4583, 1,0.000866836, -0.000703636, 0.000482648, 9.72777, -44.1432, 0.00274051, 66.9268, 85.6866, 0, 0.0010132, 0.0010376, 0.00194423, 6.58759, 57.4165, 0, 0.00101367, 0.00078487, 0.00125066, 16.3021, 28.6979, 0, 0.00101414, -1.41402, -93.2967, -77.5388, 16.2985, -57.8329, -44.5592, 0.000861595, -0.000975724, -0.000818042, 0.000782927, 0.000782927, 0.000782927
4584, 1,0.000741732, -0.000890192, 0.000604448, 7.60305, -55.6167, 0.00195928, 73.0988, 26.3409, 0, 0.000978226, 0.000999079, 0.00185609, 5.81624, 54.1085, 0, 0.000977785, 0.000582571, 0.000871353, 14.0093, 17.9145, 0, 0.00097836, -5.81061, -97.308, -59.2069, 11.4589, -50.2724, -14.9299, 0.000713265, -0.00116593, -0.000426156, 0.000508354, 0.000508354, 0.000508354
4585, 1,0.00108124, -0.000439759, 0.000300222, 1.1129, -28.3405, 0.00510225, 14.4386, 224.944, 0.0495172, 0.00108296, 0.00120948, 0.00238256, 1.0377, 75.5948, 0, 0.0010857, 0.000961777, 0.00184865, 1.41311, 56.9783, 0, 0.00108603, -25.3524, -102.717, -98.7146, -13.559, -79.2012, -78.1746, 0.000674199, -0.000761763, -0.00113821, 0.000626082, 0.000626082, 0.000626082
4586, 1,0.000963148, -0.000627914, 0.00043202, 3.62955, -39.6851, 0.00395929, 62.5691, 170.315, 0, 0.00104847, 0.00112, 0.00224628, 1.37274, 70.8109, 0, 0.00105016, 0.000853314, 0.00157311, 7.24968, 45.0385, 0, 0.0010506, -14.3424, -101.138, -96.9526, 3.70563, -71.8288, -66.9924, 0.000808963, -0.000861076, -0.00109685, 0.000781794, 0.000781794, 0.000781794
4587, 1,0.000969543, -0.000802501, 0.00054841, 9.48823, -50.4581, 0.00356173, 88.5847, 108.873, 0, 0.00101348, 0.00118883, 0.00224806, 6.94705, 66.359, 0, 0.00101418, 0.000831696, 0.00138431, 15.1086, 33.3981, 0, 0.00101472, -4.98291, -103.942, -90.1522, 14.7802, -64.3368, -50.6377, 0.000930677, -0.00103744, -0.00097043, 0.000828207, 0.000828207, 0.000828207
4588, 1,0.000837119, -0.000987354, 0.000668887, 6.38023, -61.7911, 0.00260814, 89.5288, 45.4305, 0, 0.000978583, 0.00113917, 0.00213613, 5.1537, 63.2934, 0, 0.000978299, 0.000613843, 0.000979043, 11.4536, 22.964, 0, 0.00097894, -10.3475, -107.3, -72.2325, 9.04344, -56.1495, -21.786, 0.000766453, -0.00121527, -0.000578962, 0.000541169, 0.000541169, 0.000541169
4589, 1,0.00122503, -0.000548744, 0.000372685, 4.10984, -35.4745, 0.00816697, 10.7634, 232.359, 0.164602, 0.00108307, 0.00138407, 0.00272789, 3.55483, 84.2449, 0, 0.00108609, 0.00107664, 0.00205054, 4.93157, 60.9913, 0, 0.0010865, -24.9725, -117.902, -109.86, -10.881, -89.8913, -82.2016, 0.000810437, -0.000852846, -0.00132363, 0.000736697, 0.000736697, 0.000736697
4590, 1,0.00116591, -0.000724284, 0.000495388, 5.86932, -46.0428, 0.00584656, 53.0164, 199.423, 0.0579653, 0.00104844, 0.00135676, 0.00262586, 4.43183, 81.5259, 0, 0.00105056, 0.000995842, 0.00179177, 8.07403, 51.3383, 0, 0.00105108, -21.9147, -109.712, -112.951, -1.81021, -76.3715, -75.8332, 0.000819072, -0.000819072, -0.00132275, 0.000764773, 0.000764773, 0.000764773
4591, 1,0.00102682, -0.000900286, 0.000613405, 5.30804, -56.7422, 0.00437414, 100.853, 144.13, 0, 0.00101356, 0.00126659, 0.00249533, 2.4868, 78.5694, 0, 0.00101463, 0.00086013, 0.00150025, 10.6409, 41.3476, 0, 0.00101525, -12.2255, -116.354, -107.129, 9.5262, -72.4961, -61.0729, 0.000973238, -0.00107916, -0.00116932, 0.000845258, 0.000845258, 0.000845258
4592, 1,0.000933182, -0.0010866, 0.000734677, 5.47591, -68.0972, 0.00350376, 111.198, 72.9967, 0, 0.00097874, 0.00127557, 0.00241766, 4.50556, 72.1924, 0, 0.000978753, 0.000654362, 0.00109633, 9.60004, 27.6833, 0, 0.00097946, -14.7946, -117.763, -84.0195, 6.83398, -62.6108, -27.2732, 0.000814422, -0.00127024, -0.000716283, 0.00057058, 0.00057058, 0.00057058
4593, 1,0.00133327, -0.000652904, 0.000442189, 3.85511, -42.477, 0.0122799, -1.33911, 243.832, 0.326927, 0.00108294, 0.00155601, 0.00305581, 3.94302, 94.6171, 0, 0.00108652, 0.00111254, 0.0022042, 4.12685, 66.7285, 0, 0.00108701, -31.2216, -127.229, -125.401, -14.6068, -95.0393, -90.5393, 0.0008275, -0.000749928, -0.00161177, 0.000732587, 0.000732587, 0.000732587
4594, 1,0.0012989, -0.000826719, 0.000562921, 6.27077, -52.8124, 0.00882895, 14.2374, 227.629, 0.190139, 0.00104821, 0.0015347, 0.00297707, 5.58188, 91.1734, 0, 0.001051, 0.00108032, 0.00198205, 7.53833, 56.5824, 0, 0.00105159, -26.802, -121.606, -125.112, -4.36256, -84.6191, -80.7657, 0.000861206, -0.000810886, -0.00152951, 0.000785509, 0.000785509, 0.000785509
4595, 1,0.00116327, -0.000995798, 0.000675748, 6.77473, -63.0042, 0.00581509, 61.3113, 193.232, 0.0529453, 0.00101342, 0.0014282, 0.00282173, 4.61741, 88.0807, 1.0842E-19, 0.00101525, 0.000938182, 0.00166459, 10.466, 46.5886, 1.0842E-19, 0.00101593, -18.2941, -124.065, -121.884, 5.62021, -76.5984, -68.7876, 0.000996427, -0.00103305, -0.00139285, 0.00084608, 0.00084608, 0.00084608
4596, 1,0.00102512, -0.00118775, 0.00080271, 5.46862, -74.5477, 0.00421276, 106.665, 123.846, 0, 0.000978586, 0.00140197, 0.00271307, 4.18443, 81.2095, 0, 0.000979263, 0.000713733, 0.00125513, 9.40448, 32.4634, 0, 0.000980038, -16.7784, -129.871, -96.9789, 7.11077, -71.0331, -33.468, 0.000914458, -0.00134481, -0.00088798, 0.000651357, 0.000651357, 0.000651357
4597, 1,0.00149586, -0.00075661, 0.000511307, 3.52883, -49.4847, 0.0179355, -4.00652, 254.91, 0.522332, 0.00108241, 0.0017319, 0.00341712, 3.2556, 106.793, 0, 0.00108686, 0.00127514, 0.00245339, 4.04592, 74.3101, 0, 0.00108743, -37.5499, -140.974, -141.853, -18.452, -104.985, -99.4937, 0.000875092, -0.000690042, -0.00191659, 0.000758443, 0.000758443, 0.000758443
4598, 1,0.00139022, -0.000923967, 0.00062597, 5.91778, -59.4311, 0.0141882, 6.41436, 251.851, 0.366512, 0.00104766, 0.00167848, 0.00321861, 6.29087, 98.6926, 0, 0.00105137, 0.00111217, 0.00205688, 5.69811, 59.7187, 0, 0.00105204, -36.2117, -125.048, -134.818, -11.3231, -84.0982, -83.7348, 0.000768097, -0.00061381, -0.00175529, 0.000673108, 0.000673108, 0.000673108
4599, 1,0.00143901, -0.00110528, 0.000748859, 15.4321, -70.0832, 0.00894068, -0.943334, 241.363, 0.202186, 0.00101293, 0.00175659, 0.00333877, 14.0158, 96.6831, 0, 0.00101581, 0.00115078, 0.00199533, 17.8695, 50.9159, 0, 0.00101657, -16.891, -144.955, -128.204, 9.57462, -95.0778, -67.2446, 0.00115772, -0.00121701, -0.00150963, 0.000992616, 0.000992616, 0.000992616
4600, 1,0.00121635, -0.00129291, 0.000874776, 10.0495, -81.2753, 0.00548774, 80.0566, 177.687, 0.0334875, 0.000978226, 0.00163644, 0.00308412, 9.34828, 88.2828, 0, 0.000979699, 0.000858395, 0.00148624, 14.5104, 35.2527, 0, 0.000980543, -15.95, -140.418, -108.481, 10.4068, -78.6123, -37.5526, 0.00104088, -0.00139113, -0.00108279, 0.000761524, 0.000761524, 0.000761524
4601, 1,0.00182362, -0.000867792, 0.000584903, 14.3072, -56.8258, 0.0242594, -6.04169, 259.859, 0.739766, 0.00108157, 0.00210659, 0.00394847, 14.1275, 116.075, 0, 0.00108732, 0.00154841, 0.00281872, 14.6778, 79.0299, 0, 0.00108797, -36.2844, -158.709, -153.232, -14.2395, -120.066, -102.784, 0.00104924, -0.000754731, -0.00217644, 0.000920927, 0.000920927, 0.000920927
4602, 1,0.00162294, -0.00101938, 0.000690953, 7.08723, -65.9077, 0.0201315, 3.14967, 269.03, 0.548316, 0.00104704, 0.00191653, 0.00368356, 6.91444, 111.348, 0, 0.00105174, 0.0013432, 0.00242445, 7.49152, 68.037, 0, 0.00105248, -40.0079, -134.996, -159.04, -12.8038, -91.4435, -99.8638, 0.000887454, -0.000478768, -0.00221481, 0.000771277, 0.000771277, 0.000771277
4603, 1,0.00135215, -0.00120828, 0.000813928, 4.29013, -76.8582, 0.0139906, -7.32973, 266.714, 0.364505, 0.00101247, 0.00173428, 0.00347966, 4.40865, 110.404, 0, 0.00101616, 0.000986042, 0.00193297, 4.32085, 60.3429, 0, 0.00101699, -39.666, -156.956, -134.589, -10.5664, -103.673, -66.7893, 0.000888616, -0.0011285, -0.0015515, 0.000709754, 0.000709754, 0.000709754
4604, 1,0.00148618, -0.00138762, 0.000937555, 19.8464, -87.6703, 0.00880944, 13.5602, 233.195, 0.181669, 0.000977658, 0.00193059, 0.00359181, 18.6943, 96.934, 0, 0.00098024, 0.0010971, 0.00185768, 23.583, 39.4991, 0, 0.000981154, -10.3834, -145.163, -135.256, 18.6828, -81.1303, -56.0499, 0.00129238, -0.00124026, -0.0016254, 0.000999587, 0.000999587, 0.000999587
4605, 1,0.00202999, -0.000966927, 0.000652639, 9.59744, -63.3907, 0.0293969, -14.099, 269.346, 0.913146, 0.00108021, 0.00231514, 0.00443743, 9.92216, 129.822, 0, 0.00108759, 0.00174853, 0.00320586, 9.37359, 88.4065, 0, 0.00108832, -52.525, -158.363, -178.579, -27.601, -118.518, -119.1, 0.000944891, -0.000411016, -0.00263866, 0.000806899, 0.000806899, 0.000806899
4606, 1,0.00172036, -0.00112236, 0.000760464, 8.97814, -72.5697, 0.0248918, -3.16863, 276.771, 0.70653, 0.00104632, 0.0020835, 0.00409683, 8.75491, 122.726, 0, 0.00105201, 0.00141922, 0.00268755, 10.0188, 75.1833, 0, 0.00105283, -41.4303, -145.315, -181.434, -11.5454, -99.6104, -114.394, 0.00104939, -0.000409407, -0.00263058, 0.000922067, 0.000922067, 0.000922067
4607, 1,0.00153572, -0.00131227, 0.000882908, 12.2212, -83.6044, 0.0184967, -4.82797, 271.151, 0.510234, 0.00101242, 0.00195271, 0.003742, 12.5962, 114.053, 0, 0.00101679, 0.00112312, 0.00204424, 11.96, 59.6388, 0, 0.00101769, -45.4207, -158.147, -138.591, -13.8777, -101.955, -63.0833, 0.000833078, -0.00100104, -0.00168246, 0.000635772, 0.000635772, 0.000635772
4608, 1,0.00142701, -0.00148588, 0.00100156, 5.11062, -94.178, 0.0124338, 3.61951, 241.551, 0.326074, 0.000977692, 0.00190252, 0.00374833, 3.97152, 116.508, 0, 0.000980532, 0.00101413, 0.00188057, 8.28019, 54.5131, 0, 0.000981519, -29.2726, -153.816, -166.435, 2.46438, -86.1103, -79.8934, 0.00120245, -0.00104046, -0.00205281, 0.000892902, 0.000892902, 0.000892902
4609, 1,0.00227773, -0.00107125, 0.000722806, 18.3351, -69.9378, 0.0332137, -9.1395, 282.251, 1, 0.00107897, 0.00262589, 0.00489909, 18.2525, 143.116, 0, 0.00108768, 0.00194041, 0.00350859, 18.5872, 97.3341, 0, 0.00108849, -50.6055, -169.776, -208.967, -22.4162, -127.736, -141.851, 0.00123844, -0.000418899, -0.00313985, 0.00110013, 0.00110013, 0.00110013
4610, 1,0.00189379, -0.00122693, 0.000829723, 8.69464, -79.115, 0.0284444, -8.20429, 276.58, 0.838171, 0.00104552, 0.00225066, 0.00441088, 8.54965, 133.314, 0, 0.00105209, 0.00154916, 0.00286961, 9.02502, 81.597, 0, 0.00105298, -54.9441, -149.592, -195.405, -22.3652, -101.907, -120.518, 0.000958044, -0.000284886, -0.00283546, 0.000821294, 0.000821294, 0.000821294
4611, 1,0.00173215, -0.00142358, 0.000961773, 12.464, -90.5924, 0.02237, -4.741, 268.913, 0.647796, 0.00101197, 0.00218613, 0.00424404, 12.038, 126.012, 0, 0.00101683, 0.00131162, 0.00242963, 13.805, 67.3097, 0, 0.0010178, -37.0779, -171.565, -169.394, -2.72541, -114.482, -84.722, 0.00120863, -0.00102533, -0.00222767, 0.00100183, 0.00100183, 0.00100183
4612, 1,0.00154716, -0.00160642, 0.00108241, 9.81015, -101.85, 0.0158085, -1.5804, 246.577, 0.456019, 0.000977895, 0.00205841, 0.00398187, 8.85415, 120.733, 0, 0.000981233, 0.00108823, 0.0019491, 12.6373, 53.8931, 0, 0.000982298, -29.9629, -160.841, -171.396, 5.02609, -90.137, -76.5683, 0.00125828, -0.00103375, -0.00218372, 0.000939872, 0.000939872, 0.000939872
4613, 1,0.0024471, -0.0011991, 0.000806804, 13.1492, -77.404, 0.0343182, -11.0352, 319.488, 1, 0.0010782, 0.00282102, 0.00534912, 13.4348, 161.095, 0, 0.00108808, 0.00207879, 0.00379777, 12.9013, 110.941, 0, 0.00108897, -70.9258, -186.669, -225.69, -39.0201, -144.567, -149.235, 0.00114521, -0.000546484, -0.00321075, 0.00101672, 0.00101672, 0.00101672
4614, 1,0.00228056, -0.00134383, 0.000910787, 20.4908, -86.0771, 0.030795, -17.8272, 275.392, 0.954003, 0.00104488, 0.00270826, 0.00511798, 20.6528, 147.911, 0, 0.00105239, 0.00187854, 0.00340508, 20.8577, 92.1352, 0, 0.00105334, -47.7317, -165.668, -230.333, -12.1366, -118.45, -145.819, 0.00138327, -0.000390245, -0.00339215, 0.00124612, 0.00124612, 0.00124612
4615, 1,0.00186848, -0.00153413, 0.00103463, 6.91916, -97.4721, 0.0259575, -5.48021, 274.243, 0.755251, 0.00101154, 0.00238728, 0.00466181, 7.59571, 144.003, 0, 0.00101697, 0.00136553, 0.00264364, 6.96709, 80.9682, 0, 0.00101801, -58.5574, -178.07, -195.381, -21.1053, -120.369, -101.431, 0.00105955, -0.000844092, -0.00255171, 0.000848681, 0.000848681, 0.000848681
4616, 1,0.00222551, -0.00174193, 0.00117799, 29.3198, -110.205, 0.0195268, -9.74872, 256.655, 0.592758, 0.000977652, 0.00280562, 0.00501268, 29.4799, 139.607, 0, 0.000981529, 0.00167848, 0.00277185, 31.2554, 67.8677, 0, 0.000982673, -28.5879, -180.091, -210.141, 10.4763, -110.713, -103.366, 0.00160461, -0.00107426, -0.00279561, 0.00129332, 0.00129332, 0.00129332
4617, 1,0.00281229, -0.00134196, 0.000901027, 21.6097, -85.7776, 0.0356791, -3.25449, 357.739, 1, 0.00107728, 0.00324494, 0.00622088, 22.8903, 176.74, 0, 0.00108839, 0.00238143, 0.00446559, 20.4021, 121.743, 0, 0.00108937, -84.0269, -188.934, -257.261, -47.2794, -148.397, -169.554, 0.00119541, -0.000405685, -0.00365557, 0.00109261, 0.00109261, 0.00109261
4618, 1,0.0025848, -0.00146004, 0.000990595, 33.8822, -92.7898, 0.0337668, -7.09033, 289.022, 1, 0.00104453, 0.00306259, 0.00570716, 34.9756, 151.778, 7.54066E-05, 0.00105308, 0.00213486, 0.00383155, 33.2897, 92.2821, 7.54066E-05, 0.0010541, -47.055, -146.699, -261.58, -8.61217, -100.954, -167.281, 0.00151398, 3.98827E-05, -0.0040158, 0.0013785, 0.0013785, 0.0013785
4619, 1,0.00233679, -0.00166015, 0.0011236, 28.148, -104.757, 0.0284804, -1.71327, 265.117, 0.84788, 0.00101181, 0.00289343, 0.00533226, 29.4653, 147.805, 0, 0.00101766, 0.00180214, 0.00316645, 27.7057, 80.9366, 0, 0.00101877, -44.1281, -174.015, -225.27, -4.38592, -118.3, -120.124, 0.00146471, -0.000712303, -0.00315038, 0.00124148, 0.00124148, 0.00124148
4620, 1,0.00219698, -0.00185986, 0.00125376, 23.5391, -117.794, 0.02212, -5.0645, 254.598, 0.675361, 0.000977985, 0.00283537, 0.0051835, 25.0405, 145.89, 0, 0.000982163, 0.00156114, 0.00273467, 22.8217, 68.6408, 0, 0.000983395, -49.424, -151.324, -236.921, -6.63141, -80.2877, -119.003, 0.00129935, -0.000375673, -0.00329094, 0.000978616, 0.000978616, 0.000978616
4621, 1,0.00306538, -0.00149199, 0.00099896, 10.1498, -94.9724, 0.0370711, -5.19834, 400.268, 1, 0.00107761, 0.00355608, 0.00689907, 11.8769, 208.903, 0, 0.00108986, 0.00257495, 0.00492999, 8.63057, 147.594, 0, 0.00109094, -128.519, -178.483, -319.706, -85.4546, -137.165, -220.163, 0.000861364, 0.000223525, -0.00447252, 0.0007929, 0.0007929, 0.0007929
4622, 1,0.00340941, -0.0016176, 0.00109327, 31.794, -100.43, 0.0357279, 12.8524, 314.199, 1, 0.00104456, 0.00394497, 0.00705006, 34.0428, 164.232, 0.027787, 0.00105382, 0.00288685, 0.00493594, 29.7139, 99.5981, 0.027787, 0.00105494, -69.2617, -135.845, -287.59, -28.2221, -90.0848, -180.487, 0.00166321, 0.000471438, -0.00484036, 0.00155844, 0.00155844, 0.00155844
4623, 1,0.00283344, -0.00181436, 0.00123217, 39.6863, -111.148, 0.0307364, 6.29438, 250.176, 0.933061, 0.00101204, 0.00344509, 0.00609793, 41.0503, 155.978, 0.00612698, 0.00101807, 0.00224928, 0.00375245, 39.5174, 84.9069, 0.00452014, 0.00101925, -37.2242, -155.24, -275.471, 5.2985, -102.024, -157.995, 0.0018887, -0.000243107, -0.00418486, 0.0016503, 0.0016503, 0.0016503
4624, 1,0.00214959, -0.00202736, 0.00136909, 1.44754, -127.484, 0.0237593, -9.79802, 263.504, 0.725379, 0.000978222, 0.00281887, 0.00550379, 2.55047, 179.086, 0, 0.000982416, 0.0015127, 0.00286365, 1.25099, 96.7505, 0, 0.000983729, -71.7054, -187.995, -277.557, -25.6624, -119.249, -145.34, 0.00139768, -0.000670108, -0.00363344, 0.00106522, 0.00106522, 0.00106522
4625, 1,0.00394453, -0.00170108, 0.00114131, 15.1621, -105.347, 0.0390487, 6.07783, 432.603, 1, 0.00107752, 0.00452533, 0.0084137, 18.2018, 214.488, 0.030706, 0.0010909, 0.00336397, 0.00614134, 12.2208, 146.961, 0.030706, 0.00109212, -145.378, -153.609, -344.478, -95.913, -114.719, -230.25, 0.000944511, 0.000915665, -0.00539875, 0.000930388, 0.000930388, 0.000930388
4626, 1,0.00350224, -0.00179766, 0.00121384, 22.4726, -110.197, 0.0366011, 7.89583, 347.26, 1, 0.00104515, 0.0041069, 0.00747294, 25.5077, 176.063, 0.0350693, 0.00105548, 0.00290445, 0.00509559, 19.6222, 106.401, 0.0350693, 0.0010567, -93.83, -124.871, -309.489, -48.2894, -82.2987, -188.616, 0.00143963, 0.000919979, -0.00527155, 0.00134494, 0.00134494, 0.00134494
4627, 1,0.00371488, -0.00198387, 0.00134575, 36.8722, -118.201, 0.0339037, 2.23464, 270.49, 1, 0.00101208, 0.00438769, 0.00759715, 40.1061, 169.108, 0.036033, 0.00101933, 0.00306126, 0.00500003, 34.1051, 94.0944, 0.0342044, 0.0010206, -53.1356, -135.59, -318.599, -10.944, -86.2548, -185.084, 0.00227087, 0.000484205, -0.00555394, 0.00204302, 0.00204302, 0.00204302
4628, 1,0.00301739, -0.00226864, 0.00154118, 34.2541, -137.624, 0.0272655, -4.58414, 255.204, 0.848811, 0.000978243, 0.00377943, 0.00683492, 35.8124, 178.022, 0.00999092, 0.000983111, 0.00229374, 0.00388383, 34.0603, 89.4635, 0.00766254, 0.000984534, -53.1616, -175.385, -305.519, -2.52365, -112.995, -152.872, 0.00199689, -0.00040777, -0.0044934, 0.00165502, 0.00165502, 0.00165502
4629, 1,0.00610146, -0.00196413, 0.00132401, 21.8144, -116.208, 0.0405058, 12.3, 468.067, 1, 0.00107804, 0.00678413, 0.0114832, 25.5221, 216.774, 0.104623, 0.00109264, 0.00541913, 0.00884185, 18.1841, 141.713, 0.104623, 0.00109405, -173.417, -100.1, -376.805, -113.758, -69.0419, -242.339, 0.000809751, 0.00312011, -0.00766097, 0.000874635, 0.000874635, 0.000874635
4630, 1,0.00529067, -0.0020201, 0.00136233, 12.6907, -119.353, 0.0373439, 7.25365, 377.485, 1, 0.00104502, 0.00596964, 0.0102567, 16.219, 192.068, 0.0985797, 0.00105611, 0.00461288, 0.00757066, 9.33747, 115.979, 0.0985797, 0.0010575, -129.852, -91.307, -355.046, -77.1001, -58.0492, -212.787, 0.00144438, 0.00279158, -0.00753074, 0.00137741, 0.00137741, 0.00137741
4631, 1,0.00479082, -0.00218951, 0.00147875, 18.8546, -127.654, 0.0358986, 21.3087, 296.686, 1, 0.00101362, 0.00553022, 0.00948366, 22.346, 191.641, 0.0759569, 0.0010214, 0.00405549, 0.00661326, 15.6373, 110.507, 0.0745118, 0.0010228, -93.6964, -106.34, -374.888, -45.8283, -67.411, -218.282, 0.00224441, 0.00202722, -0.00751661, 0.00206052, 0.00206052, 0.00206052
4632, 1,0.00430029, -0.00252751, 0.00172129, 23.2642, -147.809, 0.0323824, -7.62598, 264.132, 0.996314, 0.000979264, 0.00518109, 0.00900423, 26.8195, 201.645, 0.0529564, 0.000985436, 0.00343852, 0.00567885, 20.7544, 106.201, 0.0502103, 0.000987012, -93.7195, -147.294, -363.922, -36.7869, -94.1668, -187.649, 0.00210719, 0.000877545, -0.00635504, 0.00186413, 0.00186413, 0.00186413
4633, 1,0.00804036, -0.00227383, 0.00154572, 26.1898, -127.716, 0.0432444, 38.1504, 501.318, 1, 0.00107922, 0.0088535, 0.0145349, 30.4746, 208.769, 0.183549, 0.00109512, 0.0072285, 0.0114546, 21.9884, 125.99, 0.183549, 0.00109676, -177.838, -54.1351, -394.333, -107.408, -34.0622, -236.501, 0.0009071, 0.00567573, -0.0103508, 0.00108594, 0.00108594, 0.00108594
4634, 1,0.00655696, -0.00228211, 0.00154131, 15.4447, -130.696, 0.039258, 38.1242, 390.557, 1, 0.00104688, 0.0073337, 0.0123006, 19.5519, 200.642, 0.14246, 0.00105825, 0.00578243, 0.00924978, 11.5077, 117.54, 0.14246, 0.0010598, -145.83, -62.3138, -393.783, -86.4478, -39.6487, -226.522, 0.00156768, 0.00454555, -0.00964525, 0.00147964, 0.00147964, 0.00147964
4635, 1,0.00513655, -0.00237921, 0.0016084, 21.0777, -138.38, 0.0367428, 31.1375, 317.18, 1, 0.00101396, 0.00593238, 0.0101765, 25.2313, 194.779, 0.0884364, 0.00102244, 0.00434308, 0.00703605, 17.0681, 107.943, 0.087375, 0.00102395, -105.174, -64.9456, -414.218, -54.0128, -38.8752, -230.94, 0.00222867, 0.00342707, -0.00897716, 0.00198249, 0.00198249, 0.00198249
4636, 1,0.00492806, -0.00269542, 0.00183757, 21.871, -156.777, 0.0347834, 18.2973, 283.162, 1, 0.000980555, 0.00589206, 0.010148, 27.7871, 209.517, 0.0742829, 0.000987295, 0.0039732, 0.00653396, 16.3916, 110.086, 0.0722148, 0.000988961, -113.898, -92.4275, -422.225, -52.6298, -58.2843, -219.344, 0.00207143, 0.00272824, -0.00834433, 0.00186141, 0.00186141, 0.00186141
4637, 1,0.0097617, -0.00260435, 0.00177775, -2.53607, -138.548, 0.0436018, 1.6024, 571.048, 1, 0.00108061, 0.0106628, 0.0176486, 0.97731, 243.281, 0.256157, 0.00109844, 0.00887192, 0.0141672, -5.7928, 153.121, 0.256157, 0.00110032, -214.478, -51.0612, -464.304, -136.475, -41.9675, -280.919, 0.000970417, 0.0083114, -0.01388, 0.00120242, 0.00120242, 0.00120242
4638, 1,0.00798939, -0.00259126, 0.00174077, 13.1269, -146.079, 0.0396986, 13.8922, 442.781, 1, 0.00104879, 0.00887481, 0.0145019, 16.7188, 231.29, 0.178207, 0.00106154, 0.0071049, 0.0110297, 9.59042, 135.285, 0.178207, 0.00106338, -188.944, -34.8082, -470.117, -114.543, -22.9742, -268.337, 0.00119063, 0.00699352, -0.0123438, 0.00113665, 0.00113665, 0.00113665
4639, 1,0.0080733, -0.00275323, 0.00184949, 25.799, -152.527, 0.0383094, 29.0502, 364.951, 1, 0.00101609, 0.00899286, 0.0142274, 32.1524, 214.916, 0.175026, 0.00102582, 0.00715839, 0.0105794, 19.5806, 117.628, 0.174521, 0.00102762, -149.578, -28.5311, -466.64, -85.2899, -18.6693, -248.925, 0.00212835, 0.00675049, -0.0127369, 0.00183427, 0.00183427, 0.00183427
4640, 1,0.00727087, -0.00314132, 0.00215087, 19.1338, -164.013, 0.035792, 21.118, 315.312, 1, 0.000981611, 0.00838151, 0.0139913, 24.2285, 212.488, 0.170202, 0.000989265, 0.00617469, 0.00979603, 14.4791, 107.809, 0.162559, 0.000991132, -134.643, -53.3694, -449.451, -66.5331, -34.9919, -221.903, 0.00262457, 0.0055573, -0.0119869, 0.00236569, 0.00236569, 0.00236569
4641, 1,0.013332, -0.00303463, 0.00206656, -6.90987, -150.577, 0.0445017, -18.4966, 625.024, 1, 0.00103517, 0.0143186, 0.0221305, -2.72023, 275.482, 0.344097, 0.00105336, 0.0123606, 0.0181824, -10.8949, 174.323, 0.344097, 0.0010555, -251.763, -34.5576, -540.126, -163.744, -35.3608, -323.865, 0.000709485, 0.0125229, -0.0187564, 0.000849292, 0.000849292, 0.000849292
4642, 1,0.0123673, -0.0030917, 0.00208774, -3.79431, -163.129, 0.0418977, 7.29566, 512.286, 1, 0.00100597, 0.0134241, 0.0201886, -0.478188, 289.883, 0.290627, 0.00101934, 0.0113169, 0.0160714, -6.99591, 174.795, 0.290627, 0.00102161, -271.374, -36.6798, -561.596, -172.039, -31.4224, -320.924, 5.18277E-05, 0.011625, -0.0172815, 1.10505E-05, 1.10505E-05, 1.10505E-05
4643, 1,0.0121211, -0.00340846, 0.00228802, 18.4422, -176.945, 0.0401544, 22.2149, 431.045, 1, 0.000974651, 0.0132813, 0.0194252, 22.6471, 268.984, 0.273944, 0.000985111, 0.0109632, 0.0148754, 14.2902, 143.725, 0.270574, 0.000987482, -268.477, -12.8971, -525.578, -156.596, -6.80064, -267.78, -0.000684048, 0.0115983, -0.0160555, -0.000887675, -0.000887675, -0.000887675
4644, 1,0.0104369, -0.00402601, 0.00276488, 9.61496, -176.765, 0.0374153, 12.7039, 362.862, 1, 0.000939801, 0.0119293, 0.0186722, 12.0544, 254.03, 0.266211, 0.000947807, 0.0089467, 0.0131652, 7.25892, 132.552, 0.236684, 0.000950048, -219.861, -30.0404, -512.19, -120.881, -17.639, -259.137, 0.00131438, 0.00996433, -0.0161109, 0.00116327, 0.00116327, 0.00116327
4645, 1,0.01404, 0.00188462, 0.00132433, 407.954, 107.127, 0.00658552, 408.733, -132.987, 0, 0.00111362, 0.0158377, 0.0115568, 514.712, -244.729, 0.175545, 0.00111613, 0.0122692, 0.0091644, 301.559, -162.345, 0.175545, 0.00111447, 142.433, 162.971, 428.782, 117.647, 119.633, 249.755, -0.00389258, -0.00286433, 0.0111598, -0.0025654, -0.0025654, -0.0025654
4646, 1,0.016708, 0.00160336, 0.00113411, 427.82, 87.2086, 0.0214894, 467.805, -164.026, 0.283193, 0.00107835, 0.018205, 0.0134929, 514.562, -245.633, 0.225261, 0.00107985, 0.0152328, 0.0114709, 341.385, -177.152, 0.225261, 0.00107848, 156.923, 136.481, 443.496, 131.338, 110.261, 289.858, -0.00404103, -0.00533827, 0.0139374, -0.00290508, -0.00290508, -0.00290508
4647, 1,0.0125993, 0.00115028, 0.00085498, 309.364, 51.0342, 0.0323316, 463.525, -155.749, 0.484626, 0.00104096, 0.0134889, 0.00976375, 358.879, -157.543, 0.173913, 0.0010403, 0.0117502, 0.00862141, 260.466, -117.109, 0.171898, 0.00103954, 95.5983, 70.7871, 306.244, 81.9147, 56.4032, 213.01, -0.00310493, -0.00462546, 0.0105605, -0.0022089, -0.0022089, -0.0022089
4648, 1,0.00714943, -0.000919419, 0.000901355, 215.837, -23.9971, 0.0404108, 350.81, -100.591, 0.675831, 0.00100354, 0.00756409, 0.00637485, 223.663, -43.3883, 0.0702226, 0.00100165, 0.00684809, 0.00562173, 211.165, -45.1629, 0.0629955, 0.00100168, 4.0956, -71.3548, 197.424, 8.48462, -61.5461, 188.55, -0.00154478, -0.00443082, 0.00670711, -0.00142926, -0.00142926, -0.00142926
4649, 1,0.0136334, 0.00177629, 0.00126675, 366.544, 101.411, 0.0052042, 323.119, -103.313, 0, 0.0010836, 0.0153525, 0.0116159, 467.615, -167.122, 0.162154, 0.00108502, 0.0119315, 0.00933834, 265.737, -92.2645, 0.162154, 0.00108357, 37.8241, 76.3539, 387.189, 24.0319, 40.5184, 212.243, -0.00511087, -0.00328698, 0.0113806, -0.00385135, -0.00385135, -0.00385135
4650, 1,0.0144011, 0.00154724, 0.00109971, 396.411, 83.4657, 0.0230696, 475.189, -166.708, 0.310115, 0.00104982, 0.0157952, 0.0118483, 478.733, -186.147, 0.17397, 0.0010499, 0.0130414, 0.00996499, 314.717, -122.661, 0.17397, 0.0010487, 85.9008, 101.846, 370.694, 66.4924, 71.9722, 229.519, -0.0039859, -0.00322021, 0.0105506, -0.00293602, -0.00293602, -0.00293602
4651, 1,0.00989693, 0.000973521, 0.000734162, 294.022, 48.5555, 0.0357155, 471.021, -158.722, 0.542542, 0.00101253, 0.0106757, 0.00802733, 340.51, -123.369, 0.114117, 0.00101095, 0.00915115, 0.00683916, 248.278, -88.3931, 0.114117, 0.00101034, 38.1291, 56.0407, 275.938, 34.7843, 42.0999, 188.295, -0.00345196, -0.00258034, 0.00816845, -0.00265396, -0.00265396, -0.00265396
4652, 1,0.00766511, 0.000943335, 0.000919836, 254.145, 29.017, 0.0444029, 428.107, -154.488, 0.722381, 0.00097808, 0.00830079, 0.00644215, 275.913, -80.6695, 0.0681255, 0.000975307, 0.00711907, 0.00531094, 235.127, -78.7006, 0.0634853, 0.000975272, 28.3693, -14.2029, 227.842, 35.4838, -3.62299, 204.241, -0.00185771, -0.00333941, 0.00655539, -0.00164963, -0.00164963, -0.00164963
4653, 1,0.0107978, 0.00156042, 0.00110079, 404.178, 90.0734, 0.0072647, 456.659, -151.878, 0, 0.00108307, 0.0122772, 0.00875154, 493.479, -208.52, 0.103041, 0.00108429, 0.00934349, 0.006683, 315.394, -145.307, 0.103041, 0.00108311, 73.1041, 152.453, 400.003, 67.8676, 119.782, 248.272, -0.00399911, -0.000936598, 0.0085273, -0.00296866, -0.00296866, -0.00296866
4654, 1,0.00891706, 0.00123449, 0.00089798, 360.524, 70.6633, 0.0236184, 467.372, -148.875, 0.31635, 0.00104834, 0.010048, 0.00756325, 428.931, -131.807, 0.0633356, 0.00104759, 0.0078179, 0.00597538, 293.158, -84.9146, 0.0633356, 0.00104676, 13.4602, 89.0382, 292.924, 11.9074, 65.6379, 177.198, -0.00302677, -0.000731847, 0.00597476, -0.00215757, -0.00215757, -0.00215757
4655, 1,0.00686902, 0.000726376, 0.000560143, 286.798, 39.4175, 0.0387745, 490.697, -187.575, 0.599071, 0.00101192, 0.00747623, 0.00575285, 323.36, -121.36, 0.054917, 0.00100935, 0.00628672, 0.00480892, 251.136, -94.8111, 0.054917, 0.00100891, 32.4017, 86.8714, 244.807, 34.872, 75.0012, 174.56, -0.00257251, -0.000746866, 0.0053478, -0.00195337, -0.00195337, -0.00195337
4656, 1,0.00719324, 0.000820558, 0.000771928, 252.061, 30.504, 0.0514611, 475.467, -169.109, 0.82103, 0.000977241, 0.00772784, 0.00574445, 275.133, -79.0111, 0.0538651, 0.00097359, 0.00673505, 0.00500132, 231.674, -71.595, 0.0531474, 0.000973469, 13.1187, -14.7159, 238.631, 16.5479, -6.4893, 204.726, -0.00218397, -0.00304321, 0.00654528, -0.00199869, -0.00199869, -0.00199869
4657, 1,0.00598852, 0.00128468, 0.000905474, 363.967, 81.2338, 0.0136159, 484.335, -182.441, 0.123754, 0.00108397, 0.0072456, 0.00519472, 443.974, -134.901, 0, 0.00108289, 0.00474541, 0.00343544, 284.577, -79.6585, 0, 0.00108192, -7.93486, 88.5275, 324.111, -10.2864, 60.6683, 188.594, -0.00221092, -0.000256784, 0.00465808, -0.0013904, -0.0013904, -0.0013904
4658, 1,0.00491215, 0.000917335, 0.000676473, 277.425, 56.2073, 0.0264739, 473.389, -155.776, 0.369902, 0.00104835, 0.00581049, 0.00451074, 332.258, -81.1216, 0.0022255, 0.0010464, 0.00402321, 0.00323395, 223.276, -47.2867, 0.0022255, 0.00104582, -39.4229, 62.3531, 220.435, -33.4143, 43.2278, 132.047, -0.00217498, -0.000133116, 0.00362509, -0.0015098, -0.0015098, -0.0015098
4659, 1,0.00375018, 0.000509066, 0.000392976, 218.298, 31.264, 0.0393298, 479.851, -157.476, 0.603521, 0.00101056, 0.00421122, 0.00338017, 245.393, -61.065, 0, 0.00100767, 0.0033043, 0.00268358, 192.462, -43.5913, 0, 0.00100739, -21.1932, 46.9566, 157.432, -14.285, 43.5491, 101.51, -0.00157912, -0.000242131, 0.00280923, -0.00115448, -0.00115448, -0.00115448
4660, 1,0.00546385, 0.000582785, 0.000546917, 230.625, 25.5175, 0.0568498, 469.157, -152.628, 0.90692, 0.00097704, 0.00583598, 0.00432719, 247.008, -50.4964, 0.0190136, 0.000972958, 0.00514277, 0.00377575, 216.772, -45.6475, 0.0187418, 0.00097288, -17.3805, -52.0829, 220.953, -16.0409, -35.5341, 188.517, -0.0017878, -0.00270065, 0.00531273, -0.00168965, -0.00168965, -0.00168965
4661, 1,0.00443112, 0.00110001, 0.000764416, 285.97, 69.9316, 0.0170855, 470.011, -157.111, 0.190488, 0.00108406, 0.00552283, 0.00381944, 355.507, -126.664, 0, 0.00108319, 0.00334493, 0.00230954, 216.696, -78.7578, 0, 0.00108235, 26.5369, 88.7218, 264.734, 20.518, 62.2309, 153.525, -0.00136054, -0.000195584, 0.00361241, -0.000732578, -0.000732578, -0.000732578
4662, 1,0.0036846, 0.000735992, 0.000529123, 228.944, 46.2136, 0.0293072, 474.224, -154.434, 0.422074, 0.00104891, 0.00440968, 0.00328396, 274.258, -87.2024, 0, 0.00104696, 0.00296501, 0.00227243, 184.113, -57.8458, 0, 0.00104646, -0.484358, 73.9026, 188.189, 0.721384, 55.7922, 117.024, -0.00138783, -1.53983E-05, 0.00281751, -0.000896578, -0.000896578, -0.000896578
4663, 1,0.00296373, 0.000415471, 0.000306699, 177.144, 25.9073, 0.0415127, 475.113, -148.734, 0.643045, 0.00101112, 0.00333967, 0.0025701, 199.502, -55.6307, 0, 0.00100823, 0.00260003, 0.00203562, 155.858, -40.7572, 0, 0.00100799, 1.1191, 40.4729, 125.3, 4.70048, 39.1019, 78.4691, -0.000967416, -0.000302571, 0.00217055, -0.000652114, -0.000652114, -0.000652114
4664, 1,0.00345722, 0.000382758, 0.000368662, 179.414, 18.4773, 0.056307, 456.838, -139.212, 0.901979, 0.000976971, 0.00375407, 0.00282717, 191.975, -52.6535, 0, 0.000973369, 0.00318575, 0.00233208, 168.918, -51.7719, 0, 0.000973355, 13.3052, -27.5774, 172.233, 15.0396, -6.83213, 147.108, -0.000788757, -0.0017599, 0.0033994, -0.000733395, -0.000733395, -0.000733395
4665, 1,0.00348102, 0.000962889, 0.000659941, 223.981, 60.7683, 0.0172704, 463.838, -147.05, 0.193561, 0.00108413, 0.00443706, 0.00305488, 284.27, -100.466, 0, 0.001083, 0.00253024, 0.00175079, 164.07, -60.0745, 0, 0.00108229, 23.6229, 79.0399, 198.736, 16.599, 56.8986, 106.726, -0.00101721, -3.44343E-05, 0.00268268, -0.000528225, -0.000528225, -0.000528225
4666, 1,0.00286546, 0.000640533, 0.000445668, 180.114, 40.6203, 0.0294981, 465.493, -139.133, 0.423733, 0.00104883, 0.00348905, 0.00252084, 219.201, -71.1404, 0, 0.00104694, 0.00225184, 0.0016828, 141.955, -44.9521, 0, 0.00104649, 11.1591, 64.2209, 138.041, 8.70366, 50.0185, 76.1342, -0.00087748, -5.6983E-06, 0.00203699, -0.000512419, -0.000512419, -0.000512419
4667, 1,0.00225448, 0.000359812, 0.000255667, 139.949, 22.8865, 0.0412139, 472.766, -144.788, 0.637474, 0.00101189, 0.00258409, 0.00189425, 159.752, -52.7776, 0, 0.00100907, 0.00193518, 0.00145225, 121.221, -39.249, 0, 0.00100885, 19.7249, 38.319, 100.289, 20.6214, 37.9341, 59.1916, -0.00050328, -0.000339532, 0.00169725, -0.000264263, -0.000264263, -0.000264263
4668, 1,0.00252894, 0.000290568, 0.000288338, 120.421, -13.7147, 0.0550357, 442.334, -124.348, 0.88488, 0.000976991, 0.00275772, 0.00211982, 129.178, -30.533, 0, 0.000973586, 0.00231951, 0.0017126, 113.574, -30.8714, 0, 0.000973592, 1.99861, -26.5731, 116.173, 3.22389, -7.28439, 96.6746, -0.000616241, -0.00140732, 0.00251607, -0.0005886, -0.0005886, -0.0005886
4669, 1,0.00270863, 0.000873899, 0.000590248, 170.944, 54.8453, 0.0178833, 465.553, -149.095, 0.205244, 0.00108403, 0.00356703, 0.00249397, 224.654, -75.8795, 0, 0.0010824, 0.00186441, 0.00135299, 118.33, -40.3375, 0, 0.00108178, 17.261, 69.4592, 140.918, 9.46947, 51.2431, 60.2999, -0.000763889, 0.000115363, 0.00188051, -0.000366721, -0.000366721, -0.000366721
4670, 1,0.00219198, 0.00058251, 0.000397442, 136.718, 37.1807, 0.0294394, 464.815, -137.92, 0.422262, 0.00104826, 0.00276467, 0.00195579, 172.511, -55.8181, 0, 0.00104615, 0.00162654, 0.00119205, 101.985, -31.8514, 0, 0.00104574, 11.6808, 48.7177, 107.056, 7.66027, 37.0042, 50.8896, -0.000612556, -0.000144784, 0.00166248, -0.000314311, -0.000314311, -0.000314311
4671, 1,0.00183361, 0.000312151, 0.000215418, 105.86, 20.2091, 0.0406406, 468.351, -138.049, 0.626974, 0.00101198, 0.0021287, 0.00146456, 123.969, -39.5193, 0, 0.00100915, 0.00154511, 0.0010774, 88.6398, -27.5307, 0, 0.00100895, 21.3009, 18.4169, 78.8401, 20.2178, 18.9542, 43.4203, -0.000237992, -0.000612329, 0.00148988, -6.36139E-05, -6.36139E-05, -6.36139E-05
4672, 1,0.00213228, -0.000254492, 0.000245446, 93.1578, -12.6085, 0.0547966, 430.857, -120.381, 0.887399, 0.000977037, 0.00230398, 0.00185686, 98.2722, -17.1748, 0, 0.000973534, 0.00197909, 0.00152141, 89.936, -18.5657, 0, 0.000973556, -1.90756, -32.1164, 85.5484, -1.2836, -13.3902, 70.3708, -0.000451399, -0.00137814, 0.00210561, -0.000450861, -0.000450861, -0.000450861
4673, 1,0.00214397, 0.000821736, 0.000553869, 135.309, 51.4955, 0.019893, 458.115, -135.42, 0.243066, 0.00108353, 0.00294375, 0.00201996, 184.815, -62.2056, 0, 0.00108187, 0.00137025, 0.000977949, 88.1893, -29.2959, 0, 0.00108129, 16.5585, 62.2748, 107.784, 7.94483, 46.4699, 33.4728, -0.00055836, 0.000134259, 0.00143415, -0.000219285, -0.000219285, -0.000219285
4674, 1,0.00171193, 0.000540604, 0.000364948, 104.105, 34.5629, 0.029536, 464.025, -137.335, 0.42448, 0.00104775, 0.00224788, 0.00160672, 137.385, -43.4946, -1.0842E-19, 0.00104543, 0.00118067, 0.000893004, 72.1025, -21.4891, -1.0842E-19, 0.00104506, 12.0245, 34.3511, 84.1081, 7.24503, 24.3956, 32.8266, -0.000401342, -0.000294767, 0.00140129, -0.000149203, -0.000149203, -0.000149203
4675, 1,0.00172333, 0.00027298, 0.000186542, 95.4413, 17.8578, 0.0406403, 468.457, -138.938, 0.627575, 0.00101225, 0.00197719, 0.00138942, 111.218, -35.9815, 0, 0.00100934, 0.00147635, 0.00105521, 80.5287, -25.6768, 0, 0.00100917, 27.8674, 12.6774, 67.3997, 26.1501, 14.2157, 36.6647, -2.14912E-05, -0.000738096, 0.00134178, 0.000114542, 0.000114542, 0.000114542
4676, 1,0.00214805, -0.000240644, 0.000221916, 91.1012, -12.2126, 0.0548328, 446.409, -122.482, 0.878313, 0.000977168, 0.00228101, 0.00190848, 94.0437, -17.3865, 0, 0.000973641, 0.00203157, 0.00162642, 89.7403, -19.9306, 0, 0.000973681, 4.58458, -33.6326, 81.2076, 5.21098, -15.6256, 70.2063, -0.00028721, -0.00149882, 0.00206535, -0.00030224, -0.00030224, -0.00030224
4677, 1,0.00203528, 0.000780006, 0.000525137, 119.282, 49.0419, 0.018962, 483.592, -177.332, 0.227234, 0.0010842, 0.00280613, 0.00193912, 167.577, -50.9811, 0, 0.00108152, 0.001275, 0.000929725, 71.9684, -19.3376, 0, 0.00108097, 9.548, 38.7089, 104.687, 0.398336, 24.1664, 33.4481, -0.000533204, -0.000183982, 0.00154514, -0.000225691, -0.000225691, -0.000225691
4678, 1,0.00172936, 0.000492656, 0.000332959, 95.34, 31.7429, 0.0289363, 471.738, -150.485, 0.414192, 0.00104785, 0.00221454, 0.00166693, 126.769, -37.9838, 0, 0.00104517, 0.00124975, 0.00103738, 64.2555, -17.4538, 0, 0.00104482, 19.8018, 7.51553, 86.6341, 14.8948, -1.36638, 38.8329, -0.000146559, -0.000775886, 0.00153841, 7.94652E-05, 7.94652E-05, 7.94652E-05
4679, 1,0.0016474, 0.000237036, 0.000161745, 88.9477, 15.5817, 0.0400062, 471.346, -145.072, 0.61781, 0.00101271, 0.00187565, 0.00134614, 103.393, -37.5721, 0, 0.00100969, 0.00142225, 0.00103644, 75.0285, -28.8018, 0, 0.00100955, 27.749, 12.7566, 72.2105, 26.0213, 15.0772, 45.3069, -3.08814E-05, -0.000789303, 0.00142837, 8.14129E-05, 8.14129E-05, 8.14129E-05
4680, 1,0.00209784, -0.000233478, 0.000206441, 82.755, -11.9647, 0.0550682, 478.049, -145.76, 0.871242, 0.000978238, 0.00220127, 0.00186374, 84.0229, -13.5603, 0, 0.000973959, 0.00201043, 0.00162055, 82.9288, -17.1471, 0, 0.000974016, 3.61268, -32.186, 69.2541, 4.5852, -15.0547, 61.9108, -0.000221085, -0.00147285, 0.00191104, -0.000243014, -0.000243014, -0.000243014
4681, 1,0.00150409, 0.000745916, 0.000504908, 86.8221, 46.6447, 0.0101194, 443.049, -118.444, 0.0518431, 0.0010829, 0.00224641, 0.00157381, 133.276, -38.5305, 0, 0.00108144, 0.000767922, 0.000600817, 40.7883, -8.55715, 0, 0.00108091, 3.6642, 23.7445, 88.1829, -5.60396, 9.86312, 21.4123, -0.00047634, -0.000213453, 0.00131581, -0.000198927, -0.000198927, -0.000198927
4682, 1,0.00161043, 0.000456032, 0.000308564, 84.2741, 29.334, 0.0252773, 474.126, -155.83, 0.345181, 0.00104797, 0.00205032, 0.00149549, 113.203, -32.938, 0, 0.00104525, 0.00118138, 0.000935672, 55.7429, -14.0022, 0, 0.00104493, 14.681, 5.9136, 78.2194, 9.95368, -2.36155, 34.4144, -0.000170866, -0.000708882, 0.00141396, 3.28687E-05, 3.28687E-05, 3.28687E-05
4683, 1,0.00162342, 0.00020496, 0.000144224, 77.9481, 13.3865, 0.0380535, 483.25, -165.349, 0.583892, 0.00101325, 0.00181847, 0.00137442, 90.3955, -28.4218, 0, 0.00100969, 0.0014313, 0.00110628, 65.8921, -21.0426, 0, 0.00100957, 22.7791, -0.41864, 62.9048, 21.2491, 2.28963, 39.5891, 2.16566E-05, -0.000921476, 0.00135975, 0.000115646, 0.000115646, 0.000115646
4684, 1,0.00198409, -0.000239015, 0.00020379, 79.1638, -12.3875, 0.0527732, 479.82, -150.202, 0.834586, 0.000978363, 0.0020607, 0.00179109, 78.8551, -12.776, 0, 0.000974111, 0.00192607, 0.00158791, 80.9059, -17.3064, 0, 0.000974183, 7.43853, -34.3951, 65.2846, 8.59952, -17.323, 60.6426, -0.000111104, -0.00148348, 0.00179953, -0.000143985, -0.000143985, -0.000143985
4685, 1,0.00100017, 0.000717236, 0.000491623, 60.9009, 44.4823, 0.00500796, 303.671, -89.9559, 0, 0.00108244, 0.00170293, 0.00117021, 104.812, -32.9138, 0, 0.00108144, 0.000359006, 0.000277821, 19.7377, -4.82508, 0, 0.00108095, 12.8834, 19.8934, 65.9646, 3.60236, 7.31856, 3.5543, -0.000202061, -0.000147191, 0.000884206, 4.46497E-05, 4.46497E-05, 4.46497E-05
4686, 1,0.00133796, 0.000432379, 0.000294031, 72.2191, 27.3678, 0.0177784, 486.556, -183.184, 0.204908, 0.00104854, 0.00176131, 0.00126385, 99.2033, -30.2938, 4.69008E-08, 0.00104554, 0.000922484, 0.000710675, 45.7032, -13.02, 4.69008E-08, 0.00104524, 12.7468, 11.6403, 66.4944, 8.01432, 4.85451, 26.1911, -0.000168772, -0.000473151, 0.00113332, 7.02716E-06, 7.02716E-06, 7.02716E-06
4687, 1,0.00157923, 0.000186213, 0.0001369, 77.1555, 11.6695, 0.0316155, 499.088, -193.468, 0.466595, 0.00101383, 0.0017577, 0.00127951, 88.0996, -28.049, 0, 0.00101, 0.00140284, 0.00102447, 66.4883, -22.0163, 0, 0.0010099, 17.2271, 3.31079, 63.609, 15.9396, 7.0981, 43.0112, -7.48086E-05, -0.000783106, 0.00131204, 1.25729E-06, 1.25729E-06, 1.25729E-06
4688, 1,0.00190791, -0.000249703, 0.000206619, 75.3104, -13.0657, 0.0471468, 486.391, -163.285, 0.740616, 0.000978636, 0.00196728, 0.00176082, 74.2627, -10.5072, 0, 0.000974393, 0.00186933, 0.0015793, 77.7833, -15.9828, 0, 0.000974479, 9.58469, -39.5326, 61.4696, 11.0674, -22.6849, 59.5661, -9.98369E-06, -0.00151108, 0.00168973, -5.20992E-05, -5.20992E-05, -5.20992E-05
4689, 1,0.00110511, 0.000679914, 0.000469821, 71.406, 41.9562, 0.00316559, 176.685, -35.227, 0, 0.00108163, 0.00177523, 0.00122319, 113.065, -37.806, 0, 0.00108167, 0.000464976, 0.000366257, 30.7715, -11.6221, 0, 0.00108122, 15.6155, 21.497, 76.3056, 6.54048, 11.3708, 16.9551, -0.000230161, -0.000150837, 0.000995335, -9.49252E-06, -9.49252E-06, -9.49252E-06
4690, 1,0.000971319, 0.000402202, 0.000278029, 49.3108, 25.0713, 0.00856362, 430.855, -104.304, 0.0217347, 0.00104703, 0.00135032, 0.00102643, 73.3291, -17.5821, 0, 0.00104554, 0.000621813, 0.00052654, 26.9049, -1.98365, 0, 0.00104527, 12.6328, -3.76736, 43.8807, 8.31543, -9.40874, 7.04425, 1.13344E-05, -0.000477004, 0.00075087, 0.000167569, 0.000167569, 0.000167569
4691, 1,0.00128484, 0.0001738, 0.000135601, 63.0888, 10.2253, 0.0194892, 476.572, -165.558, 0.237119, 0.00101286, 0.00144848, 0.00112631, 72.4725, -19.6313, -2.71051E-20, 0.00101005, 0.00112471, 0.000887238, 54.0897, -14.9302, -2.71051E-20, 0.00100997, 12.9026, -7.11882, 53.1101, 11.5945, -1.7624, 34.9585, -2.76953E-05, -0.000736431, 0.00108182, 2.40444E-05, 2.40444E-05, 2.40444E-05
4692, 1,0.00189172, -0.000268892, 0.000218389, 72.8224, -14.2979, 0.0348187, 495.444, -184.869, 0.524504, 0.000978572, 0.00192535, 0.00173167, 70.6567, -0.433535, 0, 0.000974438, 0.00188403, 0.00159076, 76.4892, -6.82248, 0, 0.000974539, -2.92962, -51.9043, 56.1345, -1.0041, -34.3116, 55.7831, -9.85337E-05, -0.00152525, 0.00162909, -0.000148104, -0.000148104, -0.000148104
4693, 1,0.00084609, 0.000646234, 0.000451542, 55.1848, 39.5907, 0.00188704, 80.5167, 13.214, 0, 0.00108099, 0.00147468, 0.00102298, 94.2807, -31.094, 0, 0.00108177, 0.000311759, 0.000263588, 19.0935, -6.8272, 0, 0.00108134, 14.6258, 16.4871, 62.1692, 5.79062, 8.22098, 6.46998, -0.000149275, -0.000123615, 0.000778311, 4.58955E-05, 4.58955E-05, 4.58955E-05
4694, 1,0.000939771, 0.000367707, 0.000257293, 53.2343, 22.7397, 0.00499666, 295.925, -80.7146, 0, 0.00104684, 0.00128119, 0.000927797, 74.7979, -21.5618, 0, 0.00104583, 0.000625, 0.000507047, 33.0334, -7.59977, 0, 0.00104559, 15.555, 0.743291, 48.3873, 11.5738, -3.47097, 14.6964, 7.54732E-08, -0.000386626, 0.000736382, 0.000136911, 0.000136911, 0.000136911
4695, 1,0.000931383, 0.000153918, 0.000126775, 47.4137, 8.64815, 0.00983504, 434.248, -111.278, 0.0486691, 0.00101183, 0.0010687, 0.000856332, 54.9271, -13.4592, 0, 0.00101018, 0.000801192, 0.000645229, 40.4704, -10.0667, 0, 0.00101012, 14.1779, -11.5027, 37.7024, 13.3068, -5.28758, 22.1808, 8.60963E-05, -0.000600074, 0.000731587, 0.000124329, 0.000124329, 0.000124329
4696, 1,0.0014957, -0.000269521, 0.000211321, 67.8597, -14.9368, 0.0178305, 452.354, -126.724, 0.203096, 0.000976908, 0.00150501, 0.00133938, 64.5553, -7.58166, 0, 0.000974765, 0.00151937, 0.00123874, 72.9573, -14.9067, 0, 0.000974881, 6.17886, -37.7592, 54.3254, 8.36587, -19.3755, 55.7297, -2.35757E-05, -0.0011697, 0.00131465, -8.67206E-05, -8.67206E-05, -8.67206E-05
4697, 1,0.000678998, 0.000612684, 0.000433067, 45.0508, 37.2625, 0.00155191, 52.5409, 29.2331, 0, 0.00108092, 0.00126739, 0.000860382, 81.6771, -27.1451, 0, 0.00108191, 0.000256496, 0.000221443, 13.8926, -4.77095, 0, 0.00108152, 14.3455, 14.3039, 52.7859, 5.873, 8.16192, 0.277922, -9.46724E-05, -9.23463E-05, 0.000628365, 7.81161E-05, 7.81161E-05, 7.81161E-05
4698, 1,0.000835243, 0.000336945, 0.000239383, 48.947, 20.6269, 0.00298175, 168.619, -37.6095, 0, 0.00104631, 0.00114787, 0.000845779, 68.4774, -20.1411, 0, 0.00104601, 0.000549405, 0.000458605, 30.7675, -7.80999, 0, 0.0010458, 15.6498, -0.680164, 45.4536, 12.0103, -3.05964, 14.4794, 2.00822E-05, -0.000363691, 0.000670412, 0.000138102, 0.000138102, 0.000138102
4699, 1,0.000976988, 0.000137732, 0.000121756, 52.0253, 7.3466, 0.0062463, 361.137, -87.743, 0, 0.00101155, 0.00109259, 0.000872158, 58.0356, -13.0956, 0, 0.00101033, 0.000869658, 0.000696466, 46.5561, -11.0165, 0, 0.00101029, 15.0127, -14.5012, 38.7753, 14.5997, -6.96774, 25.4176, 9.85596E-05, -0.000601573, 0.000714762, 0.000124995, 0.000124995, 0.000124995
4700, 1,0.00122455, -0.000278049, 0.000212302, 61.7451, -15.8866, 0.00939865, 444.101, -126.962, 0.0407025, 0.000976768, 0.00122642, 0.00116118, 58.0767, -10.0839, 0, 0.000974871, 0.00126144, 0.00106476, 67.4382, -18.3544, 0, 0.000975002, 16.5733, -36.4938, 50.1723, 19.2381, -17.6654, 53.4907, 0.000146918, -0.00107603, 0.00109116, 7.66751E-05, 7.66751E-05, 7.66751E-05
4701, 1,0.000527869, 0.000575995, 0.000411407, 34.2549, 34.8065, 0.00147082, 45.6373, 32.9247, 0, 0.00108114, 0.00107837, 0.000746138, 68.5323, -21.6017, 0, 0.00108209, 0.000219698, 0.000220818, 8.59122, -1.10213, 0, 0.00108173, 11.1364, 8.53788, 45.1308, 2.99871, 4.42364, -4.11594, -7.49983E-05, -0.00012025, 0.000546649, 7.51965E-05, 7.51965E-05, 7.51965E-05
4702, 1,0.000732942, 0.000305527, 0.000221194, 41.4773, 18.5153, 0.00200825, 109.725, -20.2949, 0, 0.00104625, 0.00100592, 0.000766934, 58.5137, -15.0501, 0, 0.00104616, 0.000494798, 0.000436853, 26.171, -4.3339, 0, 0.00104598, 14.4469, -6.63484, 37.3383, 11.2461, -7.29018, 9.04576, 7.15519E-05, -0.000391413, 0.00056407, 0.000173274, 0.000173274, 0.000173274
4703, 1,0.000850036, 0.000126767, 0.000121132, 45.9207, 6.32205, 0.00454025, 268.263, -71.5924, 0, 0.00101147, 0.00095005, 0.000805369, 50.644, -10.9086, 0, 0.00101048, 0.000761136, 0.000636339, 41.8902, -10.1415, 0, 0.00101046, 15.2642, -18.4511, 35.9128, 15.2218, -9.22033, 24.4232, 0.000133102, -0.00062665, 0.000669846, 0.000146249, 0.000146249, 0.000146249
4704, 1,0.00131091, -0.000300906, 0.000227344, 63.8048, -17.3929, 0.00744809, 445.169, -129.527, 0.00179269, 0.000976925, 0.00130133, 0.00120696, 59.2686, -4.70591, 0, 0.000974946, 0.00136382, 0.00112291, 70.5347, -13.9504, 0, 0.000975092, 8.3875, -43.2425, 48.9727, 11.452, -23.2643, 53.6635, 5.33685E-05, -0.00110195, 0.00112338, -2.44011E-05, -2.44011E-05, -2.44011E-05
4705, 1,0.000388312, 0.000539539, 0.000389746, 24.2165, 32.3781, 0.0012345, 30.2443, 38.2082, 0, 0.00108126, 0.000892475, 0.000625715, 55.9235, -16.8325, 0, 0.00108223, 0.00020774, 0.000252898, 5.87362, 1.82024, 0, 0.0010819, 10.1033, 3.07625, 37.318, 2.34826, 0.968078, -8.77705, -2.02981E-05, -0.000158167, 0.00045249, 0.000108782, 0.000108782, 0.000108782
4706, 1,0.00062858, 0.000274247, 0.000202665, 35.3245, 16.4301, 0.00165501, 86.7828, -11.9071, 0, 0.00104629, 0.000866756, 0.000679679, 50.1417, -12.3201, 0, 0.0010463, 0.000428774, 0.00039823, 22.4018, -3.2045, 0, 0.00104615, 13.9528, -9.61141, 32.6189, 11.2254, -8.57459, 6.96271, 0.000102727, -0.000401266, 0.000498464, 0.000189166, 0.000189166, 0.000189166
4707, 1,0.000779539, -0.000127665, 0.000122637, 40.5826, -6.27979, 0.00369199, 219.658, -60.3954, 0, 0.00101142, 0.000862094, 0.000759463, 43.9277, -6.63806, 0, 0.00101054, 0.000711623, 0.000607655, 38.0937, -7.18661, 0, 0.00101055, 13.1191, -22.4592, 29.2542, 13.5488, -11.6837, 19.6947, 0.000152099, -0.000630114, 0.000585039, 0.000154302, 0.000154302, 0.000154302
4708, 1,0.00121962, -0.000320126, 0.000238542, 59.2775, -18.6967, 0.00662052, 403.568, -120.85, 0, 0.000976887, 0.0011993, 0.00116329, 53.7799, -3.00515, 0, 0.000975021, 0.00129009, 0.00109273, 67.2906, -13.2439, 0, 0.000975183, 10.192, -45.9566, 44.78, 13.5452, -24.679, 50.8654, 0.000117645, -0.00111936, 0.00104896, 3.00792E-05, 3.00792E-05, 3.00792E-05
4709, 1,0.000270889, 0.000502801, 0.000367597, 15.4628, 29.9497, 0.00111457, 16.5364, 48.6599, 0, 0.00108137, 0.000719676, 0.000523542, 44.2411, -12.0861, 0, 0.00108244, 0.000202366, 0.000291989, 3.82126, 4.74471, 0, 0.00108214, 8.89439, -3.22276, 30.5867, 1.54031, -3.31393, -12.4605, 2.94005E-05, -0.000212188, 0.000379805, 0.000138137, 0.000138137, 0.000138137
4710, 1,0.000546647, 0.000243745, 0.00018495, 28.9663, 14.3902, 0.00143456, 69.7465, -2.99816, 0, 0.00104641, 0.000748533, 0.000620486, 41.5035, -8.14256, 0, 0.0010465, 0.000385103, 0.000390169, 18.4302, -0.613753, 0, 0.00104637, 12.3311, -14.6067, 26.7033, 10.088, -11.8685, 3.62176, 0.000134113, -0.000434032, 0.00043207, 0.000205684, 0.000205684, 0.000205684
4711, 1,0.000718857, -0.0001425, 0.000126867, 36.5453, -7.46038, 0.00330775, 197.877, -55.7106, 0, 0.00101159, 0.000788837, 0.0007313, 38.7617, -4.03825, 0, 0.00101075, 0.000666796, 0.000585036, 35.3387, -5.90659, 0, 0.00101078, 13.0772, -26.0028, 25.0403, 14.0057, -13.7189, 17.433, 0.000191421, -0.000655251, 0.00052869, 0.000183268, 0.000183268, 0.000183268
4712, 1,0.00117538, -0.000341254, 0.000251445, 56.69, -20.0977, 0.00607704, 368.842, -108.88, 0, 0.000976878, 0.00115157, 0.00114337, 50.6014, -1.28322, 0, 0.000975174, 0.00125617, 0.00107057, 65.6306, -12.5512, 0, 0.000975353, 9.86809, -47.8885, 41.8701, 13.633, -25.4237, 49.4443, 0.000137541, -0.00112238, 0.00100417, 4.23517E-05, 4.23517E-05, 4.23517E-05
4713, 1,0.000197685, 0.000466106, 0.000345281, 8.99908, 27.5357, 0.00114534, 9.89017, 59.3418, 0, 0.00108145, 0.000563797, 0.000440126, 33.5892, -7.38773, 0, 0.00108262, 0.000215114, 0.000348729, 2.67037, 7.64928, 0, 0.00108236, 7.44498, -9.63768, 24.3559, 0.50287, -7.76062, -15.6901, 7.24602E-05, -0.000267658, 0.000315986, 0.000161523, 0.000161523, 0.000161523
4714, 1,0.000482846, 0.000214708, 0.000168555, 23.7666, 12.4262, 0.00124776, 54.6787, 5.42011, 0, 0.00104649, 0.000650198, 0.000580602, 34.1075, -4.44274, 0, 0.00104666, 0.000355804, 0.000393445, 15.4463, 1.51275, 0, 0.00104656, 11.3674, -19.5393, 21.5002, 9.62727, -15.0877, 0.922154, 0.000172202, -0.000473659, 0.000373584, 0.000229488, 0.000229488, 0.000229488
4715, 1,0.000664448, -0.000160208, 0.000133987, 32.3257, -8.77849, 0.00300967, 178.087, -48.1661, 0, 0.00101163, 0.000726495, 0.0007136, 33.647, -1.03479, 0, 0.00101086, 0.000623989, 0.000566617, 32.1932, -4.22992, 0, 0.00101091, 12.0048, -29.6142, 20.7138, 13.4387, -15.8163, 15.0674, 0.000216685, -0.000677496, 0.000476958, 0.000198189, 0.000198189, 0.000198189
4716, 1,0.00112019, -0.000363386, 0.000265119, 53.0235, -21.5559, 0.00577247, 348.954, -101.614, 0, 0.00097688, 0.00109454, 0.00112129, 46.4004, 1.2197, 0, 0.000975251, 0.00121069, 0.00104265, 62.8871, -11.1105, 0, 0.000975446, 9.42051, -50.3717, 37.2921, 13.633, -26.6324, 46.3309, 0.000168157, -0.00112715, 0.000937742, 6.56192E-05, 6.56192E-05, 6.56192E-05
4717, 1,0.000184036, 0.000429933, 0.000323281, 5.52866, 25.1598, 0.00123216, 6.92687, 68.8322, 0, 0.00108152, 0.000440906, 0.000388942, 24.6082, -2.84532, 0, 0.00108278, 0.000238768, 0.000416463, 2.05191, 10.4233, 0, 0.00108255, 6.1228, -15.9223, 18.3355, -0.389412, -12.107, -18.7734, 0.000115504, -0.000322707, 0.00025429, 0.000185684, 0.000185684, 0.000185684
4718, 1,0.00043651, 0.000187728, 0.000154077, 19.3488, 10.5683, 0.00112856, 42.7407, 13.9395, 0, 0.00104654, 0.000573565, 0.000563326, 27.6882, -0.674833, 0, 0.00104679, 0.000336908, 0.000408614, 12.9169, 3.72061, 0, 0.00104671, 10.2402, -24.6205, 16.4049, 9.01294, -18.4522, -1.72258, 0.00020785, -0.000515308, 0.000318458, 0.000251269, 0.000251269, 0.000251269
4719, 1,0.000625512, -0.000181065, 0.000144258, 28.974, -10.2524, 0.00272026, 158.958, -40.9284, 0, 0.00101164, 0.000684386, 0.00071565, 29.6451, 1.70918, 0, 0.00101094, 0.000591984, 0.000558421, 29.6771, -2.81974, 0, 0.00101101, 11.1979, -33.4202, 17.0947, 13.1576, -18.0922, 13.3938, 0.000243844, -0.000708225, 0.000436028, 0.000215305, 0.000215305, 0.000215305
4720, 1,0.00107419, -0.000387061, 0.000280062, 49.657, -23.0968, 0.00555588, 334.84, -96.4941, 0, 0.00097686, 0.00105122, 0.00111324, 42.7238, 3.7004, 0, 0.000975273, 0.00117026, 0.00101976, 60.2513, -9.72769, 0, 0.000975485, 8.93918, -53.162, 33.1216, 13.6291, -28.1415, 43.6954, 0.000198467, -0.00114042, 0.000880475, 8.86284E-05, 8.86284E-05, 8.86284E-05
4721, 1,0.000206922, 0.000394452, 0.000301768, 3.85249, 22.8308, 0.00133293, 5.32233, 77.429, 0, 0.00108169, 0.000365336, 0.000384588, 17.7159, 1.64882, 0, 0.00108302, 0.000268868, 0.000490394, 1.66679, 13.1746, 0, 0.00108282, 4.74057, -22.1126, 12.4256, -1.32406, -16.3948, -21.805, 0.000156455, -0.000376843, 0.000194556, 0.000208546, 0.000208546, 0.000208546
4722, 1,0.000409757, 0.000163486, 0.00014221, 15.9043, 8.85035, 0.00107038, 34.0331, 21.9991, 0, 0.00104667, 0.000522619, 0.000571164, 22.5208, 3.03581, 0, 0.00104699, 0.000329498, 0.000435109, 10.9824, 5.88293, 0, 0.00104694, 9.12099, -29.676, 11.4476, 8.42173, -21.7955, -4.27501, 0.000242694, -0.000557388, 0.000265496, 0.00027275, 0.00027275, 0.00027275
4723, 1,0.000591498, -0.000204426, 0.000157016, 25.711, -11.854, 0.00244614, 140.469, -33.5642, 0, 0.00101173, 0.000650592, 0.00072807, 25.8955, 4.69722, 0, 0.0010111, 0.000561742, 0.000552913, 27.0962, -1.17393, 0, 0.00101119, 10.3165, -37.4705, 13.0623, 12.8192, -20.5837, 11.2863, 0.000273252, -0.000740247, 0.000390182, 0.00023489, 0.00023489, 0.00023489
4724, 1,0.00103906, -0.000412442, 0.000296424, 46.9797, -24.7324, 0.0053068, 318.192, -89.9962, 0, 0.00097691, 0.00102111, 0.00111776, 39.8506, 5.85068, 0, 0.000975392, 0.00113878, 0.00100488, 58.2164, -8.71004, 0, 0.000975623, 8.55033, -56.0564, 29.954, 13.7409, -29.6821, 42.0714, 0.00022571, -0.00116108, 0.000839034, 0.000108481, 0.000108481, 0.000108481
4725, 1,0.000246572, 0.000359789, 0.000280878, 2.99855, 20.555, 0.00143752, 4.35536, 85.4422, 0, 0.00108179, 0.000339093, 0.000429095, 12.9538, 6.10242, 0, 0.00108319, 0.000302913, 0.000568251, 1.40009, 15.9097, 0, 0.00108302, 3.30093, -28.1958, 6.58755, -2.29401, -20.6236, -24.8115, 0.00019554, -0.000429639, 0.000136005, 0.000230408, 0.000230408, 0.000230408
4726, 1,0.000399913, 0.000142771, 0.000133743, 13.2471, 7.30988, 0.0010599, 27.7985, 29.763, 0, 0.00104672, 0.000495666, 0.000603037, 18.466, 6.75708, 0, 0.00104711, 0.000331543, 0.000471151, 9.48596, 8.06687, 0, 0.00104708, 7.96957, -34.7244, 6.48366, 7.81331, -25.1451, -6.86879, 0.000277019, -0.000599272, 0.000212686, 0.000294206, 0.000294206, 0.000294206
4727, 1,0.000566116, -0.000229816, 0.000171777, 22.9033, -13.5599, 0.00218425, 122.324, -25.8678, 0, 0.00101174, 0.000629021, 0.000753179, 22.7781, 7.63965, 0, 0.00101119, 0.000536141, 0.000552154, 24.7733, 0.41728, 0, 0.00101131, 9.50762, -41.528, 9.10141, 12.5733, -23.0816, 9.25643, 0.000303467, -0.000773004, 0.000345004, 0.000255553, 0.000255553, 0.000255553
4728, 1,0.00100837, -0.000439129, 0.000313811, 44.5167, -26.446, 0.00501207, 298.501, -82.2836, 0, 0.000976875, 0.00099755, 0.00112913, 37.2917, 8.04187, 0, 0.000975444, 0.00111, 0.000992408, 56.3158, -7.68706, 0, 0.000975693, 8.07459, -59.1163, 26.9161, 13.7966, -31.3276, 40.5922, 0.000251789, -0.00118392, 0.000800277, 0.000127228, 0.000127228, 0.000127228
4729, 1,0.000294168, 0.000326123, 0.000260796, 2.53782, 18.3411, 0.00154315, 3.78364, 93.0894, 0, 0.00108194, 0.000349969, 0.000510321, 9.86741, 10.5185, 0, 0.00108339, 0.000340177, 0.00064913, 1.21154, 18.6314, 0, 0.00108325, 1.78412, -34.1367, 0.797091, -3.31661, -24.7716, -27.8061, 0.000232482, -0.000480182, 7.79542E-05, 0.000251039, 0.000251039, 0.000251039
4730, 1,0.000404307, -0.000132486, 0.000129389, 11.2722, -6.4225, 0.00108252, 23.2735, 37.3329, 0, 0.00104685, 0.000489903, 0.000656065, 15.4175, 10.4536, 0, 0.0010473, 0.000341395, 0.000515016, 8.36634, 10.2357, 0, 0.00104731, 6.79945, -39.7126, 1.55225, 7.20418, -28.4594, -9.45171, 0.000310636, -0.000640361, 0.000160189, 0.000315491, 0.000315491, 0.000315491
4731, 1,0.000549305, -0.000256907, 0.000188201, 20.4879, -15.3539, 0.00193938, 104.949, -18.1087, 0, 0.00101185, 0.000618873, 0.000790276, 20.1915, 10.6182, 0, 0.00101137, 0.000515546, 0.000556626, 22.6661, 2.03467, 0, 0.00101152, 8.66828, -45.6263, 5.10338, 12.3188, -25.6265, 7.20377, 0.000333723, -0.000805989, 0.000299426, 0.000276553, 0.000276553, 0.000276553
4732, 1,0.000981973, -0.000467053, 0.000332158, 42.2777, -28.2338, 0.00469243, 277.144, -73.904, 0, 0.000976938, 0.000980528, 0.00114781, 35.0618, 10.2598, 0, 0.000975605, 0.00108337, 0.000982238, 54.5383, -6.67262, 0, 0.000975873, 7.63428, -62.3265, 23.9127, 13.9212, -33.0822, 39.1788, 0.000279144, -0.00120907, 0.000762115, 0.000147372, 0.000147372, 0.000147372
4733, 1,0.000346022, 0.000293699, 0.000241784, 2.27796, 16.2008, 0.00165557, 3.98611, 100.447, 0, 0.00108206, 0.000383929, 0.000614333, 7.89032, 14.9141, 0, 0.00108356, 0.000380038, 0.000732205, 1.05291, 21.3538, 0, 0.00108345, 0.171249, -39.9383, -4.97533, -4.40506, -28.8485, -30.8079, 0.000267062, -0.000528076, 1.99467E-05, 0.000270294, 0.000270294, 0.000270294
4734, 1,0.000419427, -0.000144768, 0.000129672, 9.78493, -7.58947, 0.00112833, 19.9909, 44.7236, 0, 0.00104692, 0.000500736, 0.000725738, 13.1354, 14.1637, 0, 0.00104744, 0.000356943, 0.000564745, 7.49205, 12.4266, 0, 0.00104747, 5.54025, -44.628, -3.40333, 6.52593, -31.7348, -12.0709, 0.000342704, -0.000679748, 0.000107319, 0.000335789, 0.000335789, 0.000335789
4735, 1,0.000541568, -0.000285494, 0.00020607, 18.4999, -17.225, 0.00171688, 88.6793, -10.3956, 0, 0.00101189, 0.000619691, 0.000838742, 18.1225, 13.6149, 0, 0.0010115, 0.000501269, 0.000567207, 20.8485, 3.65986, 0, 0.00101166, 7.85612, -49.7631, 1.06232, 12.1157, -28.2228, 5.12751, 0.000365033, -0.000839598, 0.000253124, 0.000298955, 0.000298955, 0.000298955
4736, 1,0.000963322, -0.000496269, 0.000351518, 40.4258, -30.0954, 0.00438634, 256.237, -65.2428, 0, 0.000976954, 0.000974032, 0.00117712, 33.3546, 12.4401, 0, 0.000975723, 0.00106116, 0.00097588, 52.9859, -5.73151, 0, 0.000976011, 7.29797, -65.6145, 20.9963, 14.1917, -34.9063, 37.9091, 0.000308345, -0.00123689, 0.000725382, 0.000169679, 0.000169679, 0.000169679
4737, 1,0.000402121, 0.000262806, 0.000224155, 2.30239, 14.1477, 0.00180056, 6.01785, 107.676, 0, 0.00108224, 0.000432737, 0.000731787, 6.7395, 19.1942, 0, 0.0010838, 0.000425405, 0.000818981, 0.995523, 23.979, 0, 0.00108371, -1.50617, -45.3264, -10.7502, -5.52303, -32.5964, -33.8177, 0.000298342, -0.000568716, -4.01409E-05, 0.000287288, 0.000287288, 0.000287288
4738, 1,0.000443625, -0.000161671, 0.000134699, 8.7634, -8.97386, 0.00119211, 17.7529, 51.8903, 0, 0.00104708, 0.000525125, 0.000808455, 11.5349, 17.8272, 0, 0.00104766, 0.000377827, 0.000619304, 6.89811, 14.5781, 0, 0.00104772, 4.25191, -49.4031, -8.33046, 5.84363, -34.9148, -14.6631, 0.000373493, -0.000716881, 5.42296E-05, 0.000355447, 0.000355447, 0.000355447
4739, 1,0.000546788, -0.000315432, 0.000225219, 17.163, -19.1651, 0.0015258, 74.1235, -2.9506, 0, 0.00101201, 0.000635228, 0.000900768, 16.7913, 16.5397, 0, 0.00101169, 0.000496834, 0.000586301, 19.5274, 5.20234, 0, 0.00101187, 7.09585, -53.8427, -2.87232, 11.9974, -30.8055, 3.2011, 0.000396401, -0.000873429, 0.000208154, 0.000321946, 0.000321946, 0.000321946
4740, 1,0.000944695, -0.000526391, 0.000371493, 38.2793, -32.0103, 0.0041758, 240.988, -58.0772, 0, 0.000977059, 0.000970878, 0.00121207, 31.4947, 14.8966, 0, 0.000975903, 0.00103493, 0.000967291, 50.9759, -4.54906, 0, 0.000976211, 6.50668, -68.9604, 17.7638, 14.0455, -36.7864, 36.3881, 0.000332322, -0.00126259, 0.000687276, 0.000187054, 0.000187054, 0.000187054
4741, 1,0.000463879, 0.000233733, 0.000208198, 2.65433, 12.1926, 0.00202135, 11.6826, 114.214, 0, 0.00108231, 0.000492383, 0.000859635, 6.22904, 23.4071, 0, 0.00108391, 0.000477429, 0.000911559, 1.2564, 26.5542, 0, 0.00108385, -3.3204, -50.2864, -16.6145, -6.73269, -36.0312, -36.8988, 0.000325573, -0.000600186, -0.000104258, 0.000301438, 0.000301438, 0.000301438
4742, 1,0.000478276, -0.000182692, 0.000143944, 8.22645, -10.5493, 0.00126642, 16.0102, 59.039, 0, 0.00104718, 0.000563628, 0.000904651, 10.5997, 21.5194, 0, 0.00104782, 0.000405247, 0.000680873, 6.59013, 16.7646, 0, 0.0010479, 2.86438, -54.0337, -13.3888, 5.0926, -38.0315, -17.355, 0.000402497, -0.000750586, -9.66702E-07, 0.00037406, 0.00037406, 0.00037406
4743, 1,0.000555232, -0.000346257, 0.000245167, 15.768, -21.1503, 0.00138022, 62.2421, 3.82854, 0, 0.00101212, 0.000656236, 0.000970128, 15.5032, 19.6914, 0, 0.00101186, 0.000492042, 0.000607488, 17.9898, 6.96013, 0, 0.00101207, 5.8275, -57.8446, -7.05724, 11.4007, -33.366, 1.08496, 0.000420461, -0.000902844, 0.000162392, 0.000338088, 0.000338088, 0.000338088
4744, 1,0.000931884, -0.000557567, 0.000392247, 36.4829, -33.9873, 0.00408425, 233.222, -53.4242, 0, 0.000977178, 0.000975917, 0.00125507, 30.0679, 17.2033, 0, 0.000976059, 0.00101097, 0.000960366, 49.1863, -3.55097, 0, 0.000976388, 5.87806, -72.0924, 14.6046, 14.0949, -38.4509, 35.0089, 0.000356928, -0.00128632, 0.000649009, 0.000205256, 0.000205256, 0.000205256
4745, 1,0.000555133, 0.000205949, 0.000193412, 4.63815, 10.3104, 0.00237246, 22.617, 121.851, 0, 0.00108242, 0.000584186, 0.00101427, 7.53698, 27.3548, 0, 0.00108408, 0.000558035, 0.0010273, 3.28461, 28.882, 0, 0.00108405, -5.15611, -54.4928, -22.4154, -7.88214, -38.9406, -39.8232, 0.000348192, -0.000616703, -0.00017441, 0.000312927, 0.000312927, 0.000312927
4746, 1,0.000518563, -0.000207425, 0.000157018, 8.00951, -12.2938, 0.0013386, 15.0668, 64.9368, 0, 0.00104735, 0.000609625, 0.00101173, 10.0769, 25.1982, 0, 0.00104802, 0.000438224, 0.000749539, 6.58763, 18.9438, 0, 0.00104813, 1.63266, -58.78, -18.4473, 4.52686, -41.3511, -20.0073, 0.00043448, -0.000787429, -5.57877E-05, 0.000396352, 0.000396352, 0.000396352
4747, 1,0.000573738, -0.000377797, 0.00026575, 14.9579, -23.1729, 0.00131639, 55.2164, 9.2557, 0, 0.00101229, 0.000689299, 0.00105093, 14.8825, 22.6443, 0, 0.00101207, 0.000493886, 0.000636125, 16.8973, 8.50774, 0, 0.0010123, 4.5858, -61.2671, -11.2516, 10.8582, -35.4373, -0.944119, 0.000441436, -0.000923907, 0.000114588, 0.000351562, 0.000351562, 0.000351562
4748, 1,0.000925239, -0.000589726, 0.000413697, 34.6502, -36.0213, 0.00404829, 226.568, -46.7629, 0, 0.00097734, 0.000990626, 0.00130945, 28.7633, 19.8297, 0, 0.000976285, 0.000987283, 0.000955064, 47.099, -2.27041, 0, 0.000976635, 4.85819, -75.294, 10.9466, 13.7964, -40.235, 33.2499, 0.000378092, -0.00130768, 0.000606609, 0.000220341, 0.000220341, 0.000220341
4749, 1,0.000633145, -0.000182976, 0.000182638, 5.70868, -8.744, 0.00279114, 23.025, 148.467, 0, 0.00108216, 0.000672853, 0.00116702, 8.54462, 31.5849, 0, 0.00108422, 0.00061757, 0.00112182, 4.053, 31.5041, 0, 0.00108422, -7.48071, -60.6273, -26.6468, -9.47079, -43.7855, -41.2561, 0.000364438, -0.000664545, -0.00021144, 0.000319289, 0.000319289, 0.000319289
4750, 1,0.000571422, -0.000234412, 0.000172422, 8.20527, -14.1457, 0.00156834, 22.4338, 69.9045, 0, 0.00104747, 0.000671017, 0.00114021, 10.1253, 29.2084, 0, 0.00104816, 0.000479713, 0.000835036, 6.77902, 21.4587, 0, 0.00104829, -0.046818, -63.6084, -23.9701, 3.56538, -44.951, -22.9905, 0.000462406, -0.000819123, -0.000117077, 0.000415673, 0.000415673, 0.000415673
4751, 1,0.000583557, -0.000409865, 0.000286744, 13.0397, -25.2221, 0.00120629, 45.1427, 15.7985, 0, 0.0010124, 0.000717083, 0.00113969, 13.3119, 26.4875, 0, 0.00101222, 0.0004814, 0.000665204, 14.4473, 10.9326, 0, 0.00101248, 1.94169, -65.2598, -16.1445, 8.94253, -38.1956, -3.54478, 0.000446208, -0.000944358, 6.7927E-05, 0.000349201, 0.000349201, 0.000349201
4752, 1,0.000924163, -0.000622866, 0.000435868, 32.7291, -38.0929, 0.00438763, 238.262, -40.8272, 0, 0.000977454, 0.00101578, 0.00138572, 27.632, 22.4584, 0, 0.000976451, 0.000959217, 0.000956028, 44.4325, -1.01943, 0, 0.000976823, 4.77318, -78.4465, 6.29811, 14.4808, -42.0946, 30.6721, 0.000418424, -0.00133481, 0.00055078, 0.000255255, 0.000255255, 0.000255255
4753, 1,0.000696814, -0.000187886, 0.000174784, 4.11128, -9.65136, 0.00354728, 34.1069, 181.651, 0, 0.00108176, 0.000724136, 0.00128543, 5.94438, 37.6527, 0, 0.00108429, 0.00069341, 0.0012358, 3.32825, 35.9757, 0, 0.00108432, -14.1038, -61.638, -37.2162, -15.3864, -43.5468, -48.9939, 0.000316431, -0.000566516, -0.000359886, 0.000260877, 0.000260877, 0.000260877
4754, 1,0.000623488, -0.000263786, 0.00019023, 8.72644, -16.1215, 0.00200859, 30.9412, 86.7633, 0, 0.00104743, 0.000730488, 0.00126352, 10.4525, 32.8981, 0, 0.00104834, 0.000523722, 0.000917061, 7.43704, 23.6549, 0, 0.0010485, -1.32576, -67.7053, -29.6631, 3.0378, -47.8575, -26.145, 0.000493586, -0.00083481, -0.000192422, 0.000438904, 0.000438904, 0.000438904
4755, 1,0.000588242, -0.00044309, 0.000308833, 10.4011, -27.315, 0.00103999, 26.2535, 30.6174, 0, 0.00101237, 0.000734611, 0.00122883, 10.7374, 31.2581, 0, 0.00101236, 0.000472603, 0.00070318, 11.6723, 14.2733, 0, 0.00101264, -0.177768, -70.2633, -23.3333, 7.56666, -41.9712, -8.41553, 0.000476205, -0.000977259, -6.56172E-06, 0.000372218, 0.000372218, 0.000372218
4756, 1,0.000910461, -0.000658831, 0.000460469, 28.0757, -40.2979, 0.00583693, 316.373, -53.9379, 0, 0.000977847, 0.00101678, 0.00145194, 23.0965, 27.5501, 0, 0.000976554, 0.00093572, 0.000974268, 40.0433, 2.64848, 0, 0.000976949, 2.3292, -84.8828, -0.0967722, 12.8398, -46.9058, 26.1206, 0.000444059, -0.00139964, 0.000507379, 0.000275612, 0.000275612, 0.000275612
4757, 1,0.000824052, -0.000193402, 0.000167805, 7.51009, -10.6291, 0.00503165, 23.7446, 216.624, 0.0437667, 0.00108133, 0.000844682, 0.00147116, 8.90261, 41.2361, 0, 0.00108451, 0.000822891, 0.00139658, 6.98778, 37.9825, 0, 0.00108456, -18.0063, -63.4673, -42.2348, -18.5636, -44.5678, -50.8161, 0.000281688, -0.000496433, -0.00045331, 0.000216057, 0.000216057, 0.000216057
4758, 1,0.000686965, -0.000293288, 0.00020821, 9.92271, -18.1217, 0.0025112, 22.4444, 129.962, 0, 0.00104705, 0.000800898, 0.00138788, 11.4254, 36.4391, 0, 0.00104864, 0.000578871, 0.00100464, 8.77991, 25.7067, 0, 0.00104882, -1.84668, -69.8305, -37.6402, 3.27816, -48.9, -31.4983, 0.000535279, -0.000802671, -0.000323682, 0.000472976, 0.000472976, 0.000472976
4759, 1,0.000614845, -0.000478012, 0.000332527, 8.59976, -29.4846, 0.00142175, 49.878, 22.9618, 0, 0.00101282, 0.000775877, 0.00133225, 9.063, 35.8531, 0, 0.0010126, 0.000483582, 0.000755216, 9.70578, 17.4248, 0, 0.00101291, -2.62577, -74.7481, -30.1855, 5.88876, -45.3061, -12.8571, 0.00049672, -0.00100639, -7.24986E-05, 0.000386202, 0.000386202, 0.000386202
4760, 1,0.000912671, -0.000687257, 0.000477203, 24.9016, -42.1364, 0.00832319, 417.673, -87.1196, 0.0174029, 0.000978652, 0.00108149, 0.00155658, 22.6309, 29.6272, 0, 0.000976786, 0.000843565, 0.00089984, 32.7878, 3.27646, 0, 0.000977204, -1.86242, -78.9653, -8.05399, 9.60855, -40.2895, 20.8515, 0.00038641, -0.00125727, 0.000388958, 0.000215495, 0.000215495, 0.000215495
4761, 1,0.000851471, -0.00020564, 0.000167401, 0.227448, -11.9532, 0.0070426, -4.39364, 248.839, 0.123526, 0.0010807, 0.000890421, 0.00166151, 2.07751, 53.6487, 0, 0.00108445, 0.000830479, 0.00152812, -0.996698, 48.8194, 0, 0.00108454, -22.7635, -78.2869, -59.8958, -22.4131, -58.8335, -65.2115, 0.000368249, -0.000555923, -0.000681716, 0.000296235, 0.000296235, 0.000296235
4762, 1,0.000770163, -0.000323632, 0.000226823, 11.1777, -20.1695, 0.00333206, 23.1598, 180.703, 0, 0.00104645, 0.00089617, 0.00153133, 12.7894, 40.9368, 0, 0.00104883, 0.000645179, 0.00109807, 9.68946, 28.732, 0, 0.00104904, -7.4361, -70.9824, -44.3919, -1.38605, -49.2518, -35.5581, 0.00048357, -0.000730609, -0.000416941, 0.00041726, 0.00041726, 0.00041726
4763, 1,0.000667912, -0.000511475, 0.000354993, 8.8766, -31.5943, 0.00201462, 99.4713, -5.82443, 0, 0.00101351, 0.000838742, 0.00147585, 9.21957, 39.9687, 0, 0.00101276, 0.000527717, 0.000853071, 10.0112, 20.0964, 0, 0.00101308, -1.77284, -77.7454, -40.388, 7.53235, -47.511, -20.3106, 0.000583955, -0.00100862, -0.000224244, 0.000467226, 0.000467226, 0.000467226
4764, 1,0.000848375, -0.000717801, 0.000495564, 11.1534, -44.0531, 0.0123892, 454.074, -136.881, 0.0982533, 0.000979791, 0.00105583, 0.00157762, 10.4684, 39.5929, 0, 0.000976864, 0.000720536, 0.000799202, 16.6624, 11.7337, 0, 0.000977305, -18.7015, -78.7925, -21.2848, -6.4046, -38.4896, 9.69317, 0.000188858, -0.00113036, 0.000297864, 1.2167E-05, 1.2167E-05, 1.2167E-05
4765, 1,0.00102532, -0.000214599, 0.000164408, 7.66011, -12.9995, 0.00849195, -10.4588, 253.723, 0.18139, 0.0010807, 0.0010335, 0.0018378, 7.75695, 52.5517, 8.67362E-19, 0.00108474, 0.00103223, 0.00173297, 8.25233, 46.2462, 8.67362E-19, 0.00108485, -22.0558, -62.5816, -73.0177, -20.9633, -42.5869, -75.1883, 0.000369732, -0.000209374, -0.00101189, 0.000289509, 0.000289509, 0.000289509
4766, 1,0.000812978, -0.000355848, 0.00024756, 13.5101, -22.2712, 0.00358062, 7.72027, 217.102, 0, 0.00104622, 0.000949605, 0.00161979, 15.1328, 41.5286, 0, 0.00104921, 0.000676859, 0.0011436, 11.9698, 27.8651, 0, 0.00104944, -7.863, -67.5876, -49.1353, -1.00347, -44.9836, -37.6081, 0.000487993, -0.000633501, -0.000527977, 0.000415339, 0.000415339, 0.000415339
4767, 1,0.000759473, -0.000551073, 0.000382527, 10.602, -34.0245, 0.00167717, 76.7715, 3.50873, 0, 0.00101361, 0.000953336, 0.00161919, 11.6838, 43.7691, 0, 0.00101295, 0.000585197, 0.000919836, 10.5296, 22.4237, 0, 0.0010133, -7.58886, -81.0236, -42.6949, 2.7392, -50.083, -19.9273, 0.000526742, -0.00101366, -0.000223634, 0.000408133, 0.000408133, 0.000408133
4768, 1,0.000958119, -0.000767454, 0.000532739, 18.0168, -46.9346, 0.0135311, 431.394, -128.912, 0.128419, 0.000980021, 0.00116707, 0.0017365, 16.8038, 37.7428, 0, 0.000977216, 0.000845661, 0.000946844, 24.8708, 8.35739, 0, 0.000977682, -11.2663, -85.0288, -16.9333, 1.96138, -43.3474, 16.3139, 0.000322054, -0.00130354, 0.000367784, 0.000141346, 0.000141346, 0.000141346
4769, 1,0.00105655, -0.000249155, 0.000187346, 7.53318, -15.3019, 0.00937382, -10.303, 258.143, 0.207829, 0.00108066, 0.00111378, 0.00195706, 9.12663, 59.9644, 0, 0.00108474, 0.00100978, 0.0017165, 6.3598, 52.1546, 0, 0.00108488, -31.1589, -82.4675, -66.2667, -29.0309, -62.3694, -65.0633, 0.000303319, -0.000495923, -0.000779124, 0.000220862, 0.000220862, 0.000220862
4770, 1,0.00084476, -0.000393971, 0.000275019, 9.39228, -24.6307, 0.00418854, 20.407, 230.68, 0.0050393, 0.00104612, 0.000999302, 0.00180597, 11.2634, 50.2839, 0, 0.0010492, 0.000692198, 0.00127562, 7.71654, 35.1678, 0, 0.00104946, -10.1381, -78.9617, -61.7518, -2.46656, -56.2228, -46.814, 0.000585748, -0.000727859, -0.000673415, 0.000507156, 0.000507156, 0.000507156
4771, 1,0.000841949, -0.000591622, 0.000411137, 14.9947, -36.5361, 0.00148878, 29.923, 54.6639, 0, 0.00101303, 0.00105288, 0.0016963, 16.3705, 44.1107, 0, 0.00101321, 0.00064951, 0.000937226, 14.591, 21.2796, 0, 0.00101358, -9.71848, -79.154, -43.4597, 1.55466, -47.3063, -18.0873, 0.000490228, -0.000950514, -0.000255831, 0.000367999, 0.000367999, 0.000367999
4772, 1,0.00110027, -0.000815667, 0.000567467, 24.3527, -49.8976, 0.0105008, 309.247, -77.0419, 0.10683, 0.000979353, 0.00134124, 0.00207306, 24.2231, 43.8808, -4.33681E-19, 0.000977356, 0.000931866, 0.00117042, 27.9929, 12.8368, -4.33681E-19, 0.000977848, -6.72289, -98.0585, -26.8611, 7.98265, -56.2099, 9.71681, 0.000512113, -0.00145536, 0.000229831, 0.000335811, 0.000335811, 0.000335811
4773, 1,0.000808993, -0.000304786, 0.000230377, -8.60627, -18.4779, 0.0106643, 7.58829, 261.572, 0.222205, 0.00108097, 0.000901959, 0.00181465, -5.98941, 70.919, 0, 0.00108497, 0.000726475, 0.00144759, -10.4955, 61.6199, 0, 0.00108514, -39.3529, -110.613, -62.7912, -36.0202, -89.3585, -59.481, 0.000314185, -0.0009332, -0.000530527, 0.000233748, 0.000233748, 0.000233748
4774, 1,0.000861666, -0.000431871, 0.000301611, 13.7993, -26.9753, 0.00591541, 22.7141, 241.677, 0.0577764, 0.00104611, 0.00103244, 0.0018392, 15.9219, 46.2681, 2.1684E-19, 0.00104957, 0.000692814, 0.00125785, 11.9213, 29.749, 2.1684E-19, 0.00104985, -5.67112, -71.6162, -61.517, 2.88768, -48.3476, -43.7872, 0.000620725, -0.000618896, -0.000752269, 0.000538596, 0.000538596, 0.000538596
4775, 1,0.000895207, -0.000625494, 0.000433868, 13.9977, -38.7678, 0.00241945, 20.3221, 126.631, 0, 0.00101225, 0.00111532, 0.0018597, 15.2298, 50.6173, 0, 0.0010135, 0.000691626, 0.0010485, 13.5791, 26.2654, 0, 0.0010139, -6.53037, -80.8176, -64.504, 5.70846, -48.6533, -35.8514, 0.00066165, -0.000854997, -0.000628346, 0.000535566, 0.000535566, 0.000535566
4776, 1,0.000856893, -0.000854492, 0.000592267, 7.43041, -52.4369, 0.0072275, 199.851, -35.7387, 0.0772467, 0.000978992, 0.00113777, 0.00193048, 8.6767, 51.1082, 0, 0.000977587, 0.000641617, 0.000911937, 9.45031, 18.3857, 0, 0.000978106, -21.3369, -94.2228, -37.7649, -5.83904, -50.3277, 1.00964, 0.000315139, -0.00122891, 8.30688E-05, 0.000128702, 0.000128702, 0.000128702
4777, 1,0.000827215, -0.000339809, 0.000251919, 1.15635, -20.7254, 0.0127172, 13.4715, 257.777, 0.287786, 0.00108147, 0.000973203, 0.0019074, 5.32112, 61.2586, 0, 0.0010858, 0.000710159, 0.00145477, -2.8752, 50.3661, 0, 0.00108599, -30.0815, -95.292, -58.4024, -25.0866, -74.0157, -51.996, 0.00037501, -0.000766935, -0.000600934, 0.0003045, 0.0003045, 0.0003045
4778, 1,0.000883993, -0.000470922, 0.000326805, 14.0765, -29.3978, 0.0080308, 23.94, 243.33, 0.129263, 0.00104626, 0.0010447, 0.00189631, 15.2054, 46.7628, 0, 0.00104993, 0.000735737, 0.00128133, 13.5501, 28.7626, 0, 0.00105023, -9.68525, -67.849, -62.7541, 0.300226, -44.3778, -42.2102, 0.000550448, -0.000514464, -0.00079451, 0.000475056, 0.000475056, 0.000475056
4779, 1,0.00100728, -0.00066585, 0.000462721, 17.5994, -41.2974, 0.00335085, 18.0192, 188.726, 0, 0.00101182, 0.00123839, 0.00202853, 18.8436, 54.0123, 0, 0.00101403, 0.000794296, 0.0011708, 17.1948, 28.1304, 0, 0.00101446, -3.06545, -78.8621, -80.1093, 10.154, -46.8668, -47.6784, 0.000793407, -0.000735797, -0.000934347, 0.000663568, 0.000663568, 0.000663568
4780, 1,0.000900344, -0.000911556, 0.000634086, 18.3266, -55.921, 0.00380605, 148.385, 5.12153, 0.0132191, 0.000978703, 0.00120601, 0.00188118, 19.8653, 41.6884, 2.1684E-19, 0.000978123, 0.000673353, 0.000788956, 21.4451, 7.08948, 2.1684E-19, 0.000978672, -19.1365, -79.4032, -26.5256, -2.67213, -33.9511, 15.3548, 0.00021844, -0.00103016, 0.000134007, 2.19185E-05, 2.19185E-05, 2.19185E-05
4781, 1,0.00135139, -0.000388509, 0.000289773, 24.5471, -23.595, 0.0148811, 11.2065, 246.368, 0.383536, 0.00108263, 0.00153154, 0.00265898, 29.272, 68.0791, 0, 0.00108694, 0.00117806, 0.00209543, 20.0464, 55.7989, 0, 0.00108716, -35.4971, -114.227, -54.5133, -28.5837, -94.8707, -43.9424, 0.000395516, -0.00104939, -0.000449728, 0.000343377, 0.000343377, 0.000343377
4782, 1,0.00101496, -0.000525294, 0.000369276, 13.4843, -32.4809, 0.0100081, 30.1434, 236.768, 0.196272, 0.00104714, 0.00117115, 0.00219911, 15.065, 56.2375, 0, 0.00105071, 0.000863482, 0.00152445, 13.21, 36.9145, 0, 0.00105104, -17.1293, -86.7312, -64.8522, -5.48012, -64.7987, -40.4648, 0.000559337, -0.000748687, -0.000722878, 0.000498127, 0.000498127, 0.000498127
4783, 1,0.000985948, -0.000718314, 0.000500305, 18.0659, -44.4119, 0.0044159, 39.6953, 221.201, 0.00336441, 0.00101208, 0.0012517, 0.00206147, 20.3222, 52.8827, 0, 0.00101486, 0.000735744, 0.00111455, 16.6273, 25.4125, 0, 0.00101531, -7.64585, -71.4773, -79.525, 6.6624, -40.1213, -42.7786, 0.000686802, -0.000574413, -0.000970696, 0.000554653, 0.000554653, 0.000554653
4784, 1,0.00185609, -0.00103439, 0.000740403, 65.5646, -62.5722, 0.00377734, 94.7709, 50.1618, 0.0279964, 0.000978761, 0.00209765, 0.00286851, 62.7118, 45.6063, 0, 0.000978846, 0.00175511, 0.00193907, 75.5944, 9.02483, 0, 0.000979427, -1.98672, -137.126, 2.29386, 16.483, -93.5477, 49.9902, 0.000640408, -0.00213752, 0.000755963, 0.000454271, 0.000454271, 0.000454271
4785, 1,0.00190306, -0.000434892, 0.000329359, 50.3352, -25.9936, 0.0161749, 3.29315, 238.747, 0.467035, 0.00108402, 0.00212139, 0.00334939, 56.6814, 66.6973, 0, 0.00108854, 0.00168681, 0.00269844, 44.0398, 53.8055, 0, 0.00108876, -35.4373, -97.8456, -66.8089, -26.5246, -81.1356, -53.7564, 0.000420659, -0.000735762, -0.000766142, 0.000400884, 0.000400884, 0.000400884
4786, 1,0.00133233, -0.000579691, 0.000413055, 27.0108, -35.7547, 0.0119259, 12.1378, 246, 0.28245, 0.00104821, 0.00157288, 0.00270052, 30.7122, 62.5962, 0, 0.00105212, 0.00109532, 0.00188896, 23.5417, 41.4293, 0, 0.00105249, -25.9758, -89.6546, -72.1582, -11.553, -69.8384, -42.8964, 0.000494319, -0.000693426, -0.000816053, 0.000462492, 0.000462492, 0.000462492
4787, 1,0.00119254, -0.000781, 0.000544251, 29.4691, -48.2378, 0.00619746, 20.5643, 238.449, 0.0722729, 0.00101283, 0.00147493, 0.00232755, 31.7095, 51.9172, 0, 0.00101606, 0.000931215, 0.00132415, 28.2615, 22.2395, 0, 0.00101655, 1.16776, -60.9445, -95.9749, 17.9023, -30.9689, -53.6518, 0.000868106, -0.000342078, -0.00136841, 0.000752165, 0.000752165, 0.000752165
4788, 1,0.00197794, -0.00112419, 0.000807744, 82.3654, -67.8562, 0.00306631, 64.6538, 105.478, 0, 0.000978789, 0.00226418, 0.002927, 80.5773, 34.6198, 0, 0.000979915, 0.00185237, 0.00188233, 92.2623, -4.58781, 0, 0.000980538, 5.84278, -116.894, 7.19148, 26.0499, -73.7052, 61.4187, 0.000640803, -0.0018528, 0.000649174, 0.000448947, 0.000448947, 0.000448947
4789, 1,0.00208432, -0.000476453, 0.000372219, 33.9568, -28.1729, 0.0172332, -14.0482, 257.153, 0.516538, 0.00108367, 0.00234082, 0.00388283, 41.9412, 97.2211, 0, 0.00108833, 0.00183305, 0.00315709, 26.1341, 83.5812, 0, 0.00108857, -71.1888, -90.82, -129.655, -59.6335, -78.8774, -112.233, 0.000197132, -0.000136121, -0.00163736, 0.000221399, 0.000221399, 0.000221399
4790, 1,0.00160635, -0.000610395, 0.000443217, 29.85, -37.5121, 0.0131612, -6.26677, 258.706, 0.34473, 0.00104825, 0.00187174, 0.0030931, 34.7414, 72.0072, 0, 0.00105248, 0.00134636, 0.00222288, 25.2658, 49.9191, 0, 0.00105286, -46.8126, -52.0716, -117.138, -29.0946, -37.3011, -83.3615, 0.000236329, 0.00024277, -0.00164647, 0.000259447, 0.000259447, 0.000259447
4791, 1,0.00134958, -0.000850851, 0.000594863, 20.9212, -52.4629, 0.00817884, 12.9907, 238.94, 0.15299, 0.00101339, 0.00166767, 0.00280052, 23.9362, 73.8468, 0, 0.00101647, 0.00104362, 0.00167926, 18.5691, 41.737, 0, 0.001017, -21.1409, -60.7248, -139.675, -0.297834, -35.1453, -89.768, 0.000763885, 2.56232E-05, -0.00198724, 0.000696161, 0.000696161, 0.000696161
4792, 1,0.00185591, -0.00122778, 0.000878242, 75.1073, -74.3553, 0.00340325, 41.7031, 157.115, 0, 0.000979064, 0.00226562, 0.00292673, 77.6591, 39.2038, 0, 0.000980939, 0.00157857, 0.0015413, 79.4706, -4.20473, 0, 0.00098163, 1.85243, -87.9504, -31.5134, 25.0928, -45.3956, 32.917, 0.000637334, -0.00113828, -0.000136148, 0.000442692, 0.000442692, 0.000442692
4793, 1,0.00242474, -0.000581824, 0.000470414, 31.1237, -34.2429, 0.0196607, 13.0573, 236.48, 0.574294, 0.0010843, 0.00277389, 0.00477281, 42.1437, 124.694, 0, 0.00108824, 0.00209243, 0.00385085, 20.449, 107.896, 0, 0.00108854, -94.6588, -97.567, -181.855, -75.6426, -94.3988, -153.645, 0.000184998, 0.000113074, -0.00231994, 0.000317763, 0.000317763, 0.000317763
4794, 1,0.0014403, -0.000679436, 0.000512587, 6.17426, -41.2931, 0.013825, 10.6619, 234.831, 0.37276, 0.00104843, 0.00178259, 0.00321655, 13.9239, 95.3954, 0, 0.00105186, 0.00110712, 0.00220232, -0.299781, 71.7295, 0, 0.00105226, -75.0292, -61.1849, -149.972, -52.9356, -52.2689, -109.984, 5.23422E-05, 0.000388294, -0.00198733, 0.000143152, 0.000143152, 0.000143152
4795, 1,0.00144767, -0.000952508, 0.000685043, 30.5183, -58.3312, 0.00977463, 22.7757, 214.505, 0.225065, 0.00101431, 0.00185717, 0.002906, 36.8693, 69.0847, 0, 0.00101722, 0.00104856, 0.00161156, 24.9517, 34.1319, 0, 0.0010178, -28.4602, -44.8101, -133.984, -1.46521, -25.8347, -75.0958, 0.000577591, 0.000293834, -0.00199153, 0.000594764, 0.000594764, 0.000594764
4796, 1,0.00207874, -0.00137436, 0.000997244, 67.0707, -82.4312, 0.00687919, 42.9852, 203.516, 0.0999367, 0.000979232, 0.00266405, 0.00368753, 77.1048, 64.7085, 2.71051E-20, 0.000981631, 0.00153229, 0.00180562, 59.4063, 18.3977, 2.71051E-20, 0.000982369, -22.6771, -71.6024, -99.8462, 5.41523, -38.8849, -21.7234, 0.0005387, -0.000337356, -0.00125204, 0.000399912, 0.000399912, 0.000399912
4797, 1,0.00351778, -0.000736534, 0.000589407, 58.4987, -43.5406, 0.0265058, 51.2134, 218.319, 0.72541, 0.00108498, 0.00395021, 0.00659789, 70.9177, 160.508, 0, 0.00108862, 0.00308911, 0.00544069, 46.2357, 138.203, 0, 0.00108901, -145.564, -61.8136, -274.145, -116.829, -72.1017, -225.677, -0.000238769, 0.00140088, -0.0037647, 1.32589E-05, 1.32589E-05, 1.32589E-05
4798, 1,0.00246783, -0.00079958, 0.000618825, 48.7992, -48.3185, 0.0182581, 30.0897, 236.215, 0.480367, 0.00105022, 0.00290084, 0.00447653, 59.2184, 105.723, 0, 0.00105393, 0.00203713, 0.00325559, 38.5612, 78.3003, 0, 0.0010544, -86.3643, -35.8063, -194.999, -56.491, -38.1957, -140.214, 2.84298E-05, 0.00107137, -0.00281396, 0.000224621, 0.000224621, 0.000224621
4799, 1,0.00206023, -0.00106694, 0.000784928, 52.3865, -65.3252, 0.0139127, 38.2477, 228.08, 0.323421, 0.00101494, 0.00256235, 0.00368886, 61.8324, 78.905, 0, 0.00101823, 0.00155853, 0.00213692, 42.9784, 39.6765, 0, 0.00101888, -65.8499, -8.03332, -162.832, -30.6307, 0.991789, -89.3906, -7.12708E-07, 0.00123049, -0.00250901, 0.000122613, 0.000122613, 0.000122613
4800, 1,0.00259162, -0.00160952, 0.00117547, 74.9428, -96.7201, 0.0123787, 47.4862, 216.338, 0.265, 0.000979118, 0.00331658, 0.00459336, 88.5606, 90.6408, 0, 0.000981715, 0.00188282, 0.00230375, 62.449, 35.917, 0, 0.000982588, -50.7791, -41.7845, -179.359, -11.8407, -20.3359, -75.5744, 0.00042415, 0.000740316, -0.00263491, 0.000380787, 0.000380787, 0.000380787
4801, 1,0.00445711, -0.000878307, 0.000686764, 62.3073, -51.0251, 0.0306725, 62.9751, 211.014, 0.830595, 0.00108617, 0.00493234, 0.00811553, 74.0879, 172.955, 0.0235248, 0.00109003, 0.0039874, 0.00678375, 50.7185, 146.169, 0.0235248, 0.00109051, -172.702, -1.27426, -344.889, -140.447, -19.8397, -278.219, -0.000540794, 0.00328279, -0.00558396, -0.000263745, -0.000263745, -0.000263745
4802, 1,0.00307421, -0.000913358, 0.000704554, 56.0841, -55.593, 0.0229123, 41.582, 240.529, 0.592116, 0.00105148, 0.00356633, 0.00555046, 67.1703, 135.709, 0, 0.0010553, 0.00258417, 0.00415786, 45.1648, 102.899, 0, 0.00105586, -113.486, -1.5207, -292.122, -76.0636, -10.8827, -221.751, -1.53535E-05, 0.00223093, -0.00441629, 0.00025618, 0.00025618, 0.00025618
4803, 1,0.00189126, -0.00121975, 0.000898437, 11.0999, -74.897, 0.0175446, 48.3334, 231.815, 0.41479, 0.00101633, 0.00245101, 0.00402617, 20.651, 126.737, 0, 0.00101921, 0.0013427, 0.00226301, 2.27049, 80.971, 0, 0.00101997, -118.757, -23.5969, -237.858, -76.2137, -21.8349, -144.864, -0.0002911, 0.00162068, -0.00338445, -0.000115714, -0.000115714, -0.000115714
4804, 1,0.00199161, -0.00187432, 0.0013516, 39.7091, -113.542, 0.0157022, 61.9197, 193.58, 0.37375, 0.000980537, 0.00280702, 0.00451106, 52.74, 106.664, -1.35525E-20, 0.000982734, 0.00120222, 0.00187, 28.651, 40.3634, -1.35525E-20, 0.000983792, -66.62, -35.9974, -217.375, -14.2158, -23.67, -83.2044, 0.000475339, 0.00113479, -0.00334009, 0.000532421, 0.000532421, 0.000532421
4805, 1,0.00517533, -0.000989878, 0.000747625, 36.6878, -57.3547, 0.0263996, -4.80138, 272.302, 0.769478, 0.00107757, 0.00563404, 0.00942271, 43.9625, 207.186, 0.0499857, 0.0010822, 0.004725, 0.00803785, 29.7824, 172.669, 0.0499857, 0.00108282, -198.305, 5.38471, -428.638, -163.957, -10.0547, -343.996, -0.000488258, 0.00462531, -0.00759377, -0.000293732, -0.000293732, -0.000293732
4806, 1,0.00370269, -0.00105308, 0.000792929, 51.3052, -65.5017, 0.02181, -6.97276, 290.895, 0.585581, 0.0010439, 0.00423279, 0.00679754, 60.6027, 187.483, -1.35525E-20, 0.00104806, 0.00317383, 0.00522024, 42.1067, 145.406, -1.35525E-20, 0.00104877, -165.001, 4.94809, -402.397, -121.218, -3.27475, -311.724, -0.000247115, 0.00313036, -0.00592404, 1.37566E-05, 1.37566E-05, 1.37566E-05
4807, 1,0.00341459, -0.0014599, 0.00105383, 88.8928, -88.2443, 0.0176688, 5.71427, 260.685, 0.467684, 0.00100843, 0.00404516, 0.00572887, 95.9167, 121.528, 0.00318111, 0.00101222, 0.00279356, 0.00366416, 82.4188, 64.325, 0.00139221, 0.00101316, -122.019, 13.7663, -256.331, -71.3391, 16.2324, -137.868, -0.000376559, 0.00235548, -0.00395223, -0.000210311, -0.000210311, -0.000210311
4808, 1,0.00258115, -0.00211289, 0.00147621, 62.587, -130.525, 0.0139167, 7.13427, 240.323, 0.35418, 0.000971808, 0.00340422, 0.00526321, 71.4784, 115.711, 0, 0.000974711, 0.00176559, 0.00235211, 53.984, 33.7011, 0, 0.000976009, -99.9943, 1.33048, -248.469, -32.8638, 15.9734, -84.2129, 6.26586E-05, 0.00197484, -0.00391366, 0.000183851, 0.000183851, 0.000183851
4809, 1,0.00265192, -0.000574434, 0.000464802, 14.1604, -34.2539, 0.0232652, -71.1866, 353.402, 0.6771, 0.00108011, 0.00300502, 0.00466408, 24.938, 140.917, 0, 0.00108762, 0.00229963, 0.00373838, 3.4325, 123.697, 0, 0.00108793, -71.112, 9.93366, -361.574, -64.6121, -8.45827, -298.021, 0.000975899, 0.00264955, -0.00591059, 0.000849252, 0.000849252, 0.000849252
4810, 1,0.00233337, -0.000909568, 0.000698027, 25.7399, -56.4973, 0.0193611, -45.15, 332.21, 0.522099, 0.0010476, 0.00281899, 0.00426478, 35.7263, 132.247, 0, 0.00105334, 0.00184814, 0.00287345, 15.9077, 97.1085, 0, 0.00105394, -96.8366, -33.7154, -266.189, -78.4445, -34.1384, -178.743, 0.000178576, 0.00155079, -0.0038743, 1.70742E-05, 1.70742E-05, 1.70742E-05
4811, 1,0.00312896, -0.00154817, 0.00110461, 49.0871, -96.244, 0.0161674, 13.4181, 257.803, 0.408908, 0.00101499, 0.00377858, 0.00611179, 56.8117, 163.318, 0, 0.00101781, 0.00248616, 0.0039416, 41.8049, 101.74, 0, 0.00101883, -85.2661, -50.0525, -354.635, -60.888, -38.6523, -205.681, 0.000789775, 0.0016174, -0.00505717, 0.000335115, 0.000335115, 0.000335115
4812, 1,0.00591679, -0.00246525, 0.00168215, 56.5535, -144.075, 0.0130336, 54.9025, 206.074, 0.29649, 0.000980314, 0.00676127, 0.0108357, 61.259, 192.898, 0.0840706, 0.000981022, 0.00509112, 0.00760367, 52.4091, 98.6951, 0.0840706, 0.000982597, -41.863, -85.1448, -451.687, -18.4303, -49.6038, -228.051, 0.00350377, 0.00226092, -0.00904952, 0.00237118, 0.00237118, 0.00237118
4813, 1,0.00272965, -0.000414454, 0.000354953, 70.8819, -23.84, 0.029747, 54.5404, 216.129, 0.818009, 0.00108561, 0.00300445, 0.00401965, 82.0437, 73.5179, 0, 0.00109133, 0.00245979, 0.00333915, 59.8669, 64.8241, 0, 0.00109149, -29.6262, 28.4142, -219.342, -26.2143, 14.5946, -182.852, 0.000780621, 0.00215428, -0.0041254, 0.000717507, 0.000717507, 0.000717507
4814, 1,0.00230463, -0.000762175, 0.0005893, 61.322, -46.4777, 0.0218434, 44.283, 232.748, 0.568352, 0.00105168, 0.00271922, 0.00372149, 71.5925, 77.8899, 0, 0.00105618, 0.0018909, 0.00254781, 51.0622, 51.3707, 0, 0.00105664, -43.0257, 5.96667, -196.611, -30.209, 5.05028, -128.953, 0.000437956, 0.00160275, -0.00330325, 0.000291904, 0.000291904, 0.000291904
4815, 1,0.00302616, -0.00134315, 0.000980637, 45.065, -82.6091, 0.0170824, 32.6578, 258.873, 0.396167, 0.00101714, 0.00364236, 0.00562632, 55.4457, 156.021, 0, 0.00102005, 0.00241093, 0.00367833, 34.7728, 105.227, 0, 0.00102089, -94.6834, -40.8368, -332.543, -75.1853, -31.9158, -208.581, 0.000456273, 0.00172942, -0.00471763, 6.69328E-05, 6.69328E-05, 6.69328E-05
4816, 1,0.00564804, -0.00226028, 0.00161296, 70.5525, -129.296, 0.0150128, 68.8895, 202.685, 0.339301, 0.000982612, 0.00655732, 0.0101613, 83.497, 173.284, 0.0674194, 0.000983729, 0.00476031, 0.00709928, 58.2845, 96.1467, 0.0674194, 0.000985009, -59.1577, -86.195, -374.498, -37.8538, -60.2101, -190.376, 0.00223696, 0.00162127, -0.00678151, 0.00132557, 0.00132557, 0.00132557
4817, 1,0.00213667, -0.000378125, 0.000326808, 65.9489, -21.7395, 0.0259992, 44.0784, 220.577, 0.72835, 0.00108453, 0.00240661, 0.00336907, 76.7683, 60.7687, 0, 0.00109001, 0.00186846, 0.00272891, 55.1333, 53.0022, 0, 0.00109015, -13.6115, -28.102, -140.593, -10.9366, -30.0761, -117.994, 0.000861368, 0.000773471, -0.00261799, 0.000794738, 0.000794738, 0.000794738
4818, 1,0.00192604, -0.000679651, 0.00050815, 36.2274, -42.0992, 0.0182994, 26.874, 232.504, 0.498102, 0.00104981, 0.00225186, 0.0035872, 42.935, 85.1264, 0, 0.00105385, 0.00160588, 0.00258897, 29.7009, 59.9033, 0, 0.00105428, -27.9609, -32.6786, -194.74, -18.9503, -24.564, -136.196, 0.000836785, 0.000917328, -0.00313421, 0.000628031, 0.000628031, 0.000628031
4819, 1,0.00232567, -0.00115933, 0.00083563, 32.7768, -71.1498, 0.0127732, 48.0481, 217.46, 0.285521, 0.00101591, 0.0028322, 0.00458882, 40.8578, 123.832, 0, 0.00101813, 0.00182152, 0.0029396, 24.8325, 80.511, 0, 0.00101885, -65.0438, -54.7239, -251.73, -50.979, -36.6103, -153.944, 0.000555146, 0.000931161, -0.00349637, 0.000168097, 0.000168097, 0.000168097
4820, 1,0.0034725, -0.00189118, 0.00137328, 57.8851, -112.997, 0.00807866, 33.2741, 229.098, 0.128943, 0.00098111, 0.00428094, 0.00689517, 72.4853, 168.675, 0, 0.000982356, 0.00269619, 0.0042919, 44.6995, 105.033, 0, 0.000983371, -71.0701, -139.866, -295.09, -55.249, -110.939, -148.911, 0.0010332, -0.000251383, -0.00352112, 0.000362201, 0.000362201, 0.000362201
4821, 1,0.001188, -0.000347484, 0.00030467, 22.9413, -19.7127, 0.0189889, 18.0952, 229.067, 0.552845, 0.00108369, 0.0014207, 0.00216003, 32.5962, 55.2103, 0, 0.00108856, 0.000976797, 0.00160404, 13.8393, 48.4862, 0, 0.00108867, -7.14935, -75.0667, -83.4148, -6.22503, -68.1624, -71.0711, 0.000855932, -0.000336468, -0.00141254, 0.000766158, 0.000766158, 0.000766158
4822, 1,0.00141659, -0.000580936, 0.000428241, 24.7548, -35.9648, 0.0142996, 25.6025, 220.949, 0.38086, 0.00104824, 0.00165678, 0.00273579, 28.2502, 66.8827, 0, 0.00105188, 0.00119088, 0.00194232, 22.127, 45.5269, 0, 0.00105225, -6.81967, -37.8719, -155.957, -1.96201, -24.7843, -109.835, 0.000969692, 0.000509829, -0.00256356, 0.000732912, 0.000732912, 0.000732912
4823, 1,0.0018979, -0.00100185, 0.000708131, 26.8591, -61.6294, 0.00885004, 24.1664, 222.596, 0.179368, 0.00101412, 0.00228683, 0.00380094, 31.333, 102.14, 0, 0.00101651, 0.0015178, 0.00242641, 22.8963, 64.3605, 0, 0.00101714, -39.9912, -77.28, -189.148, -30.6371, -51.1971, -111.247, 0.000740084, 9.60928E-05, -0.00249428, 0.000340832, 0.000340832, 0.000340832
4824, 1,0.00295482, -0.00161281, 0.00116053, 51.7947, -97.1568, 0.00398352, 49.9335, 179.673, 6.13614E-06, 0.000980194, 0.00358279, 0.00570675, 60.7296, 139.391, 0, 0.000980835, 0.00237731, 0.0035809, 45.126, 83.0057, 0, 0.000981733, -56.2888, -176.101, -185.784, -42.0839, -131.226, -75.7072, 0.000895806, -0.0015009, -0.00165912, 0.000306064, 0.000306064, 0.000306064
4825, 1,0.00110077, -0.000299295, 0.000260698, 39.9142, -16.6999, 0.0166924, -8.25525, 244.836, 0.497612, 0.00108287, 0.00129576, 0.00180855, 48.5091, 24.549, 0, 0.0010884, 0.000915181, 0.00135671, 31.6321, 19.6088, 0, 0.00108849, 12.9247, -43.0443, -43.5273, 11.607, -31.3075, -39.126, 0.000768811, -0.000143277, -0.00102147, 0.000657849, 0.000657849, 0.000657849
4826, 1,0.00115159, -0.000523764, 0.000378167, 19.3397, -32.2769, 0.012545, 24.1648, 237.136, 0.294477, 0.00104804, 0.00136199, 0.00230351, 22.5248, 56.0669, 8.67362E-19, 0.00105192, 0.00095048, 0.00158724, 16.7272, 37.3473, 8.67362E-19, 0.00105224, -3.49256, -48.8468, -115.861, -1.30491, -32.0607, -78.6761, 0.000856191, 0.000100879, -0.00186582, 0.000603925, 0.000603925, 0.000603925
4827, 1,0.00176476, -0.000894517, 0.000624205, 41.4966, -54.9815, 0.00651568, 16.5168, 234.311, 0.0910749, 0.00101349, 0.00210492, 0.00321165, 45.2311, 72.0584, 0, 0.00101637, 0.00142822, 0.00198794, 38.0198, 38.5737, 0, 0.00101692, -23.9352, -69.5029, -122.737, -17.1262, -39.5332, -59.0619, 0.000617716, -0.00021338, -0.00157401, 0.000232268, 0.000232268, 0.000232268
4828, 1,0.00257087, -0.00139012, 0.000992822, 66.5756, -83.9353, 0.00306338, 43.6302, 125.607, 0.00471871, 0.000980112, 0.00310253, 0.00475608, 73.5461, 91.4851, 0, 0.000980661, 0.00208417, 0.00295118, 61.651, 42.3662, 0, 0.000981443, -28.4301, -142.296, -103.729, -15.6584, -93.8468, -17.5933, 0.0007458, -0.00154701, -0.000685416, 0.000240744, 0.000240744, 0.000240744
4829, 1,0.000974789, -0.000268379, 0.000222121, 34.3785, -15.4765, 0.0160114, -0.345075, 241.712, 0.45346, 0.00108299, 0.00112102, 0.00157729, 40.7071, 25.0497, 0, 0.00108825, 0.000837936, 0.00120542, 28.2197, 19.4021, 0, 0.00108835, 3.14637, -50.8068, -27.4886, 2.31969, -34.9244, -25.6017, 0.000542431, -0.00029405, -0.000652621, 0.000429949, 0.000429949, 0.000429949
4830, 1,0.00107907, -0.000486963, 0.000342329, 28.8225, -30.1914, 0.0108383, 26.9179, 239.081, 0.227008, 0.00104806, 0.00125239, 0.00195025, 30.7016, 38.5659, 0, 0.00105206, 0.00091084, 0.00129934, 27.2109, 20.7514, 0, 0.00105237, 6.26796, -51.7206, -70.2449, 8.78134, -30.8205, -40.2149, 0.00077565, -0.000247573, -0.00115302, 0.000544251, 0.000544251, 0.000544251
4831, 1,0.00140372, -0.000815638, 0.0005663, 30.3354, -50.297, 0.00435357, 23.508, 226.31, 0.0101425, 0.00101328, 0.00171279, 0.00263453, 33.5166, 62.4781, 0, 0.001016, 0.00109713, 0.00151446, 27.3476, 31.4838, 0, 0.00101651, -18.9298, -77.6377, -90.8668, -12.4744, -43.5963, -38.3806, 0.000578985, -0.000561084, -0.00103211, 0.000225423, 0.000225423, 0.000225423
4832, 1,0.0018027, -0.00123625, 0.000873114, 28.829, -75.2859, 0.00258855, 91.2242, 38.2933, 0, 0.000980584, 0.00224889, 0.00362531, 33.1213, 89.7703, 0, 0.000979765, 0.00141206, 0.0020657, 27.0853, 44.2255, 0, 0.00098049, -40.7922, -142.585, -85.9334, -28.3477, -90.1521, -14.1767, 0.000470668, -0.00161045, -0.00031868, 1.59069E-05, 1.59069E-05, 1.59069E-05
4833, 1,0.000723565, -0.000249628, 0.000202219, 16.2992, -14.6837, 0.0148191, 3.18068, 241.433, 0.399311, 0.00108155, 0.000822846, 0.00135072, 21.0035, 30.9762, 0, 0.00108647, 0.000639147, 0.00104825, 12.5634, 25.0309, 0, 0.00108657, 2.54459, -68.4931, -26.98, 2.24123, -50.5546, -26.7794, 0.000608614, -0.000571659, -0.00053761, 0.000502109, 0.000502109, 0.000502109
4834, 1,0.000850609, -0.000455305, 0.000318975, 12.0345, -28.3603, 0.00915984, 15.4496, 251.288, 0.171306, 0.00104673, 0.00100023, 0.00172423, 13.5363, 46.2106, 0, 0.00105067, 0.000709673, 0.00113506, 10.9746, 29.2914, 0, 0.00105096, -12.4823, -67.4425, -58.707, -9.63901, -44.4087, -33.8264, 0.000498212, -0.000471126, -0.00077613, 0.000287879, 0.000287879, 0.000287879
4835, 1,0.001154, -0.000752577, 0.000522092, 15.7286, -46.5408, 0.0031833, -4.21659, 207.045, 0, 0.00101266, 0.00143654, 0.0023506, 18.3865, 64.628, 0, 0.00101501, 0.000874681, 0.00132019, 13.2853, 35.6342, 0, 0.00101548, -19.858, -90.2279, -83.7982, -13.8401, -54.2157, -38.8467, 0.000595724, -0.000815124, -0.000829642, 0.000264624, 0.000264624, 0.000264624
4836, 1,0.00160611, -0.00113422, 0.000795853, 32.0338, -69.2483, 0.00313448, 138.727, 9.82197, 0, 0.000979795, 0.00199297, 0.00324236, 34.6847, 70.6968, 0, 0.000978828, 0.00127941, 0.00185306, 32.151, 28.2448, 0, 0.000979503, -16.435, -134.055, -61.6003, -4.81921, -81.9543, 2.03915, 0.000697222, -0.00176512, -8.09144E-05, 0.000274455, 0.000274455, 0.000274455
4837, 1,0.000706172, -0.000231277, 0.000188997, 14.1064, -13.5796, 0.0134096, 10.8501, 233.636, 0.345847, 0.00108073, 0.000758513, 0.00124255, 15.6822, 27.5144, 0, 0.00108533, 0.000658297, 0.00101345, 13.763, 22.1246, 0, 0.00108543, 7.37095, -67.4852, -22.429, 7.11008, -48.9798, -24.5041, 0.00064433, -0.000607737, -0.000481295, 0.000547597, 0.000547597, 0.000547597
4838, 1,0.000776658, -0.000420305, 0.000294897, 10.4833, -26.2776, 0.00781077, 17.9226, 248.4, 0.123456, 0.0010458, 0.000909746, 0.00161333, 12.0788, 42.8082, 0, 0.00104961, 0.000658809, 0.00108751, 9.67806, 26.9946, 0, 0.00104988, -15.1473, -64.7607, -48.5167, -12.4589, -40.8743, -27.6504, 0.000387111, -0.000483774, -0.000597249, 0.000191202, 0.000191202, 0.000191202
4839, 1,0.00107184, -0.000704791, 0.000487881, 5.03705, -43.5924, 0.00234906, 0.562463, 148.026, 0, 0.00101264, 0.00132801, 0.00229172, 7.03771, 72.5267, 0, 0.00101389, 0.000820016, 0.00134161, 3.28955, 45.2414, 0, 0.00101433, -24.2524, -110.604, -82.7239, -18.6755, -74.7133, -42.3355, 0.000630603, -0.00114903, -0.000658775, 0.000317759, 0.000317759, 0.000317759
4840, 1,0.00140997, -0.00104477, 0.000729239, 27.0034, -63.8338, 0.0089303, 212.802, -55.4204, 0.11267, 0.000980174, 0.00175448, 0.00296686, 28.7244, 59.631, 0, 0.000978284, 0.00112633, 0.00171325, 27.3984, 19.9729, 0, 0.000978914, -4.10713, -122.344, -52.4418, 6.84529, -71.7029, 4.93889, 0.000792637, -0.00174754, -1.45146E-05, 0.000401512, 0.000401512, 0.000401512
4841, 1,0.000711926, -0.000209575, 0.00017568, 13.8858, -12.0693, 0.012206, 1.04171, 250.941, 0.299227, 0.00107985, 0.000746238, 0.00117131, 13.8437, 27.6003, 0, 0.00108466, 0.000678342, 0.00108519, 13.9452, 23.2247, 0, 0.00108474, 4.58601, -49.5648, -37.822, 3.61651, -30.1751, -43.1156, 0.000577395, -0.00022557, -0.000797964, 0.000482079, 0.000482079, 0.000482079
4842, 1,0.000799233, -0.000377774, 0.000261591, 7.85889, -23.7983, 0.00589817, 11.5618, 253.383, 0.0587213, 0.00104544, 0.000921764, 0.00162099, 9.15248, 46.6974, 2.1684E-19, 0.0010491, 0.000686952, 0.0011481, 6.92592, 32.0363, 2.1684E-19, 0.00104935, -20.3092, -61.8282, -57.9548, -18.0892, -38.1409, -39.8788, 0.000339425, -0.000385256, -0.000711179, 0.000152245, 0.000152245, 0.000152245
4843, 1,0.000945943, -0.000653174, 0.000449615, 5.97682, -40.4578, 0.00152795, 27.5688, 59.8893, 0, 0.00101332, 0.00117588, 0.00205655, 7.30532, 62.0277, 0, 0.00101329, 0.000722524, 0.00118524, 4.98205, 36.4005, 0, 0.00101371, -20.6579, -96.48, -68.9451, -15.5034, -60.8239, -32.8743, 0.000546033, -0.00105264, -0.000500252, 0.000251012, 0.000251012, 0.000251012
4844, 1,0.00133718, -0.000966297, 0.00066966, 20.5049, -59.0891, 0.0139955, 302.221, -92.5812, 0.186841, 0.000980521, 0.00165392, 0.00273412, 21.873, 58.8245, 0, 0.000977944, 0.00106794, 0.00155573, 21.1645, 21.6144, 0, 0.000978535, -7.14036, -114.436, -54.8975, 2.95983, -65.7635, -2.03946, 0.000723394, -0.00163604, -4.36649E-05, 0.000354577, 0.000354577, 0.000354577
4845, 1,0.000643369, -0.000193671, 0.000168121, 7.63054, -10.8257, 0.0108742, -4.76977, 256.913, 0.25718, 0.00107962, 0.000668372, 0.00120963, 7.73397, 31.8466, 0, 0.00108433, 0.000618604, 0.00115851, 7.65002, 28.5779, 0, 0.00108438, -5.04, -50.5698, -39.9299, -6.49964, -31.8083, -47.4258, 0.000438517, -0.000201239, -0.000752401, 0.000351009, 0.000351009, 0.000351009
4846, 1,0.000724116, -0.000342587, 0.000234858, 8.05484, -21.5976, 0.00384589, 10.8053, 228.141, 0.000911223, 0.00104577, 0.000834029, 0.00142775, 9.21404, 40.745, 0, 0.00104895, 0.000624552, 0.00101853, 7.1234, 27.3572, 0, 0.00104918, -22.0692, -50.8991, -49.2669, -20.7061, -26.9308, -34.4348, 0.000210753, -0.000280148, -0.000591037, 2.57303E-05, 2.57303E-05, 2.57303E-05
4847, 1,0.000832616, -0.000613639, 0.000422478, 3.41874, -37.9306, 0.00199397, 100.204, -6.5006, 0, 0.00101404, 0.0010345, 0.00187297, 3.99963, 57.4572, 0, 0.00101299, 0.00063934, 0.00107656, 3.24071, 33.4751, 0, 0.00101339, -15.9999, -97.9021, -58.4696, -11.3328, -62.9061, -26.1863, 0.000576033, -0.00117701, -0.000331642, 0.000296999, 0.000296999, 0.000296999
4848, 1,0.00148054, -0.000911984, 0.000633228, 31.2164, -55.6795, 0.0159927, 417.664, -123.039, 0.181679, 0.000980673, 0.00176388, 0.00269283, 31.8111, 53.2356, 0, 0.000977651, 0.00124979, 0.0016264, 32.9328, 18.2182, 0, 0.000978207, -10.9304, -110.12, -38.6565, -1.04996, -64.023, 10.4183, 0.000563355, -0.00164118, 0.000212474, 0.0002249, 0.0002249, 0.0002249
4849, 1,0.000747898, -0.000184668, 0.000167549, 15.2611, -9.90146, 0.00892384, 0.56861, 243.328, 0.195027, 0.00108003, 0.000754438, 0.00122015, 17.7188, 25.45, 0, 0.00108438, 0.00076345, 0.00119583, 13.6668, 23.2686, 0, 0.00108442, -5.73258, -46.6687, -23.9487, -7.62796, -28.6852, -33.4927, 0.000323656, -0.000269652, -0.000465486, 0.000244826, 0.000244826, 0.000244826
4850, 1,0.000661666, -0.000324279, 0.000227085, 6.73226, -20.2359, 0.00348649, 11.0139, 206.001, 0, 0.00104606, 0.000785577, 0.0013803, 8.67143, 39.6529, 0, 0.00104888, 0.000539837, 0.000945634, 4.80987, 27.5215, 0, 0.00104909, -14.9378, -65.864, -38.1569, -14.0375, -42.6985, -25.8284, 0.0003422, -0.000632698, -0.00035228, 0.000167455, 0.000167455, 0.000167455
4851, 1,0.000760906, -0.000574098, 0.000395431, 3.05221, -35.4571, 0.00271781, 151.278, -28.5643, 0, 0.00101422, 0.000940713, 0.0017162, 3.16443, 52.5834, 0, 0.00101288, 0.000595723, 0.000994125, 3.64158, 30.2005, 0, 0.00101325, -17.2264, -93.6966, -46.8273, -12.9997, -59.6058, -17.996, 0.000475496, -0.00117086, -0.000158102, 0.000212463, 0.000212463, 0.000212463
4852, 1,0.00122181, -0.00085011, 0.000587452, 16.1864, -52.0363, 0.0155061, 466.638, -153.225, 0.159742, 0.000980926, 0.00148502, 0.00232324, 16.5398, 58.1403, 0, 0.000977329, 0.00100983, 0.00132692, 18.1012, 25.1519, 0, 0.000977853, -20.2046, -107.394, -46.8224, -10.9168, -62.5241, -2.01482, 0.000453593, -0.00149538, 9.70268E-05, 0.000134632, 0.000134632, 0.000134632
4853, 1,0.000576335, -0.000187704, 0.000180232, 5.23831, -9.50002, 0.00615765, 7.64129, 234.529, 0.0873736, 0.00108027, 0.000582883, 0.0010212, 7.74289, 27.0076, 0, 0.00108413, 0.000603338, 0.00102742, 4.27358, 25.9276, 0, 0.00108415, -6.19955, -48.7051, -26.1182, -8.67785, -30.5013, -38.6035, 0.000337493, -0.000364464, -0.000409858, 0.000264697, 0.000264697, 0.000264697
4854, 1,0.000583433, -0.000295166, 0.000208143, 4.69184, -18.3026, 0.00269429, 15.5183, 148.73, 0, 0.00104667, 0.000693124, 0.00126145, 6.40892, 36.2943, 0, 0.00104858, 0.000476266, 0.000876348, 3.09772, 25.4909, 0, 0.00104877, -12.8653, -63.1716, -32.8461, -12.6362, -40.6896, -23.147, 0.000330013, -0.000656679, -0.000261674, 0.000162315, 0.000162315, 0.000162315
4855, 1,0.000659529, -0.000535111, 0.000369151, 0.856367, -33.0435, 0.00222001, 108.438, -2.93285, 0, 0.00101354, 0.000844044, 0.00157197, 1.89048, 48.3991, 0, 0.0010127, 0.000494234, 0.000890706, 0.806901, 27.6001, 0, 0.00101304, -18.4682, -87.8408, -38.8884, -14.5826, -55.133, -13.0847, 0.00038508, -0.00110843, -6.21853E-05, 0.000139629, 0.000139629, 0.000139629
4856, 1,0.00115062, -0.000803265, 0.000555728, 20.8212, -49.2095, 0.0115343, 442.262, -118.377, 0.081294, 0.000979939, 0.00138425, 0.00216671, 20.4032, 48.2086, 0, 0.000977205, 0.000979877, 0.00126829, 24.3664, 17.1656, 0, 0.000977697, -12.4421, -103.745, -28.4385, -3.80416, -60.6363, 12.9437, 0.000464319, -0.00153527, 0.000287453, 0.000161516, 0.000161516, 0.000161516
4857, 1,0.000486669, 0.000193279, 0.000191723, 2.44432, 9.21609, 0.00402083, 44.9898, 193.614, 0, 0.00108106, 0.000475734, 0.000854106, 4.38365, 25.0786, 0, 0.00108402, 0.000537913, 0.000916651, 2.51262, 25.1547, 0, 0.00108402, -8.73602, -43.3196, -23.1803, -11.9117, -25.3688, -38.1835, 0.000253647, -0.000352335, -0.00030695, 0.000184835, 0.000184835, 0.000184835
4858, 1,0.000526025, -0.000274782, 0.000198377, 7.12895, -16.7869, 0.00208938, 29.2821, 91.9441, 0, 0.00104739, 0.000633304, 0.00113644, 9.21626, 29.2085, 0, 0.00104846, 0.000432024, 0.000774353, 5.568, 19.7344, 0, 0.00104862, -6.0636, -62.2729, -19.2889, -6.38927, -40.4821, -12.3319, 0.000360455, -0.000774821, -5.90313E-05, 0.000202353, 0.000202353, 0.000202353
4859, 1,0.000639799, -0.000496866, 0.000343171, 5.66447, -30.6832, 0.00132759, 43.7098, 26.2306, 0, 0.00101282, 0.000812995, 0.00144265, 6.74522, 40.6619, 0, 0.00101258, 0.000483101, 0.000808839, 5.42642, 21.4382, 0, 0.0010129, -13.2173, -80.1005, -28.6678, -9.90488, -48.6549, -5.75486, 0.00037134, -0.00105567, 2.43524E-05, 0.000138298, 0.000138298, 0.000138298
4860, 1,0.00102988, -0.000762212, 0.000529408, 18.8453, -46.6763, 0.00682968, 374.634, -68.5542, 0, 0.000978839, 0.00121838, 0.00194737, 16.8118, 45.2645, 0, 0.000977033, 0.000929805, 0.00119234, 25.532, 16.0987, 0, 0.000977496, -11.0738, -108.451, -16.2691, -2.99252, -66.4669, 21.1635, 0.000445159, -0.00164944, 0.000468565, 0.000158858, 0.000158858, 0.000158858
4861, 1,0.000462242, 0.000208739, 0.000197842, 5.68652, 10.3461, 0.00309066, 20.0872, 168.593, 0, 0.00108134, 0.000487505, 0.000844476, 9.39776, 21.2867, 0, 0.00108392, 0.000482754, 0.000854625, 4.03101, 22.5378, 0, 0.0010839, -3.95489, -47.6325, -12.2729, -7.66469, -30.7954, -29.1534, 0.000294384, -0.00053224, -0.000106324, 0.000232893, 0.000232893, 0.000232893
4862, 1,0.000499729, -0.000248108, 0.000182052, 6.21807, -14.9946, 0.001615, 21.107, 74.5461, 0, 0.00104736, 0.000600119, 0.00105751, 8.41442, 27.7917, 0, 0.00104815, 0.000409348, 0.000731278, 4.47283, 19.6691, 0, 0.00104829, -7.61399, -60.4018, -15.3593, -8.51872, -39.7724, -10.7161, 0.000303457, -0.000772167, 1.82735E-05, 0.000154631, 0.000154631, 0.000154631
4863, 1,0.000606401, -0.000459677, 0.000318022, 8.30667, -28.3638, 0.00121101, 44.2242, 17.4813, 0, 0.00101267, 0.000762885, 0.00131279, 9.19991, 34.1938, 0, 0.00101239, 0.000469696, 0.000738006, 8.46189, 16.5339, 0, 0.00101268, -9.85948, -73.3332, -19.3887, -7.13981, -43.1347, 0.672815, 0.000335243, -0.00100815, 0.000117886, 0.000114232, 0.000114232, 0.000114232
4864, 1,0.000993415, -0.000716195, 0.000498043, 23.2795, -43.8614, 0.00494411, 273.421, -53.0896, 0, 0.00097827, 0.00115696, 0.00178351, 20.6968, 37.7507, 0, 0.000976829, 0.000925035, 0.00111445, 30.8788, 10.4217, 0, 0.000977262, -7.65101, -99.0777, -6.52329, -0.0423656, -58.831, 27.6082, 0.000394754, -0.00155621, 0.000547662, 0.000126766, 0.000126766, 0.000126766
4865, 1,0.000429752, 0.000228012, 0.000207643, 5.69564, 11.6588, 0.00264862, 26.7331, 132.694, 0, 0.00108188, 0.000441497, 0.000750631, 9.24192, 18.5032, 0, 0.00108389, 0.000469087, 0.000814403, 4.51804, 20.9576, 0, 0.00108384, -4.18036, -42.2277, -9.10142, -8.50365, -26.3595, -28.0096, 0.000245485, -0.00048194, -6.25976E-05, 0.000190166, 0.000190166, 0.000190166
4866, 1,0.000451267, -0.000223211, 0.000167937, 6.22359, -13.2963, 0.0014069, 15.5506, 69.0407, 0, 0.00104727, 0.000547122, 0.00094852, 8.73343, 23.9332, 0, 0.00104804, 0.000367855, 0.000656112, 4.21959, 17.1644, 0, 0.00104815, -5.70499, -55.8005, -10.294, -7.19278, -36.3071, -7.99333, 0.000281188, -0.000744906, 7.58717E-05, 0.000141543, 0.000141543, 0.000141543
4867, 1,0.000590317, -0.000424512, 0.000294774, 10.87, -26.1268, 0.00132317, 56.0844, 8.68504, 0, 0.00101261, 0.000728844, 0.00120123, 11.4792, 28.7498, 0, 0.00101228, 0.000475956, 0.000688622, 11.5831, 12.6435, 0, 0.00101254, -7.93083, -67.7856, -10.533, -5.79276, -38.9157, 6.77794, 0.000286904, -0.000977207, 0.000223612, 7.81136E-05, 7.81136E-05, 7.81136E-05
4868, 1,0.000938893, -0.000671227, 0.000467377, 23.7876, -41.0933, 0.00423463, 238.123, -50.8815, 0, 0.000977992, 0.00107781, 0.00162563, 20.6256, 33.7792, 0, 0.000976649, 0.000901465, 0.00104097, 32.3239, 8.24397, 0, 0.000977054, -6.85613, -92.9302, -1.55143, 0.243936, -54.3875, 29.4117, 0.000345832, -0.00148091, 0.000585726, 9.51866E-05, 9.51866E-05, 9.51866E-05
4869, 1,0.000358361, 0.000249653, 0.00021956, 3.21769, 13.116, 0.00223434, 16.4269, 120.294, 0, 0.00108193, 0.00037804, 0.000656601, 7.49508, 16.7928, 0, 0.00108375, 0.000406641, 0.000743766, 1.99298, 20.4591, 0, 0.00108368, -3.54506, -40.5153, -6.31799, -8.46017, -25.6215, -27.2957, 0.000231221, -0.000487714, -1.48331E-05, 0.000182769, 0.000182769, 0.000182769
4870, 1,0.000417105, -0.000200058, 0.000155476, 6.37496, -11.6808, 0.00130388, 15.8696, 62.1346, 0, 0.00104715, 0.000507041, 0.000854652, 9.13782, 20.8317, 0, 0.00104785, 0.000340388, 0.00059714, 4.16939, 15.4241, 0, 0.00104794, -5.06294, -51.6046, -5.82768, -7.13964, -33.4003, -5.73251, 0.00024401, -0.000711832, 0.000130283, 0.000113548, 0.000113548, 0.000113548
4871, 1,0.000550558, -0.000389566, 0.000271752, 11.1919, -23.8985, 0.00139422, 63.8415, 2.96614, 0, 0.00101244, 0.000673087, 0.00108422, 11.6142, 24.9671, 0, 0.00101208, 0.000455824, 0.000629597, 12.3074, 10.4, 0, 0.00101232, -6.67701, -63.234, -4.99034, -5.11407, -35.7489, 9.66284, 0.000252148, -0.000944168, 0.000286704, 5.55539E-05, 5.55539E-05, 5.55539E-05
4872, 1,0.000931333, -0.000629584, 0.000439718, 26.796, -38.4734, 0.00421816, 243.201, -58.6725, 0, 0.000977818, 0.00104149, 0.00151031, 22.8231, 28.8521, 0, 0.00097643, 0.000928131, 0.00101674, 36.4414, 5.07257, 0, 0.000976807, -4.81047, -87.1902, 5.44446, 1.78083, -50.3761, 33.3776, 0.000310351, -0.00143758, 0.000657819, 7.66724E-05, 7.66724E-05, 7.66724E-05
4873, 1,0.000317868, 0.000271219, 0.000231276, 2.33838, 14.5815, 0.00197091, 9.29672, 112.818, 0, 0.00108195, 0.000346464, 0.000588615, 7.55781, 14.7891, 0, 0.00108367, 0.000371212, 0.000693428, 0.937441, 19.6904, 0, 0.00108358, -2.97253, -38.4918, -2.90308, -8.49404, -24.7878, -25.7894, 0.000210273, -0.000486958, 3.78432E-05, 0.00016868, 0.00016868, 0.00016868
4874, 1,0.000387155, -0.000179642, 0.000145833, 6.81851, -10.1887, 0.00121752, 17.6349, 54.3835, 0, 0.00104709, 0.000474321, 0.000772296, 9.97972, 17.7355, 0, 0.00104771, 0.000315702, 0.000545066, 4.30759, 13.6974, 0, 0.00104778, -4.08747, -47.7326, -1.38644, -6.74112, -30.9221, -3.42891, 0.000214501, -0.000685812, 0.000183996, 9.36042E-05, 9.36042E-05, 9.36042E-05
4875, 1,0.000523662, -0.000355329, 0.000249417, 12.182, -21.7054, 0.00152568, 74.9264, -3.28307, 0, 0.00101231, 0.000633065, 0.000985258, 12.54, 21.2259, 0, 0.00101191, 0.000444395, 0.000583951, 13.4946, 8.18819, 0, 0.00101212, -5.38715, -58.3458, 0.0553827, -4.37426, -32.3916, 12.2013, 0.000219655, -0.000904381, 0.000340112, 3.56894E-05, 3.56894E-05, 3.56894E-05
4876, 1,0.000915123, -0.000588164, 0.000411999, 28.6635, -35.8688, 0.00427725, 248.443, -61.7338, 0, 0.000977629, 0.000997597, 0.00139854, 23.9321, 24.686, 0, 0.000976259, 0.000942274, 0.000990415, 39.2092, 2.62695, 0, 0.000976608, -3.39886, -81.3942, 10.7352, 2.67423, -46.3249, 35.7698, 0.00027433, -0.00138415, 0.00070801, 5.69226E-05, 5.69226E-05, 5.69226E-05
4877, 1,0.000286454, 0.000293557, 0.000243587, 2.22578, 16.092, 0.00177342, 5.83107, 105.084, 0, 0.00108193, 0.000323266, 0.000528232, 8.38538, 12.4856, 0, 0.00108356, 0.000346868, 0.000652012, 0.692136, 18.6421, 0, 0.00108345, -2.15135, -35.8238, 0.518427, -8.31001, -23.4394, -24.177, 0.000189935, -0.000475562, 8.41333E-05, 0.000154831, 0.000154831, 0.000154831
4878, 1,0.000361665, -0.000162017, 0.0001391, 7.40648, -8.82268, 0.00114197, 19.7454, 46.815, 0, 0.001047, 0.000448543, 0.000698106, 11.0866, 14.7426, 0, 0.00104754, 0.000293359, 0.000497034, 4.48025, 12.084, 0, 0.00104759, -3.14313, -43.786, 2.70137, -6.37859, -28.4536, -1.4197, 0.000186343, -0.000656849, 0.000231737, 7.50633E-05, 7.50633E-05, 7.50633E-05
4879, 1,0.000504247, -0.000321997, 0.000227951, 13.4998, -19.5569, 0.00171465, 89.261, -10.2634, 0, 0.00101216, 0.00060142, 0.000894851, 13.8243, 17.5385, 0, 0.0010117, 0.000439123, 0.000544941, 14.9558, 6.02159, 0, 0.00101189, -4.15363, -53.2323, 4.77047, -3.68775, -28.8679, 14.4909, 0.000187315, -0.000859955, 0.000387853, 1.59173E-05, 1.59173E-05, 1.59173E-05
4880, 1,0.00092133, -0.000548095, 0.000385363, 31.8599, -33.3415, 0.00443393, 259.972, -67.0592, 0, 0.000977431, 0.000977072, 0.00130782, 26.3895, 20.223, 0, 0.000976047, 0.000974359, 0.000979233, 43.08, -0.150916, 0, 0.00097637, -1.72491, -75.2492, 16.3049, 3.84334, -41.9692, 38.5786, 0.000239456, -0.00132812, 0.000759267, 3.80563E-05, 3.80563E-05, 3.80563E-05
4881, 1,0.000258032, 0.000316783, 0.000256608, 2.29955, 17.6578, 0.00160618, 4.05719, 97.2617, 0, 0.00108183, 0.000307456, 0.000473621, 9.62509, 10.0686, 0, 0.00108336, 0.000325836, 0.00061235, 0.655258, 17.502, 0, 0.00108323, -1.27368, -32.7967, 3.86463, -8.08917, -21.8145, -22.6024, 0.000168857, -0.000457861, 0.0001267, 0.000140169, 0.000140169, 0.000140169
4882, 1,0.000342605, -0.000147719, 0.00013581, 8.37198, -7.60947, 0.00109043, 23.1113, 39.0291, 0, 0.00104689, 0.00043241, 0.000633033, 12.7294, 11.671, 0, 0.00104735, 0.000274796, 0.000452335, 4.89402, 10.402, 0, 0.00104737, -2.08102, -39.7065, 6.77465, -5.90672, -25.9105, 0.611227, 0.000159453, -0.000626176, 0.000277776, 5.77641E-05, 5.77641E-05, 5.77641E-05
4883, 1,0.000497738, -0.000289877, 0.000207663, 15.4277, -17.4692, 0.0019295, 104.878, -17.4084, 0, 0.00101201, 0.000583625, 0.000818036, 15.752, 13.8872, 0, 0.00101149, 0.000444895, 0.000516728, 16.9421, 3.88308, 0, 0.00101166, -2.94956, -48.1064, 9.3944, -3.03046, -25.3878, 16.769, 0.000155082, -0.000815058, 0.000434431, -3.88664E-06, -3.88664E-06, -3.88664E-06
4884, 1,0.000936909, -0.000509048, 0.000359479, 35.3711, -30.8737, 0.00468435, 277.128, -74.0518, 0, 0.000977222, 0.000967203, 0.00122981, 29.1993, 15.9591, 0, 0.000975795, 0.00101157, 0.00097473, 47.0587, -2.76302, 0, 0.000976092, -0.062974, -69.1553, 21.3411, 4.99444, -37.6582, 40.9528, 0.000207625, -0.00127088, 0.000803041, 2.15846E-05, 2.15846E-05, 2.15846E-05
4885, 1,0.000231134, 0.000340797, 0.000270232, 2.46798, 19.2756, 0.00145967, 3.52337, 88.9795, 0, 0.00108183, 0.000300652, 0.000427286, 11.285, 7.59876, 0, 0.00108326, 0.000305897, 0.000573221, 0.679366, 16.3323, 0, 0.00108311, -0.348469, -29.5942, 7.14642, -7.84326, -20.0816, -21.072, 0.000147774, -0.000437221, 0.000167186, 0.000125404, 0.000125404, 0.000125404
4886, 1,0.000329584, -0.000136945, 0.00013617, 9.61402, 6.56705, 0.00106637, 27.8957, 31.0901, 0, 0.00104685, 0.000426636, 0.000578316, 14.8583, 8.61058, 0, 0.00104723, 0.000258718, 0.00041038, 5.40265, 8.74287, 0, 0.00104723, -0.978823, -35.5744, 10.7215, -5.40635, -23.3556, 2.53338, 0.000133436, -0.000594108, 0.000321365, 4.12717E-05, 4.12717E-05, 4.12717E-05
4887, 1,0.000504015, -0.000259294, 0.000188894, 18.0321, -15.4586, 0.00216826, 121.758, -24.7833, 0, 0.00101193, 0.000579502, 0.000755166, 18.3901, 10.1844, 0, 0.00101136, 0.000461722, 0.000499355, 19.521, 1.68582, 0, 0.0010115, -1.59617, -43.0118, 14.0548, -2.22808, -21.9605, 19.1311, 0.000125107, -0.000771678, 0.000481102, -2.1654E-05, -2.1654E-05, -2.1654E-05
4888, 1,0.000968967, -0.000471314, 0.000334642, 39.6712, -28.4797, 0.00496965, 296.154, -81.3737, 0, 0.000977081, 0.00097597, 0.00117054, 32.8965, 11.7055, 0, 0.000975607, 0.00105996, 0.000980962, 51.5456, -5.39698, 0, 0.000975877, 1.62493, -63.1539, 26.4124, 6.16464, -33.4336, 43.4599, 0.000176586, -0.00121602, 0.000848234, 5.24015E-06, 5.24015E-06, 5.24015E-06
4889, 1,0.000205992, 0.000365507, 0.000284352, 2.73824, 20.9411, 0.00132083, 3.62892, 80.2571, 0, 0.00108178, 0.000305552, 0.000392147, 13.4496, 5.09026, 0, 0.0010831, 0.00028687, 0.000534759, 0.740674, 15.1493, 0, 0.00108292, 0.621958, -26.2596, 10.3669, -7.5774, -18.2769, -19.5937, 0.000126965, -0.000414525, 0.00020597, 0.000110794, 0.000110794, 0.000110794
4890, 1,0.000325197, 0.000150574, 0.000140093, 11.2846, 7.80009, 0.00107803, 34.5784, 22.8968, 0, 0.00104675, 0.000434698, 0.000537278, 17.6609, 5.51418, 0, 0.00104705, 0.00024669, 0.000372558, 6.11459, 7.06007, 0, 0.00104702, 0.208588, -31.3814, 14.6303, -4.83396, -20.7715, 4.42525, 0.000108525, -0.000561332, 0.000363722, 2.5801E-05, 2.5801E-05, 2.5801E-05
4891, 1,0.000522699, -0.000230427, 0.000171839, 21.2421, -13.5343, 0.0024221, 139.321, -32.154, 0, 0.00101178, 0.000589801, 0.000707497, 21.7283, 6.52432, 0, 0.00101114, 0.000487676, 0.000491655, 22.5333, -0.474962, 0, 0.00101126, -0.197111, -37.9649, 18.5891, -1.38575, -18.5935, 21.4042, 9.66711E-05, -0.000728544, 0.000525786, -3.81168E-05, -3.81168E-05, -3.81168E-05
4892, 1,0.00101638, -0.000434941, 0.000310915, 44.7794, -26.1638, 0.00523693, 313.848, -88.0675, 0, 0.000976895, 0.00100286, 0.00112951, 37.5458, 7.42399, 0, 0.000975382, 0.00111858, 0.00099704, 56.5633, -8.08959, 0, 0.000975628, 3.38933, -57.2767, 31.6154, 7.40276, -29.2989, 46.1649, 0.000146733, -0.00116396, 0.000895491, -1.06098E-05, -1.06098E-05, -1.06098E-05
4893, 1,0.000183255, 0.000390837, 0.000298884, 3.14254, 22.6505, 0.00118826, 4.51373, 70.8713, 0, 0.00108181, 0.000325103, 0.000371184, 16.2275, 2.54173, 0, 0.00108301, 0.000268704, 0.000496991, 0.835711, 13.9525, 0, 0.00108281, 1.64531, -22.822, 13.5515, -7.28456, -16.4206, -18.1525, 0.000106574, -0.000390444, 0.000243599, 9.64795E-05, 9.64795E-05, 9.64795E-05
4894, 1,0.000331164, 0.000169142, 0.000147281, 13.4337, 9.20279, 0.00113746, 43.7107, 14.4712, 0, 0.00104674, 0.000458841, 0.000512232, 21.205, 2.41852, 0, 0.00104695, 0.000239431, 0.000339607, 7.04006, 5.39121, 0, 0.0010469, 1.42136, -27.1607, 18.4837, -4.25231, -18.1791, 6.25781, 8.4132E-05, -0.000528026, 0.000405018, 1.07171E-05, 1.07171E-05, 1.07171E-05
4895, 1,0.000556227, -0.000203694, 0.000156927, 25.2328, -11.7164, 0.00268482, 157.106, -39.2951, 0, 0.0010117, 0.000618264, 0.000678245, 26.0135, 2.83215, 0, 0.00101101, 0.000523762, 0.000494243, 26.0766, -2.67322, 0, 0.0010111, 1.31475, -32.9369, 23.1257, -0.4367, -15.2506, 23.707, 7.00994E-05, -0.000686147, 0.000569862, -5.29481E-05, -5.29481E-05, -5.29481E-05
4896, 1,0.00107616, -0.000399891, 0.000288273, 50.5263, -23.9259, 0.00546359, 328.913, -93.8317, 0, 0.000976799, 0.00104595, 0.00110529, 43.0437, 3.1843, 0, 0.000975262, 0.00118435, 0.00102039, 61.9414, -10.7701, 0, 0.000975483, 5.23283, -51.551, 36.7653, 8.70749, -25.262, 48.8648, 0.000119231, -0.00111374, 0.000941567, -2.48784E-05, -2.48784E-05, -2.48784E-05
4897, 1,0.000164174, 0.000416727, 0.000313774, 3.73896, 24.4006, 0.0010717, 6.79278, 60.6146, 0, 0.00108178, 0.000361406, 0.000366184, 19.708, -0.0496576, 0, 0.00108284, 0.000251677, 0.000459969, 0.967641, 12.7386, 0, 0.00108262, 2.693, -19.2721, 16.728, -6.99453, -14.4906, -16.7306, 8.60023E-05, -0.00036484, 0.00028058, 8.18371E-05, 8.18371E-05, 8.18371E-05
4898, 1,0.0003507, 0.000190624, 0.000157255, 16.2545, 10.7534, 0.00125552, 55.9219, 5.64886, 0, 0.00104666, 0.000502247, 0.000505922, 25.6759, -0.735938, 0, 0.00104677, 0.000238854, 0.000313164, 8.32212, 3.67781, 0, 0.00104669, 2.72722, -22.9039, 22.3845, -3.59502, -15.562, 8.12363, 6.07648E-05, -0.000494957, 0.000446476, -3.48566E-06, -3.48566E-06, -3.48566E-06
4899, 1,0.000602376, -0.000179597, 0.000144673, 29.7785, -10.0286, 0.00295678, 175.117, -46.1794, 0, 0.00101157, 0.000663615, 0.000666788, 31.0715, -0.754349, 0, 0.00101082, 0.000567345, 0.000504723, 29.9093, -4.77027, 0, 0.00101089, 2.78506, -28.0109, 27.4889, 0.457656, -11.9933, 25.8464, 4.43505E-05, -0.000644137, 0.000611786, -6.73255E-05, -6.73255E-05, -6.73255E-05
4900, 1,0.00115496, -0.000366617, 0.000267185, 57.3561, -21.7859, 0.00564021, 340.483, -98.0958, 0, 0.000976616, 0.001113, 0.001104, 49.9079, -1.21972, 0, 0.000975082, 0.00126359, 0.00105581, 68.1051, -13.6436, 0, 0.000975278, 7.47554, -46.0053, 42.1889, 10.4016, -21.3439, 51.8729, 9.77839E-05, -0.00106957, 0.000990298, -3.37992E-05, -3.37992E-05, -3.37992E-05
4901, 1,0.000151816, 0.000443052, 0.000328888, 4.70439, 26.1851, 0.00100046, 12.3634, 48.7202, 0, 0.00108183, 0.000415146, 0.000377846, 24.0016, -2.74394, 0, 0.00108273, 0.000236342, 0.000424417, 1.22342, 11.4482, 0, 0.00108248, 3.8744, -15.6218, 19.9792, -6.5979, -12.496, -15.2506, 6.64344E-05, -0.000338751, 0.00031774, 6.8047E-05, 6.8047E-05, 6.8047E-05
4902, 1,0.000384002, 0.000214541, 0.00016953, 19.6228, 12.4285, 0.00143577, 71.0435, -3.13577, 0, 0.00104663, 0.000563952, 0.000517757, 30.8966, -3.77493, 0, 0.00104664, 0.000244988, 0.000293939, 9.83902, 2.09447, 0, 0.00104654, 3.90585, -18.7399, 26.1589, -3.0831, -13.0388, 9.83852, 3.64381E-05, -0.000462037, 0.000487168, -1.8808E-05, -1.8808E-05, -1.8808E-05
4903, 1,0.000666436, -0.000159055, 0.000136024, 35.2407, -8.5124, 0.00322839, 193.001, -52.9245, 0, 0.00101151, 0.000732511, 0.000680406, 37.3342, -4.40691, 0, 0.00101071, 0.000622821, 0.000528349, 34.3507, -6.93683, 0, 0.00101076, 4.65138, -23.3994, 31.9687, 1.73529, -9.01701, 28.0922, 2.58654E-05, -0.000609917, 0.000655306, -7.47802E-05, -7.47802E-05, -7.47802E-05
4904, 1,0.0012513, -0.000335233, 0.000247792, 65.2391, -19.7445, 0.00583973, 353.102, -102.272, 0, 0.000976492, 0.00120491, 0.00112717, 58.2218, -6.01284, 0, 0.000974968, 0.00135345, 0.0011013, 74.9787, -16.9348, 0, 0.000975141, 10.6964, -40.4909, 47.833, 13.0748, -17.4332, 55.1628, 9.09974E-05, -0.00103328, 0.00103857, -2.85086E-05, -2.85086E-05, -2.85086E-05
4905, 1,0.000153864, 0.00046953, 0.000343947, 6.31463, 27.9887, 0.00104449, 24.1712, 35.5878, 0, 0.00108182, 0.000483488, 0.000402941, 29.0683, -5.51276, 0, 0.00108255, 0.00022912, 0.000395478, 1.84011, 10.1102, 0, 0.00108227, 5.16138, -11.9369, 23.3138, -6.11325, -10.5172, -13.7002, 4.76678E-05, -0.000311714, 0.000354358, 5.51239E-05, 5.51239E-05, 5.51239E-05
4906, 1,0.000436476, 0.000240343, 0.000183513, 24.1798, 14.2009, 0.0016555, 88.2969, -12.2549, 0, 0.00104655, 0.000648759, 0.000551981, 37.4752, -7.23093, 0, 0.00104646, 0.000262309, 0.000285116, 12.2056, 0.109341, 0, 0.00104634, 5.89996, -14.5608, 30.3537, -1.7783, -10.4916, 11.9419, 2.26382E-05, -0.000435609, 0.000530588, -2.38485E-05, -2.38485E-05, -2.38485E-05
4907, 1,0.000758941, -0.000142192, 0.000131048, 41.9681, -7.16841, 0.00355988, 212.895, -58.5465, 0, 0.00101136, 0.000836882, 0.000723412, 45.213, -8.13882, 0, 0.00101054, 0.000699258, 0.000569406, 39.692, -9.18565, 0, 0.00101055, 6.32101, -18.8646, 36.9601, 2.82991, -6.13221, 30.8593, 1.39565E-06, -0.000579723, 0.000710121, -8.79947E-05, -8.79947E-05, -8.79947E-05
4908, 1,0.00134045, -0.000305058, 0.000229347, 71.6765, -17.767, 0.00627815, 381.559, -112.601, 0, 0.000976419, 0.00129728, 0.00115962, 65.4307, -9.79686, 0, 0.000974792, 0.00142984, 0.00114123, 80.1661, -19.2435, 0, 0.000974941, 12.1156, -35.8519, 53.127, 13.9369, -14.3904, 58.1841, 6.11911E-05, -0.00100181, 0.0010983, -4.68267E-05, -4.68267E-05, -4.68267E-05
4909, 1,0.000174647, 0.000496066, 0.000358851, 8.73452, 29.8088, 0.00124878, 39.9015, 27.2413, 0, 0.00108181, 0.000566995, 0.000442304, 34.9272, -8.1828, 0, 0.00108243, 0.000227086, 0.000369575, 2.45143, 8.89753, 0, 0.00108213, 6.43903, -8.63755, 26.7469, -5.65857, -8.94008, -12.094, 2.98678E-05, -0.000288971, 0.000392699, 4.3209E-05, 4.3209E-05, 4.3209E-05
4910, 1,0.0005066, 0.00026723, 0.000198582, 28.9471, 16.0329, 0.00195053, 109.518, -21.8135, 0, 0.00104653, 0.000750319, 0.000606709, 44.2399, -10.0932, 0, 0.00104634, 0.000296183, 0.00029787, 14.7759, -1.26528, 0, 0.00104619, 7.21614, -11.2896, 34.353, -1.15804, -8.8604, 13.8143, 3.48532E-06, -0.000420449, 0.000580991, -3.41062E-05, -3.41062E-05, -3.41062E-05
4911, 1,0.000849878, 0.000129925, 0.00012914, 48.7038, 6.42732, 0.00423226, 250.971, -66.9356, 0, 0.00101132, 0.000945439, 0.000775969, 53.3887, -12.451, 0, 0.00101042, 0.00076859, 0.000607314, 44.7755, -12.0158, 0, 0.00101042, 9.40384, -14.1427, 42.0918, 5.32148, -3.12133, 33.8471, -3.26046E-06, -0.000559039, 0.000764043, -8.17406E-05, -8.17406E-05, -8.17406E-05
4912, 1,0.0014532, -0.000276648, 0.000212464, 78.53, -15.8815, 0.00702962, 424.664, -122.894, 0, 0.000976434, 0.00141822, 0.00119934, 73.2614, -12.724, 0, 0.00097469, 0.00152641, 0.00117946, 85.6502, -20.7219, 0, 0.000974816, 11.2179, -30.9224, 57.8766, 12.4327, -10.9629, 60.6959, -4.49479E-06, -0.000954, 0.00116365, -0.000102482, -0.000102482, -0.000102482
4913, 1,0.000216282, 0.000522384, 0.000373319, 12.8408, 31.6383, 0.00140374, 50.296, 22.87, 0, 0.00108167, 0.000662868, 0.000496519, 42.004, -11.8101, 0, 0.00108228, 0.000217556, 0.00034173, 3.40248, 6.7551, 0, 0.00108195, 9.16164, -5.28011, 31.5487, -3.80954, -7.3187, -9.13706, 2.77283E-05, -0.000283619, 0.000448307, 4.63849E-05, 4.63849E-05, 4.63849E-05
4914, 1,0.000600067, 0.000294671, 0.000213909, 34.7177, 17.9091, 0.00272157, 153.842, -32.1669, 0, 0.00104651, 0.000877405, 0.000684034, 52.134, -13.2334, 0, 0.00104619, 0.000345864, 0.000327554, 18.0101, -2.9001, 0, 0.00104601, 9.62929, -8.25106, 38.322, 0.541196, -7.46646, 15.6256, 2.80146E-06, -0.000420516, 0.000632657, -2.59439E-05, -2.59439E-05, -2.59439E-05
4915, 1,0.00101157, 0.000143186, 0.000131037, 58.5975, 7.62065, 0.00565447, 333.21, -87.1747, 0, 0.00101148, 0.00112605, 0.000869459, 64.7836, -17.1837, 0, 0.00101033, 0.000907866, 0.000686132, 52.9909, -15.2683, 0, 0.0010103, 9.61499, -8.94656, 50.8828, 4.97082, 0.396558, 40.4376, -7.62081E-05, -0.000541848, 0.000896557, -0.000143187, -0.000143187, -0.000143187
4916, 1,0.00148181, -0.000248885, 0.000196101, 84.0677, -14.0278, 0.0082796, 443.893, -128.584, 0.0186671, 0.000976371, 0.00145976, 0.00122156, 79.9574, -19.4438, 0, 0.000974622, 0.00153577, 0.00119194, 89.7309, -26.017, 0, 0.000974726, 20.587, -24.7288, 62.4732, 21.1336, -6.2289, 63.1463, 8.6671E-05, -0.000947683, 0.00117518, -2.89542E-06, -2.89542E-06, -2.89542E-06
4917, 1,0.000294358, 0.000547142, 0.000385987, 17.6385, 33.4215, 0.00193846, 88.717, 4.86712, 0, 0.00108176, 0.000756467, 0.000547853, 48.5157, -15.3899, 0, 0.00108212, 0.000259871, 0.000356524, 6.72202, 4.68864, 0, 0.00108177, 12.4117, -1.6378, 35.3959, -1.40321, -5.61641, -7.04632, 3.77473E-05, -0.000279888, 0.00049261, 6.28692E-05, 6.28692E-05, 6.28692E-05
4918, 1,0.000752854, 0.000321607, 0.000229106, 43.4122, 19.7902, 0.00446592, 264.246, -69.693, 0, 0.0010469, 0.00105576, 0.000787088, 62.6851, -17.4, 0, 0.00104601, 0.000470861, 0.000397896, 24.7884, -5.54601, 0, 0.00104581, 10.894, -4.74439, 46.0505, 1.02037, -5.60524, 21.2229, -3.69893E-05, -0.000437327, 0.000756817, -5.8084E-05, -5.8084E-05, -5.8084E-05
4919, 1,0.000959534, 0.000158586, 0.00013462, 53.1084, 8.92865, 0.00768106, 420.741, -95.6884, 0.00625673, 0.00101138, 0.00109308, 0.000845832, 60.8268, -15.626, 2.33425E-07, 0.00101006, 0.000836578, 0.000642449, 45.9711, -12.2247, 2.33425E-07, 0.00101001, 7.41538, -7.01071, 46.4735, 2.13578, 0.51935, 34.0189, -0.000101295, -0.000508087, 0.000862565, -0.000158162, -0.000158162, -0.000158162
4920, 1,0.00165397, -0.000226332, 0.000184736, 92.2834, -12.3615, 0.0134126, 444.902, -120.35, 0.117805, 0.000976125, 0.00165075, 0.00130196, 89.4402, -22.914, 0, 0.000974449, 0.00168358, 0.00125157, 96.4405, -28.0769, 0, 0.00097453, 18.3337, -17.1284, 67.5367, 18.2442, 0.0805374, 65.9061, -1.83343E-05, -0.000906788, 0.00129559, -9.81571E-05, -9.81571E-05, -9.81571E-05
4921, 1,0.000359194, 0.000573494, 0.000400262, 19.7358, 35.3064, 0.00347265, 198.297, -45.2017, 0, 0.00108248, 0.000873783, 0.000651423, 53.5559, -15.7752, 0, 0.00108196, 0.000231156, 0.00032365, 4.55754, 5.8345, 0, 0.00108158, 12.3621, -2.43991, 37.4035, -2.36912, -7.98666, -7.14772, 2.89389E-05, -0.000330934, 0.000558672, 5.93303E-05, 5.93303E-05, 5.93303E-05
4922, 1,0.000696293, 0.000349668, 0.000244791, 32.9788, 21.7609, 0.00725771, 416.119, -96.4327, 0, 0.00104718, 0.00102391, 0.000833694, 54.2433, -10.6379, 0, 0.00104572, 0.000400035, 0.000414831, 12.6477, 2.75665, 0, 0.00104549, 7.9474, -13.4365, 37.4026, -2.7843, -16.1399, 10.6542, 6.8326E-06, -0.000561558, 0.000727423, -7.76612E-06, -7.76612E-06, -7.76612E-06
4923, 1,0.00127358, 0.000181829, 0.000145706, 68.8258, 10.7032, 0.0152862, 455.353, -135.777, 0.1555, 0.00101208, 0.00143762, 0.00107078, 78.4783, -21.7395, 0, 0.00101, 0.00111613, 0.000841259, 59.6396, -16.8483, 0, 0.00100992, 9.91035, 0.615711, 54.6924, 3.98457, 7.03596, 39.5244, -0.000138674, -0.000552648, 0.00104362, -0.000184448, -0.000184448, -0.000184448
4924, 1,0.0020275, -0.000218295, 0.000187739, 101.79, -11.3369, 0.0270084, 477.436, -160.312, 0.378783, 0.000977167, 0.00205537, 0.00166404, 100.698, -19.6224, 0, 0.000974259, 0.0020201, 0.00156766, 103.964, -23.3952, 0, 0.000974319, 12.7749, -28.022, 74.1143, 12.0968, -11.8758, 69.9646, -8.17461E-05, -0.00123879, 0.00163746, -0.000149312, -0.000149312, -0.000149312
4925, 1,0.000440754, 0.000599904, 0.000413681, 22.8996, 37.2195, 0.00595255, 356.571, -100.585, 0, 0.00108325, 0.000989347, 0.000734714, 58.7868, -17.8422, 0, 0.0010818, 0.000197522, 0.000295296, 3.53274, 5.34881, 0, 0.00108139, 17.5908, -1.91871, 37.8547, 1.69967, -9.23144, -8.51468, 0.000105964, -0.000399213, 0.000583389, 0.000137187, 0.000137187, 0.000137187
4926, 1,0.00114626, 0.000377747, 0.000261091, 58.0117, 23.9125, 0.0165498, 476.269, -167.371, 0.180951, 0.00104848, 0.00151249, 0.00115144, 81.8246, -21.8109, 0, 0.00104568, 0.000789695, 0.000666708, 34.3174, -6.85088, 0, 0.00104543, 15.6117, -3.52116, 53.342, 3.92114, -7.02044, 23.6519, -1.26911E-06, -0.000654384, 0.00100956, -1.02286E-05, -1.02286E-05, -1.02286E-05
4927, 1,0.0015899, 0.000198735, 0.000152273, 86.7063, 12.4265, 0.028546, 499.913, -196.598, 0.410393, 0.00101361, 0.00177356, 0.00125893, 98.0951, -33.294, 0, 0.00100997, 0.00141072, 0.000999622, 75.7322, -26.9061, 0, 0.00100986, 14.5398, 11.985, 73.3572, 7.7756, 17.0125, 55.9303, -0.000210774, -0.000655036, 0.00140551, -0.000247859, -0.000247859, -0.000247859
4928, 1,0.00210388, -0.000197459, 0.000177778, 105.568, -10.0255, 0.0424655, 494.465, -179.199, 0.661291, 0.000978235, 0.00215616, 0.00173333, 105.682, -22.2238, 0, 0.000974089, 0.00206833, 0.00160878, 106.446, -24.6203, 0, 0.000974127, 13.6598, -20.9615, 73.9731, 12.3003, -5.44586, 67.0063, -0.000105152, -0.00125579, 0.00172003, -0.000161054, -0.000161054, -0.000161054
4929, 1,0.00115344, 0.000607036, 0.000408432, 49.6531, 38.3177, 0.0137256, 460.879, -143.727, 0.123843, 0.00108412, 0.00170842, 0.00140097, 86.1564, -14.839, 0, 0.00108167, 0.000654925, 0.000743553, 15.9148, 9.9095, 0, 0.00108123, 19.1898, -29.2232, 54.5503, 2.24166, -37.7174, 5.74727, 0.000189701, -0.00102488, 0.00107646, 0.000224194, 0.000224194, 0.000224194
4930, 1,0.00136128, 0.000398067, 0.000274065, 65.297, 25.7664, 0.0262979, 485.177, -173.507, 0.36641, 0.00104882, 0.00172369, 0.00127653, 90.4349, -25.301, 0, 0.00104555, 0.00102163, 0.000827864, 40.8225, -8.75963, 0, 0.00104527, 10.2815, -0.010871, 65.6323, -2.22719, -5.29484, 33.8009, -0.000166516, -0.000740497, 0.00131744, -0.000165854, -0.000165854, -0.000165854
4931, 1,0.00148967, 0.000218102, 0.000158434, 81.4165, 14.2824, 0.036795, 485.579, -169.387, 0.561759, 0.00101328, 0.00169994, 0.0012288, 94.9763, -33.1481, 0, 0.00100978, 0.00128217, 0.000931098, 68.2121, -25.2595, 0, 0.00100965, 21.1446, 12.8922, 65.4076, 13.4455, 16.3414, 45.9917, -6.80769E-05, -0.000702834, 0.00130814, -9.88812E-05, -9.88812E-05, -9.88812E-05
4932, 1,0.00225029, -0.000182446, 0.000173703, 120.969, -9.16588, 0.0497443, 478.245, -149.596, 0.785524, 0.00097774, 0.0023235, 0.00179841, 122.417, -30.2662, 0, 0.000974001, 0.00219185, 0.0016604, 120.479, -31.3109, 0, 0.000974018, 17.1549, -7.6273, 81.271, 15.0028, 7.68207, 71.2478, -0.00016845, -0.00113688, 0.00179466, -0.000217131, -0.000217131, -0.000217131
4933, 1,0.00154761, 0.000638003, 0.000428493, 79.5605, 40.5898, 0.0233938, 476.558, -163.356, 0.311854, 0.0010848, 0.00216619, 0.00171582, 119.878, -34.7936, 0, 0.00108193, 0.000947032, 0.000918599, 39.6222, -8.47777, 0, 0.00108147, 36.1512, -12.095, 80.3246, 17.9182, -20.6512, 28.1663, 0.000232305, -0.00109063, 0.00142326, 0.00026562, 0.00026562, 0.00026562
4934, 1,0.00143638, 0.00042373, 0.000290733, 72.701, 27.6713, 0.0305511, 472.466, -150.305, 0.444479, 0.00104823, 0.0018085, 0.00129753, 99.4774, -32.8851, 0, 0.0010454, 0.00109555, 0.000869924, 46.8932, -14.8161, 0, 0.00104509, 15.4457, 8.27386, 74.9358, 2.11427, 1.32658, 41.0074, -0.000183978, -0.000713237, 0.00143065, -0.000175695, -0.000175695, -0.000175695
4935, 1,0.00156969, 0.000250078, 0.000175481, 96.1114, 16.4896, 0.0388691, 469.336, -141.762, 0.597189, 0.00101238, 0.00181688, 0.00124913, 111.648, -41.7937, 0, 0.00100958, 0.00132366, 0.000920505, 81.0664, -32.3898, 0, 0.00100943, 30.9072, 26.6341, 67.8398, 22.3983, 29.2416, 45.5295, -1.3871E-05, -0.000549668, 0.00124088, -3.69428E-05, -3.69428E-05, -3.69428E-05
4936, 1,0.00215495, 0.000167187, 0.000164536, 125.893, 8.57454, 0.0514524, 473.337, -142.951, 0.815141, 0.000977262, 0.00225737, 0.00164669, 129.128, -43.6134, 0, 0.000973801, 0.00206456, 0.00146414, 123.639, -43.2072, 0, 0.000973795, 28.6649, 11.1116, 91.0636, 25.3977, 25.1864, 79.0375, -0.000163503, -0.000964642, 0.00183357, -0.000211917, -0.000211917, -0.000211917
4937, 1,0.00119225, 0.000665745, 0.000447545, 60.3574, 42.424, 0.0241992, 448.64, -128.998, 0.32878, 0.00108429, 0.00181577, 0.00135319, 102.284, -33.1134, 0, 0.0010821, 0.000632268, 0.000613747, 20.0604, -5.37946, 0, 0.00108161, 24.1134, 3.60543, 71.6214, 5.27122, -7.28635, 18.1535, -1.95793E-05, -0.00072342, 0.00128057, 2.33126E-05, 2.33126E-05, 2.33126E-05
4938, 1,0.00146487, 0.000460904, 0.000313686, 80.1147, 29.9624, 0.0318297, 465.663, -140.712, 0.468184, 0.00104799, 0.0019011, 0.00132196, 110.027, -36.0629, 0, 0.00104537, 0.00104687, 0.000790915, 50.2593, -16.5771, 0, 0.00104504, 22.1971, 16.7749, 69.2166, 7.92462, 9.08047, 32.7262, -0.00011089, -0.000591193, 0.00128693, -9.98215E-05, -9.98215E-05, -9.98215E-05
4939, 1,0.00164734, 0.000282258, 0.000195015, 100.6, 18.6405, 0.0398574, 465.874, -135.038, 0.613888, 0.00101205, 0.00192379, 0.00132976, 118.072, -41.134, 8.67362E-19, 0.00100935, 0.00137339, 0.000966907, 83.7215, -30.1424, 8.67362E-19, 0.00100917, 26.7812, 26.0194, 70.6014, 17.3042, 27.6417, 45.4814, -0.000113608, -0.000556366, 0.0013365, -0.000131495, -0.000131495, -0.000131495
4940, 1,0.00251623, 0.000192287, 0.000178009, 132.036, 10.4023, 0.0523899, 462.784, -131.748, 0.833207, 0.000976693, 0.00265377, 0.00205931, 138.27, -37.208, 0, 0.000973385, 0.00238816, 0.0018253, 126.614, -35.3183, 0, 0.000973356, 21.5957, -14.2158, 104.244, 17.5672, -1.29285, 89.6807, -0.000254274, -0.00137386, 0.0022296, -0.000294803, -0.000294803, -0.000294803
4941, 1,0.00123385, 0.000700253, 0.00047057, 57.1974, 44.475, 0.0220514, 447.515, -130.614, 0.288297, 0.00108425, 0.00191439, 0.00140328, 101.633, -22.6897, 0, 0.00108192, 0.000590262, 0.000539073, 12.891, 6.47799, 0, 0.0010814, 10.714, -3.73428, 61.0894, -9.36465, -15.5404, 5.47104, -0.000168624, -0.000673729, 0.00121061, -0.000129421, -0.000129421, -0.000129421
4942, 1,0.0016285, 0.000503602, 0.000346248, 90.5871, 32.5151, 0.0314989, 460.56, -131.963, 0.461428, 0.00104764, 0.00210437, 0.00146976, 122.255, -34.8063, 0, 0.00104522, 0.00117344, 0.000879688, 59.7298, -13.6912, 0, 0.00104486, 7.02842, 22.5072, 74.8834, -8.06199, 14.2763, 34.8595, -0.000444713, -0.000425519, 0.00143455, -0.000424948, -0.000424948, -0.000424948
4943, 1,0.00180357, 0.000318962, 0.00021924, 115.612, 20.8703, 0.0406208, 467.506, -137.108, 0.628032, 0.00101182, 0.00211514, 0.00145791, 135.033, -46.0164, 0, 0.00100912, 0.00149539, 0.00104589, 96.8247, -33.4568, 0, 0.00100891, 33.9326, 26.6192, 77.4975, 23.4085, 27.5951, 49.3667, -6.85576E-05, -0.000581416, 0.00139585, -8.38986E-05, -8.38986E-05, -8.38986E-05
4944, 1,0.00313626, 0.000252134, 0.000225605, 182.896, 13.8738, 0.0535383, 458.335, -126.791, 0.852837, 0.000976282, 0.00329632, 0.00245903, 190.466, -51.6355, 0, 0.000973272, 0.00299177, 0.00220915, 176.369, -48.3245, 0, 0.00097322, 33.9175, -7.08637, 128.076, 28.3843, 8.37195, 108.217, -0.000268406, -0.00138536, 0.00248972, -0.000319398, -0.000319398, -0.000319398
4945, 1,0.00152852, 0.00077448, 0.000524159, 103.422, 48.7328, 0.0216581, 458.01, -148.459, 0.281842, 0.0010852, 0.002276, 0.00152134, 149.066, -56.4932, 0, 0.00108309, 0.000833284, 0.000568236, 63.2398, -25.2541, 0, 0.00108254, 34.0143, 54.9268, 80.5384, 12.2634, 43.2516, 20.2473, -0.000238636, 3.07475E-05, 0.00112454, -0.000201815, -0.000201815, -0.000201815
4946, 1,0.00195023, 0.000554569, 0.000386319, 114.411, 35.25, 0.0306561, 469.059, -146.028, 0.447012, 0.00104839, 0.00246861, 0.0017818, 147.645, -38.9079, 0, 0.00104575, 0.00145715, 0.00111826, 82.6753, -16.6081, 0, 0.00104537, 0.473906, 36.1375, 80.1123, -14.9132, 27.976, 36.7616, -0.000681748, -0.00015149, 0.00146421, -0.000649532, -0.000649532, -0.000649532
4947, 1,0.00224092, 0.00035767, 0.000249421, 143.977, 22.9232, 0.0403898, 466.234, -134.765, 0.623566, 0.00101151, 0.00258459, 0.0017779, 165.378, -53.5212, 0, 0.001009, 0.00190283, 0.00133312, 123.137, -39.8199, 0, 0.00100878, 37.2771, 27.7929, 95.4936, 26.2031, 28.6393, 64.6174, -0.000155451, -0.000598317, 0.00162164, -0.000165412, -0.000165412, -0.000165412
4948, 1,0.00299452, 0.000294841, 0.000254274, 195.753, 16.481, 0.0524932, 468.071, -134.804, 0.8329, 0.000976051, 0.00316968, 0.00217001, 204.053, -66.7424, 0, 0.000973124, 0.00284456, 0.00193771, 188.95, -61.8539, 0, 0.000973046, 46.647, 29.6183, 123.962, 39.4162, 45.8812, 100.264, -0.000276808, -0.000762568, 0.00212075, -0.00034135, -0.00034135, -0.00034135
4949, 1,0.00211689, 0.000837731, 0.000574079, 136.451, 53.3374, 0.01939, 462.054, -153.176, 0.237168, 0.00108543, 0.00293885, 0.00211722, 189.685, -72.0534, 0, 0.00108359, 0.00131344, 0.00102499, 83.3395, -36.1429, 0, 0.00108296, 34.9074, 54.3323, 126.921, 10.2957, 38.5975, 59.5354, -0.000494849, -0.000164907, 0.00182875, -0.000445571, -0.000445571, -0.000445571
4950, 1,0.00243601, 0.000618316, 0.000435697, 155.859, 39.1233, 0.0289969, 470.773, -148.704, 0.416056, 0.00104895, 0.00302704, 0.00217107, 193.585, -63.0906, 0, 0.00104673, 0.00186308, 0.00138023, 119.103, -38.0221, 0, 0.0010463, 19.9205, 57.596, 111.755, 3.35353, 47.0444, 63.6683, -0.000686738, -6.51153E-06, 0.00171674, -0.000636439, -0.000636439, -0.000636439
4951, 1,0.00292872, 0.000416982, 0.000297067, 186.351, 26.1719, 0.0400231, 468.526, -138.689, 0.617271, 0.0010113, 0.0032988, 0.00233678, 209.653, -65.3068, 0, 0.0010089, 0.00257359, 0.00183482, 163.936, -49.9034, 0, 0.00100865, 20.2032, 49.2847, 126.433, 8.37598, 49.9076, 91.4265, -0.000748185, -0.000264718, 0.00207215, -0.000748427, -0.000748427, -0.000748427
4952, 1,0.00361866, 0.000350241, 0.000296207, 233.591, 19.4101, 0.0518209, 467.745, -134.082, 0.820893, 0.00097568, 0.00385085, 0.00263548, 245.452, -82.7904, 0, 0.000973077, 0.0034126, 0.00236221, 223.299, -76.5511, 0, 0.000972978, 57.2457, 28.9184, 162.207, 48.8568, 44.8756, 135.921, -0.000349338, -0.000956245, 0.00264735, -0.000419677, -0.000419677, -0.000419677
4953, 1,0.0023595, 0.000950575, 0.000669049, 160.278, 61.1231, 0.0149319, 455.24, -142.1, 0.149332, 0.00108459, 0.00323337, 0.00240168, 218.988, -93.4121, 0, 0.00108351, 0.0015887, 0.00124294, 106.059, -50.5702, 0, 0.00108276, 47.9505, 71.4147, 160.871, 19.9562, 48.755, 82.9994, -0.000582566, -8.00729E-05, 0.00217792, -0.00049634, -0.00049634, -0.00049634
4954, 1,0.0033742, 0.000719173, 0.000522151, 206.322, 45.3565, 0.0280788, 466.254, -141.766, 0.398681, 0.00104827, 0.00409076, 0.00311043, 251.387, -71.3365, 0, 0.00104638, 0.00265918, 0.00210122, 161.412, -42.0119, 0, 0.00104589, 29.1578, 53.2836, 131.568, 13.5152, 38.2545, 74.2661, -0.000681853, -0.000174293, 0.00201346, -0.000545213, -0.000545213, -0.000545213
4955, 1,0.00424674, 0.000474022, 0.000348309, 254.258, 29.5745, 0.0408512, 477.173, -152.271, 0.632657, 0.00101128, 0.00467322, 0.00350708, 281.179, -75.9708, 0.000782335, 0.00100867, 0.00383137, 0.00289041, 227.951, -58.158, 0.000782335, 0.00100838, 2.85757, 48.3188, 176.736, -7.17647, 46.7914, 134.859, -0.00135845, -0.0004042, 0.00299539, -0.00128466, -0.00128466, -0.00128466
4956, 1,0.00487364, 0.000434436, 0.000367793, 307.572, 23.6841, 0.0542762, 480.415, -153.497, 0.862257, 0.000976175, 0.00513142, 0.00357796, 321.268, -101.852, 0, 0.000973107, 0.00464932, 0.00326885, 295.682, -94.5427, 0, 0.000972992, 59.8358, 24.6847, 221.034, 51.29, 42.0695, 190.269, -0.000661935, -0.00128311, 0.00359569, -0.000720679, -0.000720679, -0.000720679
4957, 1,0.00272452, 0.0011134, 0.000798798, 169.754, 71.6529, 0.0132065, 397.683, -155.177, 0.146323, 0.0010847, 0.00382112, 0.00299615, 241.04, -83.671, 0, 0.0010832, 0.00165522, 0.00143511, 99.141, -33.1495, 0, 0.00108232, 40.1088, 61.6566, 149.248, 8.38753, 35.2242, 55.8368, -0.000674157, -0.000133342, 0.00216394, -0.000545215, -0.000545215, -0.000545215
4958, 1,0.00491811, 0.000911937, 0.000678724, 274.491, 55.1256, 0.0277674, 476.065, -170.387, 0.399493, 0.00104801, 0.00582045, 0.00447566, 329.008, -102.706, 0.0126573, 0.00104604, 0.00402043, 0.00320957, 220.246, -65.9216, 0.0113901, 0.00104541, 50.7315, 74.0729, 183.313, 34.6214, 54.1027, 109.041, -0.000927709, -0.000273491, 0.0028791, -0.00065324, -0.00065324, -0.00065324
4959, 1,0.00641153, 0.000583385, 0.000441552, 275.387, 33.1351, 0.0405441, 484.6, -166.414, 0.628795, 0.00101107, 0.00692587, 0.00527642, 306.809, -96.2315, 0.0444999, 0.00100848, 0.00590899, 0.0044867, 244.381, -75.0634, 0.0444999, 0.00100813, 33.2929, 62.1843, 193.217, 26.7151, 54.6908, 143.784, -0.00170247, -0.000695434, 0.00399859, -0.00147248, -0.00147248, -0.00147248
4960, 1,0.00621184, 0.000530833, 0.000449251, 394.035, 28.7861, 0.0529407, 477.567, -154.621, 0.84385, 0.000976491, 0.00645621, 0.00450818, 407.885, -135.018, 4.33681E-19, 0.000974003, 0.0060135, 0.00420278, 382.489, -125.879, 4.33681E-19, 0.000973858, 67.031, 33.2767, 304.746, 58.8622, 47.4479, 271.326, -0.00109692, -0.00154722, 0.00483268, -0.00112122, -0.00112122, -0.00112122
4961, 1,0.003557, 0.00125836, 0.000914092, 229.876, 81.5994, 0.0105405, 289.899, -97.3692, 0.122631, 0.00108352, 0.00481195, 0.00373326, 310.439, -110.612, 0, 0.00108362, 0.00230649, 0.0019111, 150.464, -51.757, 0, 0.00108259, 63.4422, 89.199, 179.194, 29.4738, 58.1144, 67.6829, -0.000769902, 1.31894E-05, 0.00254843, -0.00055619, -0.00055619, -0.00055619
4962, 1,0.00679166, 0.00114338, 0.000851405, 294.443, 67.9276, 0.0252246, 461.667, -162.806, 0.356266, 0.0010475, 0.00789897, 0.00608386, 361.376, -118.232, 0.0483968, 0.00104611, 0.00569677, 0.004531, 228.013, -70.7846, 0.0477301, 0.00104528, 66.4211, 76.6797, 211.595, 45.3872, 50.4634, 116.503, -0.00128387, -0.000781874, 0.00403484, -0.000846807, -0.000846807, -0.000846807
4963, 1,0.00773558, 0.000715086, 0.000561995, 328.1, 41.0481, 0.0367758, 476.394, -167.525, 0.566225, 0.00101162, 0.00837942, 0.00643208, 367.477, -120.353, 0.0560841, 0.00100964, 0.00710307, 0.00540826, 289.128, -92.9926, 0.0560841, 0.00100918, 47.6877, 66.0589, 247.313, 43.0805, 52.9377, 182.96, -0.00197931, -0.00119794, 0.00519152, -0.00153307, -0.00153307, -0.00153307
4964, 1,0.00787031, 0.000680923, 0.000590799, 446.818, 33.0571, 0.047729, 475.474, -169.3, 0.763258, 0.000977769, 0.00808186, 0.00582733, 461.821, -161.316, 0.0182254, 0.000975678, 0.00772845, 0.00554655, 434.709, -152.647, 0.0210717, 0.000975543, 69.6831, 50.7015, 363.562, 68.094, 59.2088, 330.639, -0.00177706, -0.00182077, 0.0062393, -0.00170811, -0.00170811, -0.00170811
4965, 1,0.00415822, 0.00134983, 0.000982959, 287.813, 87.4261, 0.00569055, 265.629, -112.251, 0.038878, 0.00108433, 0.00549151, 0.00417886, 374.299, -148.027, 0, 0.00108492, 0.00284433, 0.00224281, 202.136, -84.9523, 0, 0.00108381, 97.4212, 108.918, 237.741, 61.1215, 75.6333, 118.102, -0.000717287, -0.000118047, 0.00323266, -0.00048676, -0.00048676, -0.00048676
4966, 1,0.00805924, 0.00132674, 0.000983198, 317.7, 79.7955, 0.0217642, 387.591, -126.182, 0.314397, 0.00104716, 0.00935485, 0.00713507, 396.85, -135.716, 0.0686446, 0.00104696, 0.00677413, 0.00528622, 238.936, -79.2587, 0.0686446, 0.00104596, 74.5673, 64.9146, 267.665, 49.6041, 38.3526, 149.82, -0.00178068, -0.00174899, 0.00581403, -0.00124699, -0.00124699, -0.00124699
4967, 1,0.0103152, 0.000929358, 0.000723611, 415.48, 50.3854, 0.0339198, 487.254, -185.778, 0.516539, 0.00101292, 0.0111219, 0.00813933, 463.405, -161.373, 0.0845308, 0.00101142, 0.00952686, 0.00683454, 368.155, -127.857, 0.0845308, 0.00101084, 112.704, 55.1865, 316.227, 103.874, 42.3607, 237.335, -0.00126243, -0.0028767, 0.00688125, -0.000664025, -0.000664025, -0.000664025
4968, 1,0.0100552, 0.000929217, 0.000804896, 431.21, 36.4318, 0.0401063, 460.047, -141.465, 0.626914, 0.000977964, 0.0103104, 0.00757637, 448.389, -135.42, 0.0622444, 0.000976739, 0.00989605, 0.00721483, 417.066, -123.824, 0.0651405, 0.000976552, 50.8386, 6.13305, 349.289, 50.6774, 7.69317, 313.103, -0.00242962, -0.0031838, 0.00788282, -0.00222124, -0.00222124, -0.00222124
4969, 1,0.00525206, 0.00143663, 0.00102536, 315.772, 88.7633, 0.00834949, 244.891, -53.8908, 0.0861773, 0.00110685, 0.00667339, 0.00496969, 403.98, -146.805, 0.0109662, 0.00110849, 0.00384056, 0.00301264, 228.002, -80.323, 0.00794633, 0.00110729, 104.056, 57.7485, 278.609, 65.3494, 21.952, 153.668, -0.000644531, -0.00129142, 0.00432806, -0.000365026, -0.000365026, -0.000365026
4970, 1,0.0115705, 0.0014097, 0.00104499, 344.79, 82.2842, 0.0234126, 351.939, -115.98, 0.363933, 0.00107006, 0.0129455, 0.00957228, 426.634, -167.302, 0.139838, 0.00107069, 0.0102051, 0.00779123, 263.242, -104.149, 0.139838, 0.0010695, 150.424, 42.171, 309.31, 107.625, 21.6527, 183.17, -0.000348315, -0.00499796, 0.00828237, 0.000309738, 0.000309738, 0.000309738
4971, 1,0.0140228, 0.00116184, 0.000841465, 440.582, 58.2539, 0.0321745, 463.025, -150.195, 0.484311, 0.00103442, 0.0149899, 0.010613, 497.103, -213.556, 0.162061, 0.00103491, 0.0130804, 0.00961911, 384.568, -168.528, 0.162061, 0.00103408, 189.773, 68.619, 382.277, 162.381, 54.5658, 288.637, -0.000513121, -0.00592008, 0.0102342, 4.74715E-05, 4.74715E-05, 4.74715E-05
4972, 1,0.0139276, 0.00105909, 0.000913626, 468.495, 32.4458, 0.0372757, 482.558, -176.583, 0.577136, 0.00100028, 0.0140976, 0.0101925, 486.575, -198.778, 0.14163, 0.000999555, 0.0138467, 0.00997238, 452.29, -182.559, 0.147455, 0.000999281, 153.11, 72.1509, 371.073, 145.387, 69.8701, 332.419, -0.00154676, -0.00456462, 0.00960512, -0.00134824, -0.00134824, -0.00134824
4973, 1,0.0104085, -0.00265821, 0.00178841, 3.14156, -138.564, 0.0441531, 2.87169, 581.004, 1, 0.00102269, 0.0113239, 0.0177169, 6.91873, 234.16, 0.261523, 0.00104011, 0.00949333, 0.0141618, -0.618345, 141.3, 0.258673, 0.00104195, -105.55, -27.7489, -569.179, -75.1879, -21.5324, -327.181, 0.00566924, 0.00979635, -0.0199118, 0.00431579, 0.00431579, 0.00431579
4974, 1,0.0107466, -0.00299658, 0.00201959, 7.86576, -160.558, 0.0410165, -6.35984, 499.459, 1, 0.000992341, 0.0117746, 0.0177395, 11.4064, 264.484, 0.241976, 0.00100571, 0.00972105, 0.0137659, 4.4261, 151.513, 0.240393, 0.00100784, -171.666, -48.6497, -573.136, -114.295, -31.8032, -308.442, 0.00313732, 0.00920501, -0.0173019, 0.0018794, 0.0018794, 0.0018794
4975, 1,0.0123161, -0.00351436, 0.00234273, -5.40218, -181.139, 0.0400681, -1.34898, 436.337, 1, 0.000960488, 0.0134823, 0.020188, -3.47635, 302.823, 0.281204, 0.000970329, 0.0111508, 0.0155562, -7.29236, 172.233, 0.276374, 0.000972779, -203.491, -62.4273, -642.549, -134.911, -40.5765, -341.21, 0.00332539, 0.0107128, -0.019865, 0.001825, 0.001825, 0.001825
4976, 1,0.0144104, -0.0043701, 0.00296508, 9.13196, -178.028, 0.0379848, 16.2484, 354.299, 1, 0.000927127, 0.0159474, 0.0246984, 10.251, 254.089, 0.408569, 0.000934264, 0.0128789, 0.0188318, 8.10304, 130.539, 0.380864, 0.000936743, -105.462, -59.9391, -596.867, -61.8392, -32.0946, -297.682, 0.00825978, 0.0114764, -0.0250761, 0.00600438, 0.00600438, 0.00600438
4977, 1,0.00906916, -0.00228544, 0.00154001, 7.74357, -122.55, 0.0434062, 10.262, 548.993, 1, 0.00108033, 0.00984735, 0.0157868, 11.0072, 209.366, 0.230725, 0.00109804, 0.00829255, 0.0127331, 4.54805, 128.64, 0.228866, 0.00109969, -68.8337, -55.8861, -503.377, -49.709, -38.7546, -297.456, 0.0061353, 0.00701412, -0.017045, 0.00490445, 0.00490445, 0.00490445
4978, 1,0.00889122, -0.0025794, 0.00173269, 10.9698, -138.209, 0.0399409, 20.8657, 428.324, 1, 0.00104783, 0.00975168, 0.0154056, 14.7839, 224.567, 0.209528, 0.00106006, 0.00803567, 0.0120344, 7.34693, 132.691, 0.208459, 0.00106185, -119.326, -68.3797, -485.996, -84.673, -46.2607, -267.138, 0.00377797, 0.00636965, -0.0142712, 0.00248352, 0.00248352, 0.00248352
4979, 1,0.00875765, -0.00293316, 0.00196454, 24.8694, -160.232, 0.037586, 33.7788, 336.352, 1, 0.00101575, 0.00973713, 0.015497, 30.0079, 223.217, 0.198202, 0.0010242, 0.00778046, 0.0116456, 19.8395, 118.255, 0.198202, 0.00102616, -115.259, -50.8949, -503.498, -74.2688, -27.3059, -253.189, 0.00354137, 0.00656107, -0.0141732, 0.00215562, 0.00215562, 0.00215562
4980, 1,0.0100819, -0.0035365, 0.00240176, 23.895, -168.566, 0.0361548, 31.7831, 289.13, 1, 0.00098086, 0.0113123, 0.0178727, 28.9401, 225.339, 0.253899, 0.000987115, 0.00885311, 0.0131469, 18.9071, 114.847, 0.239433, 0.000989198, -98.7214, -54.5986, -522.697, -61.1789, -26.5526, -256.809, 0.00499094, 0.00742072, -0.0166712, 0.00318893, 0.00318893, 0.00318893
4981, 1,0.00623514, -0.00191151, 0.00130535, 15.0982, -107.333, 0.0423542, 26.4282, 493.31, 1, 0.00107908, 0.00691585, 0.0115663, 19.4792, 181.609, 0.138886, 0.0010953, 0.00555824, 0.00897794, 10.8141, 113.725, 0.136799, 0.00109662, -37.4866, -84.0409, -423.298, -27.4959, -57.9523, -255.726, 0.00494529, 0.00349076, -0.0116265, 0.00390399, 0.00390399, 0.00390399
4982, 1,0.00647481, -0.00218749, 0.0014874, 15.2754, -120.888, 0.0397156, 50.953, 376.378, 1, 0.00104623, 0.00719508, 0.0122367, 18.2515, 183.832, 0.152768, 0.00105733, 0.00575975, 0.00937457, 12.616, 107.228, 0.15163, 0.00105877, -58.5301, -78.9402, -414.027, -42.7223, -49.2883, -229.675, 0.00424559, 0.00376564, -0.0112693, 0.00299726, 0.00299726, 0.00299726
4983, 1,0.00656951, -0.00253794, 0.00171192, 17.649, -143.35, 0.0364047, 34.6606, 297.484, 1, 0.00101327, 0.00740994, 0.0124846, 21.4592, 203.642, 0.141364, 0.00102074, 0.00573017, 0.00915339, 13.9326, 111.718, 0.141245, 0.00102239, -83.8658, -89.8396, -437.219, -56.8544, -52.7133, -225.587, 0.00351564, 0.00360139, -0.0107026, 0.00225485, 0.00225485, 0.00225485
4984, 1,0.00753495, -0.00308182, 0.00209107, 32.683, -164.594, 0.0340892, 4.69833, 268.556, 1, 0.000979084, 0.00856867, 0.013809, 38.7733, 210.608, 0.157909, 0.000985088, 0.00653088, 0.00980514, 27.4277, 105.541, 0.154167, 0.000986935, -91.2095, -116.761, -423.853, -57.5939, -67.1472, -191.883, 0.00349835, 0.00283535, -0.0100812, 0.00200926, 0.00200926, 0.00200926
4985, 1,0.00474499, -0.00164424, 0.00112308, 15.0598, -94.4786, 0.040058, 14.0801, 452.446, 1, 0.00107807, 0.00534505, 0.0092991, 18.4896, 167.401, 0.0917501, 0.00109299, 0.00414677, 0.00705811, 11.6599, 107.478, 0.089355, 0.00109411, -25.8188, -113.874, -362.51, -18.1074, -80.1035, -224.223, 0.0040879, 0.00162382, -0.00857079, 0.00317893, 0.00317893, 0.00317893
4986, 1,0.00438548, -0.00189183, 0.00129585, 12.4549, -110.032, 0.0374509, 13.6505, 364.875, 1, 0.00104462, 0.00503797, 0.00900496, 16.9851, 177.606, 0.0747353, 0.00105553, 0.0037584, 0.00649222, 7.9974, 109.169, 0.0732992, 0.00105676, -42.5245, -107.997, -382.295, -34.9819, -70.711, -221.813, 0.00334086, 0.00179634, -0.00814171, 0.00223442, 0.00223442, 0.00223442
4987, 1,0.00473954, -0.00222137, 0.00151102, 29.2991, -129.795, 0.0344754, 21.006, 263.427, 1, 0.00101276, 0.00550323, 0.00953302, 33.3377, 176.144, 0.0770472, 0.00101955, 0.00399136, 0.00660192, 25.9055, 94.5728, 0.0765463, 0.00102096, -50.4867, -108.496, -369.449, -34.7008, -60.3531, -188.665, 0.00298736, 0.00161988, -0.00759254, 0.00180621, 0.00180621, 0.00180621
4988, 1,0.00603801, -0.0027432, 0.00184822, 34.1282, -157.229, 0.0298155, 4.78413, 251.399, 0.904201, 0.000979066, 0.00691804, 0.0114761, 37.7548, 207.836, 0.101477, 0.000983639, 0.00519217, 0.00796595, 31.6832, 106.726, 0.101477, 0.000985351, -84.363, -163.861, -375.283, -54.808, -96.1063, -169.263, 0.00289139, 0.000696941, -0.00716337, 0.00158195, 0.00158195, 0.00158195
4989, 1,0.00267351, -0.00141811, 0.00096238, 16.0004, -86.7709, 0.0381877, -4.70603, 423.304, 1, 0.0010769, 0.00317715, 0.00597144, 18.0973, 160.884, 0.0106341, 0.0010909, 0.00217124, 0.00405448, 14.0596, 105.398, 0.00864805, 0.00109189, -26.8658, -136.418, -319.367, -19.1103, -97.2717, -199.811, 0.00231993, 0.000497551, -0.00544034, 0.00155353, 0.00155353, 0.00155353
4990, 1,0.00324597, -0.00168242, 0.0011515, 35.6757, -101.695, 0.0352391, -2.77226, 329.997, 1, 0.00104394, 0.00385833, 0.00673556, 39.9224, 158.9, 0.0190122, 0.00105391, 0.0026372, 0.0044506, 31.6224, 95.4081, 0.0173533, 0.00105501, -10.3766, -135.187, -331.137, -5.80631, -89.9346, -190.483, 0.00275339, 0.00039221, -0.00574923, 0.00178828, 0.00178828, 0.00178828
4991, 1,0.0040948, -0.00199473, 0.00135764, 51.1047, -119.331, 0.0313698, 1.86145, 250.43, 0.971137, 0.00101204, 0.00477325, 0.00788216, 54.7063, 158.874, 0.038429, 0.00101837, 0.00343792, 0.00527354, 48.415, 83.501, 0.0375961, 0.00101965, -29.8978, -134.833, -311.891, -18.1209, -77.1574, -155.225, 0.00257918, 0.000336186, -0.00554857, 0.00151971, 0.00151971, 0.00151971
4992, 1,0.0035784, -0.00241712, 0.00163042, 39.4866, -149.644, 0.024705, -5.57465, 256.203, 0.761011, 0.000978966, 0.00439401, 0.00776122, 42.4085, 200.9, 0.00933103, 0.00098284, 0.00278288, 0.00458031, 38.1284, 105.684, 0.00933103, 0.000984367, -70.9438, -199.044, -332.712, -48.2679, -123.033, -145.751, 0.00181049, -0.000595812, -0.00449201, 0.000750732, 0.000750732, 0.000750732
4993, 1,0.00220286, -0.00124857, 0.000841383, 3.25037, -80.1469, 0.0366127, -6.07159, 386.099, 1, 0.00107745, 0.00260366, 0.00508234, 5.02647, 156.684, 0, 0.00109006, 0.00180526, 0.00344163, 1.51901, 105.44, 0, 0.00109096, -42.8096, -151.87, -275.372, -35.4926, -109.488, -171.339, 0.00166475, 0.000152666, -0.00435675, 0.000998441, 0.000998441, 0.000998441
4994, 1,0.00276714, -0.00151532, 0.00103152, 38.7114, -93.7952, 0.0341468, -2.59974, 292.141, 1, 0.00104485, 0.00329913, 0.00584172, 40.8197, 143.959, 0.00494084, 0.00105365, 0.00224306, 0.0038194, 37.2321, 84.764, 0.00386738, 0.00105467, -17.1252, -144.009, -270.744, -11.2144, -96.1969, -146.881, 0.0020538, -2.78095E-05, -0.00436637, 0.00120607, 0.00120607, 0.00120607
4995, 1,0.00286313, -0.0018159, 0.00122854, 49.3658, -112.95, 0.0285303, 6.87541, 251.097, 0.858516, 0.00101251, 0.00347254, 0.00607919, 50.4431, 143.266, 0.00352131, 0.00101809, 0.00227039, 0.00369175, 48.9896, 70.7502, 0.00265803, 0.00101929, -16.9696, -144.245, -268.583, -4.51596, -81.2871, -126.448, 0.00200482, -0.000199636, -0.00413341, 0.00109367, 0.00109367, 0.00109367
4996, 1,0.00289247, -0.00221765, 0.0015003, 24.1291, -139.236, 0.0217827, -11.6712, 259.729, 0.673456, 0.000978849, 0.00362886, 0.00677931, 25.2115, 192.37, 0, 0.000982409, 0.00218242, 0.00388594, 25.0719, 102.453, 0, 0.000983844, -55.6466, -240.042, -281.42, -31.8708, -159.253, -116.235, 0.00184367, -0.00160509, -0.00336039, 0.000922166, 0.000922166, 0.000922166
4997, 1,0.00211222, -0.00112529, 0.00075648, 14.2967, -72.9347, 0.0347351, -15.7969, 350.046, 1, 0.00107638, 0.00248458, 0.00471222, 14.7147, 137.521, 0, 0.00108787, 0.00174617, 0.00322978, 14.0169, 90.3227, 0, 0.0010887, -31.5318, -151.479, -229.554, -23.3499, -108.459, -139.159, 0.00155626, -0.000101527, -0.0036835, 0.000970832, 0.000970832, 0.000970832
4998, 1,0.00213024, -0.00137747, 0.000932563, 16.8762, -87.8303, 0.0313359, -15.9762, 273.846, 0.968223, 0.00104503, 0.00260474, 0.00486489, 17.8301, 137.395, 0, 0.00105283, 0.00166423, 0.00304206, 16.7649, 81.2988, 0, 0.00105379, -33.0666, -152.371, -226.749, -25.7487, -101.332, -116.816, 0.00150174, -0.000258136, -0.00347105, 0.000758122, 0.000758122, 0.000758122
4999, 1,0.00242016, -0.00166701, 0.00112855, 22.2184, -105.616, 0.0260926, -0.354029, 263.574, 0.770738, 0.0010126, 0.00296111, 0.00552267, 22.1883, 154.479, 7.57359E-07, 0.00101767, 0.00190121, 0.00336004, 22.9553, 86.3067, 7.57359E-07, 0.0010188, -42.2814, -171.512, -249.644, -29.6218, -107.119, -122.18, 0.00156882, -0.000584105, -0.00349037, 0.000750558, 0.000750558, 0.000750558
5000, 1,0.00258215, -0.00203262, 0.00137115, 16.646, -127.719, 0.0189187, -6.47492, 257.036, 0.559958, 0.000979058, 0.00325058, 0.00607246, 17.3201, 178.175, 0, 0.000982172, 0.00192904, 0.00341783, 17.1055, 95.6837, 0, 0.000983488, -45.3333, -242.319, -246.873, -23.8779, -161.515, -101.658, 0.00182298, -0.00189594, -0.00281855, 0.000969898, 0.000969898, 0.000969898
5001, 1,0.00188588, -0.00101319, 0.000683319, -1.90551, -66.321, 0.0340343, -4.50896, 307.428, 1, 0.00107758, 0.00218631, 0.00421045, -1.16931, 131.652, 0, 0.00108749, 0.00159119, 0.00292104, -2.55136, 88.4267, 0, 0.00108825, -49.6414, -142.324, -202.991, -41.7051, -99.3798, -124.195, 0.00104756, 5.17393E-05, -0.00323301, 0.000518571, 0.000518571, 0.000518571
5002, 1,0.00200146, -0.00127039, 0.000858297, 13.2941, -81.5988, 0.0294981, -11.4608, 272.978, 0.894506, 0.00104517, 0.00241291, 0.00462143, 13.2712, 133.838, 7.87414E-07, 0.00105217, 0.00160629, 0.00297114, 13.6192, 81.1158, 7.87414E-07, 0.00105307, -35.0272, -156.939, -209.547, -26.552, -106.027, -110.768, 0.00138886, -0.000405516, -0.00315327, 0.000722635, 0.000722635, 0.000722635
5003, 1,0.00210323, -0.00153647, 0.0010375, 13.0707, -97.7971, 0.023177, -0.0387919, 266.76, 0.664968, 0.00101229, 0.00261645, 0.00496388, 13.1103, 143.279, 0, 0.00101692, 0.00161296, 0.00295994, 14.3069, 79.5448, 0, 0.00101797, -46.035, -166.89, -216.911, -33.3036, -102.368, -102.962, 0.00130363, -0.000684359, -0.00294321, 0.000557288, 0.000557288, 0.000557288
5004, 1,0.00222368, -0.00185812, 0.00125107, 7.62408, -117.045, 0.0151174, -7.23397, 253.932, 0.428477, 0.000979008, 0.00284806, 0.00546757, 8.69819, 165.192, 0, 0.000981689, 0.00161541, 0.00302017, 8.10719, 89.0684, 0, 0.000982902, -52.7072, -218.591, -224.278, -32.3355, -140.08, -94.7897, 0.00145492, -0.00163532, -0.00250045, 0.000679876, 0.000679876, 0.000679876
5005, 1,0.00185041, -0.000924462, 0.000623434, 9.88598, -60.9204, 0.0324342, -27.5111, 291.758, 1, 0.00107756, 0.00212117, 0.00405361, 9.66863, 114.116, 0, 0.00108715, 0.00158433, 0.00287902, 10.3167, 74.394, 0, 0.00108785, -32.1902, -137.962, -172.196, -24.4501, -96.5356, -102.196, 0.00112704, -0.000117397, -0.00285882, 0.000649302, 0.000649302, 0.000649302
5006, 1,0.00178782, -0.00117698, 0.000794488, 11.5463, -75.7266, 0.0267656, -8.63173, 283.213, 0.768476, 0.00104543, 0.00217542, 0.00420001, 12.3714, 120.34, 0, 0.00105182, 0.00141251, 0.00266547, 11.1914, 71.4074, 0, 0.00105266, -35.5932, -151.033, -174.394, -27.3865, -101.07, -85.7656, 0.00116542, -0.00054331, -0.00257309, 0.00055433, 0.00055433, 0.00055433
5007, 1,0.00181804, -0.00142545, 0.000961386, 4.51975, -90.7423, 0.0188946, 1.47828, 265.527, 0.518161, 0.00101268, 0.00229861, 0.004455, 5.21591, 135.364, 0, 0.0010166, 0.00135554, 0.00259275, 5.40937, 76.1473, 0, 0.00101757, -51.1, -167.347, -187.645, -38.7589, -104.297, -85.3857, 0.00106469, -0.000891294, -0.00236899, 0.000382144, 0.000382144, 0.000382144
5008, 1,0.00194899, -0.00171653, 0.00115586, 6.40117, -108.079, 0.0110542, -5.75177, 249.68, 0.277584, 0.000979059, 0.00252333, 0.00494768, 7.11013, 149.259, 0, 0.000981385, 0.00139142, 0.00269774, 6.63834, 78.8644, 0, 0.000982506, -46.6247, -205.81, -195.343, -27.3628, -130.055, -79.1755, 0.00133418, -0.00168878, -0.0020677, 0.000627033, 0.000627033, 0.000627033
5009, 1,0.00153466, -0.000835724, 0.000563823, 3.719, -55.1639, 0.0272601, -10.0657, 266.735, 0.835437, 0.00108009, 0.00177907, 0.00347746, 3.21863, 105.087, 0, 0.00108703, 0.00130274, 0.00242806, 4.549, 69.0437, 0, 0.00108766, -35.9426, -132.616, -146.704, -29.0432, -91.4638, -86.6242, 0.000921809, -0.000273416, -0.00235129, 0.000486075, 0.000486075, 0.000486075
5010, 1,0.00155528, -0.00107971, 0.00072659, 2.46627, -69.5142, 0.0213659, -2.18595, 274.437, 0.59296, 0.00104661, 0.00191689, 0.00369918, 2.32613, 113.962, 0, 0.00105165, 0.00120256, 0.00228124, 3.3964, 68.8429, 0, 0.00105242, -33.8781, -150.91, -157.098, -26.5776, -101.497, -78.4537, 0.00111142, -0.000752278, -0.00220676, 0.000542927, 0.000542927, 0.000542927
5011, 1,0.00161537, -0.0013196, 0.000890671, 7.77496, -83.8822, 0.0142555, 2.27828, 260.1, 0.364039, 0.00101317, 0.00203577, 0.00400331, 8.15977, 120.241, 0, 0.00101656, 0.00122112, 0.00232203, 7.60237, 65.4477, 0, 0.00101747, -48.1768, -154.694, -157.852, -36.5407, -93.8197, -65.9828, 0.000886957, -0.000961117, -0.00187616, 0.000260719, 0.000260719, 0.000260719
5012, 1,0.00172005, -0.0015778, 0.00105933, 1.81375, -99.3788, 0.00705972, 8.48195, 234.599, 0.120048, 0.000979003, 0.00223129, 0.00439775, 1.56975, 136.269, 0, 0.000980834, 0.00121849, 0.00233532, 2.23412, 71.1253, 0, 0.000981872, -42.4917, -185.69, -180.626, -24.7755, -112.293, -76.3074, 0.00122479, -0.00155704, -0.00187929, 0.000569133, 0.000569133, 0.000569133
5013, 1,0.00135608, -0.000743498, 0.000502402, -3.217, -48.9474, 0.0204943, -5.00226, 260.78, 0.603045, 0.00108148, 0.00157342, 0.00308131, -2.77129, 99.452, 0, 0.00108665, 0.00114655, 0.00214924, -3.51553, 67.2862, 0, 0.00108721, -42.842, -122.254, -133.26, -37.2726, -82.9324, -81.6535, 0.000701178, -0.000332474, -0.00198045, 0.000301126, 0.000301126, 0.000301126
5014, 1,0.00139468, -0.000979081, 0.000660402, 2.61141, -62.9315, 0.0153367, -0.378465, 259.165, 0.410268, 0.00104743, 0.00169625, 0.00332014, 2.19027, 102.87, 0, 0.0010514, 0.00110771, 0.00207511, 3.42945, 61.8115, 0, 0.0010521, -34.8677, -132.023, -141.719, -28.6357, -84.9441, -71.8546, 0.000924493, -0.000673214, -0.00191908, 0.000399564, 0.000399564, 0.000399564
5015, 1,0.00151025, -0.00121555, 0.000820374, 5.20457, -77.0577, 0.00915638, -0.403096, 245.052, 0.203299, 0.00101334, 0.00190709, 0.00366247, 5.20727, 110.414, 0, 0.00101607, 0.00114187, 0.00211192, 7.23741, 60.0341, 0, 0.0010169, -45.0508, -147.623, -138.567, -34.8825, -89.3787, -55.841, 0.000807923, -0.00108189, -0.00151697, 0.000222062, 0.000222062, 0.000222062
5016, 1,0.0015963, -0.00147019, 0.000991539, 6.86901, -92.2664, 0.00477891, 67.3949, 188.66, 0.0118282, 0.000979227, 0.00208253, 0.00398658, 7.39545, 118.188, 0, 0.000980368, 0.00113616, 0.00208868, 7.90927, 57.9802, 0, 0.000981326, -42.1131, -171.581, -140.869, -25.5378, -101.713, -46.6895, 0.000953665, -0.00162277, -0.00124909, 0.000353079, 0.000353079, 0.000353079
5017, 1,0.00127804, -0.000656593, 0.000443361, 5.50733, -42.9341, 0.0145678, -3.65427, 248.793, 0.409516, 0.00108218, 0.001476, 0.00286234, 5.94354, 84.1155, 0, 0.00108637, 0.00108606, 0.0020295, 5.31842, 56.0404, 0, 0.00108687, -29.0664, -112.248, -111.032, -24.7345, -76.6341, -66.7527, 0.000757162, -0.000526494, -0.00159377, 0.000397685, 0.000397685, 0.000397685
5018, 1,0.00130833, -0.000887009, 0.000600879, 7.6964, -56.6676, 0.00997069, 8.06012, 237.536, 0.229674, 0.00104794, 0.00157584, 0.00302565, 7.75755, 90.3708, -2.71051E-20, 0.00105104, 0.00104945, 0.00191744, 7.75463, 53.4477, -2.71051E-20, 0.00105167, -36.4521, -116.104, -118.556, -31.4542, -72.4351, -56.4538, 0.000700213, -0.000686619, -0.00147875, 0.000216619, 0.000216619, 0.000216619
5019, 1,0.00132043, -0.00111041, 0.000748882, 2.25818, -70.1956, 0.00592234, 33.4392, 212.413, 0.0670513, 0.00101363, 0.00167583, 0.00325452, 1.91532, 98.8897, 0, 0.00101564, 0.000995282, 0.00184855, 4.72037, 52.8842, 0, 0.0010164, -38.8621, -133.617, -124.19, -30.1239, -78.3277, -50.2009, 0.000766492, -0.00107456, -0.00129594, 0.000221212, 0.000221212, 0.000221212
5020, 1,0.00142965, -0.00135421, 0.000913497, 3.52653, -84.9092, 0.00424005, 97.6169, 135.246, 0, 0.000979394, 0.00186705, 0.00357459, 3.31644, 107.577, 0, 0.000979834, 0.00102546, 0.00184797, 5.64039, 52.0951, 0, 0.000980717, -40.0005, -159.218, -123.512, -24.9272, -92.5735, -38.7844, 0.000831598, -0.00157587, -0.00100176, 0.000274422, 0.000274422, 0.000274422
5021, 1,0.00103249, -0.000567735, 0.00038344, -1.25395, -36.7769, 0.00917477, 4.35749, 236.781, 0.205479, 0.00108263, 0.00121688, 0.00244707, -1.23054, 78.8473, 0, 0.00108595, 0.000867049, 0.0017266, -0.55246, 54.9165, 0, 0.00108637, -32.0046, -108.25, -96.2871, -29.0655, -75.6584, -60.0257, 0.000620291, -0.000693976, -0.00120411, 0.000298762, 0.000298762, 0.000298762
5022, 1,0.00116452, -0.000790565, 0.0005362, 3.1717, -50.2415, 0.00650838, 37.7455, 213.129, 0.083989, 0.00104833, 0.00139513, 0.00271304, 2.50091, 84.0328, 0, 0.00105071, 0.000947155, 0.00174026, 4.37426, 51.3117, 0, 0.00105127, -31.828, -109.945, -110.326, -28.3894, -69.6591, -55.8866, 0.000703898, -0.00077514, -0.00129115, 0.000255566, 0.000255566, 0.000255566
5023, 1,0.00117705, -0.00101238, 0.000685721, 0.806403, -63.763, 0.00444518, 91.1587, 156.383, 0, 0.00101394, 0.00147462, 0.00289855, -0.959804, 90.3112, 0, 0.00101502, 0.000919904, 0.0016771, 4.51901, 48.6626, 0, 0.00101571, -40.583, -125.831, -104.52, -33.1492, -73.9903, -38.8483, 0.000597432, -0.00111453, -0.000947761, 9.44222E-05, 9.44222E-05, 9.44222E-05
5024, 1,0.0012894, -0.00124495, 0.000840795, 5.22413, -77.9338, 0.00360836, 112.88, 74.4098, 0, 0.000979683, 0.00168675, 0.0031977, 4.93644, 94.2389, 0, 0.000979368, 0.000930274, 0.00162923, 7.62834, 43.3694, 0, 0.000980177, -34.3734, -145.016, -103.327, -20.6605, -82.2451, -27.2027, 0.000742523, -0.00152736, -0.000744788, 0.000229727, 0.000229727, 0.000229727
5025, 1,0.00100848, -0.00046899, 0.000318208, 2.44998, -30.2573, 0.00587962, 10.6697, 230.11, 0.0770576, 0.00108257, 0.00114075, 0.00222921, 2.28952, 68.8785, 0, 0.00108559, 0.00088079, 0.00165415, 2.84156, 49.1445, 0, 0.00108593, -27.5824, -91.9969, -87.0563, -26.0447, -63.7693, -57.6194, 0.000561228, -0.000619696, -0.00105771, 0.000277573, 0.000277573, 0.000277573
5026, 1,0.000967508, -0.000696391, 0.000475151, -0.728942, -44.0252, 0.00425151, 65.826, 178.571, 0, 0.00104847, 0.00115876, 0.00231642, -1.71438, 73.9811, 0, 0.00105025, 0.000800727, 0.00150159, 1.80942, 45.4873, 0, 0.00105074, -33.2501, -98.6616, -90.0317, -31.3784, -61.8452, -43.2382, 0.000517761, -0.00076669, -0.000950429, 0.000104138, 0.000104138, 0.000104138
5027, 1,0.00112251, -0.000912697, 0.000619694, 6.34869, -57.3494, 0.00376276, 92.2291, 111.559, 0, 0.00101393, 0.00139216, 0.00262989, 4.98491, 76.554, 0, 0.0010145, 0.000899475, 0.00154643, 10.414, 39.2519, 0, 0.00101512, -32.9158, -112.913, -83.8337, -27.0419, -65.204, -25.5099, 0.000542509, -0.0010908, -0.000693365, 7.56463E-05, 7.56463E-05, 7.56463E-05
5028, 1,0.00113218, -0.00113546, 0.000767929, 3.90455, -71.0021, 0.00285644, 102.005, 41.2367, 0, 0.000979475, 0.00148839, 0.00282498, 3.46079, 84.2212, 0, 0.000978792, 0.000821839, 0.00141971, 6.80513, 37.9066, 0, 0.000979527, -33.344, -131.82, -87.4998, -20.9935, -73.1501, -19.5763, 0.000607427, -0.0014332, -0.000541329, 0.000137966, 0.000137966, 0.000137966
5029, 1,0.000857959, -0.000375576, 0.00025665, 0.0387832, -24.1235, 0.00399925, 15.2184, 216.834, 0.0097806, 0.0010825, 0.000965424, 0.00190448, 0.174186, 61.1816, 0, 0.00108526, 0.000755517, 0.001454, 0.00138792, 45.6565, 0, 0.00108553, -27.5502, -82.9076, -73.087, -27.579, -58.7046, -50.6858, 0.000439092, -0.000603884, -0.000826564, 0.000189378, 0.000189378, 0.000189378
5030, 1,0.000915111, -0.000606981, 0.000417013, 2.91027, -38.1401, 0.00332155, 35.6712, 159.655, 0, 0.00104824, 0.00108219, 0.00209021, 1.65882, 62.9697, 0, 0.00104989, 0.000785974, 0.00141105, 6.52838, 38.72, 0, 0.0010503, -27.9401, -92.2473, -68.7217, -27.5515, -59.9214, -28.687, 0.000453949, -0.000832801, -0.000641878, 7.62817E-05, 7.62817E-05, 7.62817E-05
5031, 1,0.000986665, -0.000811063, 0.000552573, 5.38984, -50.8713, 0.00293524, 71.9091, 86.2978, 0, 0.0010137, 0.0012157, 0.00229166, 3.87629, 67.1567, 0, 0.00101402, 0.000814298, 0.00137107, 10.2231, 34.19, 0, 0.00101456, -32.1211, -100.636, -68.7131, -27.7383, -57.0434, -17.7882, 0.000410164, -0.00100253, -0.000496844, -1.9376E-05, -1.9376E-05, -1.9376E-05
5032, 1,0.000999452, -0.00102882, 0.0006971, 4.9827, -64.2486, 0.0021632, 84.263, 21.0704, 0, 0.000979146, 0.00131321, 0.00247471, 4.28906, 72.5586, 0, 0.000978328, 0.000740998, 0.00123482, 8.58293, 30.7447, 0, 0.000978992, -29.0662, -118.49, -70.12, -18.0858, -64.1849, -9.96331, 0.000514878, -0.00135139, -0.000341372, 8.77227E-05, 8.77227E-05, 8.77227E-05
5033, 1,0.000748877, -0.000285632, 0.000198069, 1.12577, -18.2132, 0.00325652, 3.31282, 201.411, 0, 0.00108224, 0.000829203, 0.00164138, 1.44918, 50.1246, 0, 0.0010849, 0.000684694, 0.00132139, 2.23843, 38.8356, 0, 0.0010851, -19.5157, -73.6023, -57.2559, -21.078, -53.9229, -41.5059, 0.000430975, -0.00060751, -0.00063547, 0.000216057, 0.000216057, 0.000216057
5034, 1,0.000814032, -0.00051229, 0.000355556, 3.67804, -32.0121, 0.00271995, 27.4078, 132.599, 0, 0.001048, 0.000941026, 0.00179632, 2.1842, 53.5039, 0, 0.00104934, 0.000731961, 0.00127442, 7.93579, 33.5137, 0, 0.00104968, -26.189, -80.6403, -53.6824, -27.3266, -52.7326, -20.4818, 0.000338609, -0.000759688, -0.000446103, -3.79471E-06, -3.79471E-06, -3.79471E-06
5035, 1,0.000877894, -0.000711088, 0.000486434, 6.30478, -44.4817, 0.00230844, 57.2043, 66.3239, 0, 0.00101334, 0.00105957, 0.00197018, 4.07985, 56.8349, 0, 0.0010135, 0.00076179, 0.0012202, 12.2366, 28.1928, 0, 0.00101397, -29.242, -88.1422, -53.1205, -26.3459, -48.8804, -9.35214, 0.000307289, -0.000921073, -0.000307965, -8.50442E-05, -8.50442E-05, -8.50442E-05
5036, 1,0.000873886, -0.000922793, 0.000626587, 5.41805, -57.541, 0.00187656, 82.8238, 5.32449, 0, 0.000978684, 0.00114379, 0.00213013, 4.35207, 61.855, 0, 0.000977786, 0.00067232, 0.00106222, 10.033, 24.5034, 0, 0.000978379, -26.2605, -105.078, -54.2267, -16.6833, -55.2546, -1.57232, 0.000405508, -0.00124959, -0.000160143, 1.93713E-05, 1.93713E-05, 1.93713E-05
5037, 1,0.000636234, -0.000201766, 0.000146468, 0.851604, -12.5723, 0.00279594, 1.38529, 175.765, 0, 0.00108223, 0.000683637, 0.0013478, 1.00757, 41.3592, 0, 0.00108459, 0.00060606, 0.00116395, 2.00849, 34.3258, 0, 0.00108471, -16.9918, -62.935, -44.151, -20.1471, -47.8032, -35.0271, 0.0003424, -0.000542791, -0.000469454, 0.000161318, 0.000161318, 0.000161318
5038, 1,0.000722711, -0.000419617, 0.00029552, 5.26016, -25.9751, 0.00220078, 19.4516, 110.363, 0, 0.00104775, 0.00080637, 0.00150271, 3.16182, 43.3973, 0, 0.00104889, 0.00068667, 0.00113766, 10.1163, 27.6815, 0, 0.00104915, -22.574, -68.0688, -39.5491, -25.2858, -44.7324, -13.0264, 0.000253212, -0.000674626, -0.000281822, -5.46702E-05, -5.46702E-05, -5.46702E-05
5039, 1,0.000779006, -0.000611586, 0.000420468, 7.5859, -38.1166, 0.00191422, 53.5465, 46.4872, 0, 0.00101305, 0.000911505, 0.00165782, 4.57923, 46.6614, 0, 0.00101305, 0.000721435, 0.00108391, 14.7443, 22.344, 0, 0.00101345, -26.5373, -74.8467, -38.6001, -25.1531, -40.1159, -1.76299, 0.000203194, -0.000818914, -0.000140977, -0.000152487, -0.000152487, -0.000152487
5040, 1,0.000762637, -0.000817547, 0.00055652, 6.62969, -50.8747, 0.00201453, 103.286, -12.37, 0, 0.000978337, 0.000985002, 0.00179553, 4.99542, 50.7093, 0, 0.000977336, 0.000626126, 0.000910654, 12.7123, 17.7893, 0, 0.000977858, -22.773, -90.5962, -38.7586, -14.6199, -45.3967, 6.64873, 0.000303338, -0.00113402, 7.28675E-06, -4.27077E-05, -4.27077E-05, -4.27077E-05
5041, 1,0.000530451, -0.000137325, 0.000114824, 1.29203, -7.79626, 0.00235323, 0.755593, 148.995, 0, 0.00108222, 0.000541872, 0.00105551, 1.31422, 31.9613, 0, 0.00108428, 0.000536563, 0.00101194, 2.57968, 29.2085, 0, 0.00108433, -13.8305, -50.8901, -31.1632, -18.6299, -40.4634, -28.5321, 0.000257967, -0.000459088, -0.000316299, 0.000110061, 0.000110061, 0.000110061
5042, 1,0.000626747, -0.000331562, 0.000239682, 6.43017, -20.1483, 0.00181066, 18.6433, 86.882, 0, 0.00104749, 0.000664489, 0.0012045, 3.74037, 33.6819, 0, 0.00104839, 0.000639167, 0.0010019, 11.9618, 22.2594, 0, 0.00104859, -19.6739, -55.2471, -26.1246, -23.9849, -36.6086, -6.18467, 0.000159173, -0.000577341, -0.00012747, -0.000114395, -0.000114395, -0.000114395
5043, 1,0.00069305, -0.000513515, 0.000355255, 9.66793, -31.8197, 0.00175464, 61.6513, 26.1936, 0, 0.00101272, 0.000772729, 0.00135417, 5.68637, 36.2475, 0, 0.00101255, 0.000696288, 0.00096231, 18.1957, 16.2552, 0, 0.00101288, -23.3066, -60.9436, -24.4922, -23.4541, -30.9021, 5.5905, 0.000106275, -0.000707205, 1.3183E-05, -0.000213193, -0.000213193, -0.000213193
5044, 1,0.000669167, -0.00071302, 0.000486824, 8.34304, -44.2497, 0.0024557, 139.145, -31.3334, 0, 0.000977946, 0.000838749, 0.00147591, 5.87907, 39.8708, 0, 0.000976816, 0.000607778, 0.000789079, 16.4851, 11.3546, 0, 0.000977268, -19.4771, -75.8349, -24.3003, -12.7751, -35.3966, 14.1079, 0.000201886, -0.00100861, 0.000159167, -0.000105091, -0.000105091, -0.000105091
5045, 1,0.000422249, 0.000131597, 0.000120735, 1.62714, 6.61853, 0.00194169, 0.724561, 122.902, 0, 0.00108206, 0.000396722, 0.000760757, 1.71867, 22.626, 0, 0.00108383, 0.00046633, 0.000859548, 3.02577, 24.1812, 0, 0.0010838, -10.8207, -38.5166, -18.5409, -17.3239, -32.8976, -22.3221, 0.000171336, -0.00036695, -0.000170402, 5.57809E-05, 5.57809E-05, 5.57809E-05
5046, 1,0.000544269, -0.000252721, 0.000192728, 8.41853, -14.7471, 0.00153308, 23.4514, 63.2296, 0, 0.00104718, 0.000532594, 0.000915679, 4.99477, 23.8546, 0, 0.00104785, 0.000604793, 0.000879066, 14.5579, 16.7463, 0, 0.00104797, -16.5823, -42.0382, -12.9434, -22.5286, -28.215, 0.504859, 6.74146E-05, -0.000473435, 1.97938E-05, -0.000172277, -0.000172277, -0.000172277
5047, 1,0.000627196, -0.000417912, 0.000291635, 12.686, -25.6379, 0.00187068, 83.97, 4.84158, 0, 0.00101237, 0.000647777, 0.00106541, 7.37515, 25.9798, 0, 0.00101202, 0.000692897, 0.000863838, 22.6798, 10.3166, 0, 0.00101228, -20.1584, -46.88, -10.9011, -21.8612, -21.6465, 12.5579, 9.80741E-06, -0.00058995, 0.000158971, -0.000273905, -0.000273905, -0.000273905
5048, 1,0.000605976, -0.000609631, 0.000417842, 11.408, -37.6866, 0.00314081, 187.207, -51.4536, 0, 0.000977553, 0.00071314, 0.0011784, 7.5869, 29.0499, 0, 0.000976276, 0.000631224, 0.000710418, 22.3909, 4.91221, 0, 0.000976659, -15.974, -60.914, -10.2616, -10.7496, -25.339, 21.352, 0.000105015, -0.000880036, 0.000303021, -0.000163863, -0.000163863, -0.000163863
5049, 1,0.00031884, 0.000204872, 0.000160091, 2.36073, 11.6884, 0.00154958, 1.20441, 97.1954, 0, 0.00108202, 0.000256758, 0.000471302, 2.81804, 13.1963, 0, 0.00108349, 0.000400461, 0.000711247, 3.75454, 19.0897, 0, 0.00108339, -7.62228, -25.8714, -6.09532, -15.8966, -25.1399, -16.2327, 8.70657E-05, -0.000270218, -2.99268E-05, 2.92433E-06, 2.92433E-06, 2.92433E-06
5050, 1,0.000487097, -0.000191586, 0.000163568, 11.8097, -10.1769, 0.00139593, 35.2904, 39.3221, 0, 0.00104701, 0.000423419, 0.000649467, 7.61285, 14.0293, 0, 0.00104744, 0.000589843, 0.000775817, 18.1473, 11.2584, 0, 0.00104749, -13.419, -28.6728, 0.00402979, -21.0424, -19.7458, 7.01296, -2.29819E-05, -0.000366026, 0.00016216, -0.000229318, -0.000229318, -0.000229318
5051, 1,0.000601118, -0.000326831, 0.000231393, 17.8448, -19.6701, 0.00229539, 121.512, -17.144, 0, 0.00101211, 0.000555729, 0.000809478, 10.7891, 15.6941, 0, 0.00101157, 0.000722733, 0.000798716, 28.9014, 4.36593, 0, 0.00101176, -16.862, -32.6777, 2.45721, -20.1494, -12.3408, 19.3924, -8.3978E-05, -0.000470231, 0.000299903, -0.000332477, -0.000332477, -0.000332477
5052, 1,0.000594065, -0.000507509, 0.000349654, 16.9577, -31.1915, 0.00397702, 242.7, -72.2943, 0, 0.000977233, 0.000623121, 0.000917387, 10.7747, 18.3255, 0, 0.000975797, 0.000708632, 0.000686258, 31.1119, -1.455, 0, 0.00097611, -12.4031, -45.957, 3.38374, -8.69178, -15.3019, 28.3587, 1.10461E-05, -0.000749674, 0.000440616, -0.000220824, -0.000220824, -0.000220824
5053, 1,0.000228597, 0.000294573, 0.000215395, 4.02982, 17.5932, 0.00118095, 2.76922, 71.2971, 0, 0.00108181, 0.00015148, 0.000217351, 6.80942, 3.7154, 0, 0.001083, 0.000341685, 0.000569928, 4.87415, 13.9826, 0, 0.00108282, -4.29129, -13.0685, 6.2136, -14.4126, -17.275, -10.2602, 4.66107E-06, -0.000170905, 0.00010693, -4.90968E-05, -4.90968E-05, -4.90968E-05
5054, 1,0.000482046, 0.000167118, 0.000162551, 18.1182, 8.4108, 0.00148697, 58.5143, 15.1469, 0, 0.00104677, 0.000382538, 0.000450936, 14.3575, 4.13481, 0, 0.00104695, 0.000604409, 0.000701626, 23.2876, 5.72805, 0, 0.00104693, -10.0687, -15.1753, 12.8396, -19.4186, -11.1948, 13.4292, -0.00011068, -0.000256895, 0.000301224, -0.000284288, -0.000284288, -0.000284288
5055, 1,0.00064233, -0.000244716, 0.000179357, 26.6725, -14.132, 0.00298177, 171.418, -39.439, 0, 0.00101179, 0.000536502, 0.000626052, 18.2784, 5.39538, 0, 0.00101106, 0.000794775, 0.000775547, 37.2875, -1.5891, 0, 0.00101117, -13.4431, -18.4285, 15.6855, -18.3501, -3.03816, 26.1555, -0.000175555, -0.000349766, 0.000438089, -0.000389456, -0.000389456, -0.000389456
5056, 1,0.000667545, -0.000407154, 0.000282624, 27.208, -24.7909, 0.00488064, 301.31, -93.2732, 0, 0.000976882, 0.00060617, 0.000729675, 17.6358, 7.58105, 0, 0.000975284, 0.000845561, 0.000721455, 42.9847, -7.86126, 0, 0.000975529, -8.64115, -30.9898, 16.8878, -6.4832, -5.27779, 35.3448, -7.92638E-05, -0.000619407, 0.000574971, -0.000275294, -0.000275294, -0.000275294
5057, 1,0.000197015, 0.000391469, 0.000277465, 9.24833, 23.8711, 0.000863408, 7.36589, 44.6499, 0, 0.00108169, 0.000327236, 0.000243551, 23.1105, -5.84328, 0, 0.00108258, 0.000297985, 0.0004434, 6.83586, 8.83434, 0, 0.00108232, -0.760986, -0.174811, 18.4656, -12.8107, -9.33725, -4.35511, -7.48874E-05, -7.10982E-05, 0.000241697, -9.93929E-05, -9.93929E-05, -9.93929E-05
5058, 1,0.000569196, 0.000227989, 0.000190047, 29.2172, 12.9787, 0.00191604, 98.1825, -9.32193, 0, 0.0010466, 0.000520415, 0.000430853, 30.4647, -5.7846, 0, 0.00104654, 0.000658709, 0.000667339, 30.4349, 0.202421, 0, 0.00104644, -6.64821, -1.64371, 25.6457, -17.7802, -2.62953, 19.8025, -0.00019741, -0.000147555, 0.000439511, -0.000338999, -0.000338999, -0.000338999
5059, 1,0.000777035, -0.000180795, 0.000146703, 40.3957, -9.47191, 0.00383583, 228.898, -61.7081, 0, 0.00101154, 0.000661968, 0.000586562, 33.8037, -4.98082, 0, 0.00101061, 0.00091258, 0.000797186, 47.9741, -7.61032, 0, 0.00101065, -9.76935, -4.15945, 28.8713, -16.3368, 6.26779, 32.9, -0.000263122, -0.000229925, 0.000574142, -0.000443133, -0.000443133, -0.000443133
5060, 1,0.0008484, -0.000309678, 0.000217608, 43.3018, -18.5442, 0.00578679, 359.397, -113.542, 0, 0.000976596, 0.000723551, 0.00067574, 32.0147, -3.1035, 0, 0.000974847, 0.0010347, 0.000808013, 57.4012, -14.2245, 0, 0.000975023, -4.8424, -16.1456, 30.2985, -4.28678, 4.64332, 42.3169, -0.000167981, -0.000490079, 0.0007077, -0.000329499, -0.000329499, -0.000329499
5061, 1,0.000357, 0.000492094, 0.000342862, 23.2053, 30.349, 0.000696251, 20.3594, 17.0581, 0, 0.00108149, 0.000744365, 0.000509054, 49.1405, -15.4621, 0, 0.00108206, 0.000287391, 0.000350049, 10.587, 3.66682, 0, 0.00108172, 2.96649, 12.6932, 30.7267, -11.1019, -1.41716, 1.5186, -0.000151202, 2.67721E-05, 0.000376138, -0.00014771, -0.00014771, -0.00014771
5062, 1,0.000765634, 0.000308296, 0.000236222, 45.4163, 18.4879, 0.00267965, 153.908, -34.5, 0, 0.00104635, 0.000857277, 0.000608782, 55.0105, -15.8159, 0, 0.00104603, 0.000757801, 0.000676731, 39.8249, -5.40264, 0, 0.00104585, -2.92423, 11.8752, 38.4967, -15.9038, 5.94195, 26.1698, -0.000279573, -4.0459E-05, 0.000577286, -0.000390009, -0.000390009, -0.000390009
5063, 1,0.00100523, -0.000146917, 0.000145969, 58.2972, 7.61226, 0.00479571, 290.524, -83.1431, 0, 0.00101121, 0.000958055, 0.000717664, 57.2124, -15.1434, 0, 0.00101009, 0.00107422, 0.000864422, 60.5384, -13.4038, 0, 0.00101006, -6.5563, 9.98039, 42.006, -14.8304, 15.451, 39.5906, -0.000357275, -0.000109282, 0.000712507, -0.000504171, -0.000504171, -0.000504171
5064, 1,0.00111529, -0.000217887, 0.000157135, 63.7822, -12.6, 0.00662617, 412.488, -131.471, 0, 0.000976205, 0.000997937, 0.000780516, 55.049, -14.0508, 0, 0.000974347, 0.00125732, 0.000928865, 73.5523, -20.8659, 0, 0.000974455, -0.306505, -1.2138, 43.6727, -1.40258, 14.696, 49.3043, -0.000245465, -0.000361462, 0.00083417, -0.000373812, -0.000373812, -0.000373812
5065, 1,0.000658638, 0.000595091, 0.000410235, 42.8791, 36.9603, 0.00111947, 62.8389, -11.8287, 0, 0.00108136, 0.00119368, 0.000804188, 77.2054, -25.102, 0, 0.00108159, 0.000339203, 0.00032008, 17.5054, -1.47716, 0, 0.00108118, 6.75968, 25.4619, 43.0843, -9.42653, 6.44444, 7.41358, -0.000226519, 0.000121711, 0.000512852, -0.000196406, -0.000196406, -0.000196406
5066, 1,0.00103997, 0.000399109, 0.000292291, 64.8862, 24.5087, 0.00368819, 220.863, -59.7346, 0, 0.00104615, 0.00127822, 0.000872137, 82.8167, -25.9607, 0, 0.00104558, 0.000899559, 0.000730141, 51.2231, -11.0854, 0, 0.00104532, 1.13378, 25.2444, 51.504, -13.7565, 14.3839, 32.6288, -0.000356657, 6.14207E-05, 0.000717036, -0.000436713, -0.000436713, -0.000436713
5067, 1,0.00129667, 0.000209838, 0.000176389, 78.9478, 12.3897, 0.00584022, 357.239, -106.236, 0, 0.00101098, 0.00135709, 0.000946282, 84.8144, -25.3855, 0, 0.00100966, 0.00126743, 0.000957013, 74.5947, -19.2609, 0, 0.00100956, -2.76248, 23.9462, 54.9727, -12.8213, 24.5546, 46.0493, -0.000440611, 6.3959E-06, 0.000846309, -0.000555807, -0.000555807, -0.000555807
5068, 1,0.0014563, -0.000141266, 0.000111279, 86.9189, -7.43905, 0.00746712, 449.475, -142.378, 0.00459241, 0.000975779, 0.00140168, 0.000999974, 83.2881, -24.4198, 0, 0.000973907, 0.00152267, 0.00108246, 91.0838, -26.9413, 0, 0.000973947, 1.8813, 13.8193, 57.5586, -0.932611, 24.9174, 56.8391, -0.000363727, -0.00022142, 0.000980611, -0.000460568, -0.000460568, -0.000460568
5069, 1,0.000996121, 0.000699521, 0.000478629, 64.3639, 43.6606, 0.00231376, 142.372, -42.5126, 0, 0.00108119, 0.00165344, 0.00110784, 106.133, -34.9108, 0, 0.00108106, 0.00046757, 0.000366898, 28.074, -6.74477, 0, 0.00108057, 11.0375, 37.94, 55.755, -7.37045, 14.0909, 13.5139, -0.000294456, 0.00020725, 0.000654325, -0.000239152, -0.000239152, -0.000239152
5070, 1,0.00135761, 0.000496679, 0.000354396, 85.5685, 30.8628, 0.00487857, 296.847, -85.8411, 0, 0.0010459, 0.00172934, 0.00116279, 111.309, -35.4194, 0, 0.00104505, 0.0010783, 0.000821348, 63.7279, -16.0439, 0, 0.00104472, 4.18957, 38.1669, 63.9016, -12.7072, 22.4784, 38.3607, -0.000444265, 0.000164138, 0.000855334, -0.000495375, -0.000495375, -0.000495375
5071, 1,0.00164894, 0.000291933, 0.00022414, 102.845, 17.9782, 0.00696261, 424.528, -125.256, 0, 0.00101064, 0.0018263, 0.00124306, 115.907, -36.744, 0, 0.00100919, 0.00150626, 0.00109597, 91.3695, -26.2142, 0, 0.00100902, 1.83064, 37.9454, 70.4559, -10.033, 33.7278, 54.9477, -0.000525396, 0.000104636, 0.00101711, -0.000609013, -0.000609013, -0.000609013
5072, 1,0.00179643, 0.000104842, 0.00010207, 111.795, 5.84005, 0.00884975, 457.485, -148.879, 0.0308427, 0.00097528, 0.00182923, 0.00125128, 114.18, -37.7294, 0, 0.000973481, 0.00177184, 0.00121826, 109.819, -35.9693, 0, 0.000973453, 10.4777, 30.4687, 72.2416, 5.85314, 36.8093, 65.2453, -0.000392578, -0.000102736, 0.00110671, -0.000459965, -0.000459965, -0.000459965
5073, 1,0.00133714, 0.00080526, 0.000547738, 86.052, 50.4473, 0.00389053, 241.98, -76.1295, 0, 0.00108113, 0.0021116, 0.0014146, 135.072, -44.6187, 0, 0.00108057, 0.000641802, 0.000463385, 40.5538, -11.863, 0, 0.00108, 16.0134, 49.8965, 67.9463, -4.73212, 21.3056, 19.0155, -0.000345844, 0.000281672, 0.000788723, -0.000266955, -0.000266955, -0.000266955
5074, 1,0.0017285, 0.000596216, 0.000418544, 110.154, 37.3304, 0.00635256, 387.542, -113.748, 0, 0.00104576, 0.00222718, 0.00149209, 143.485, -47.1391, 0, 0.00104463, 0.00130745, 0.000959791, 80.0615, -23.2246, 0, 0.00104422, 9.24794, 52.4814, 79.6878, -9.69438, 32.0594, 47.3087, -0.000525203, 0.000257601, 0.0010329, -0.000547535, -0.000547535, -0.000547535
5075, 1,0.00196967, 0.000385502, 0.000281502, 125.275, 24.1227, 0.00872339, 449.567, -134.189, 0.0274602, 0.00101024, 0.00226679, 0.00151236, 145.645, -48.483, 0, 0.0010088, 0.00170771, 0.00118889, 106.461, -33.5292, 0, 0.00100856, 9.43756, 52.7947, 83.2168, -4.37115, 43.7865, 61.1722, -0.000552512, 0.000206129, 0.00113316, -0.000607228, -0.000607228, -0.000607228
5076, 1,0.00227451, 0.00017185, 0.000136303, 139.353, 10.8004, 0.0112415, 459.215, -146.364, 0.0767892, 0.000974743, 0.00240205, 0.00164141, 147.959, -46.3567, 0, 0.000973059, 0.0021541, 0.00149035, 131.117, -40.3203, 0, 0.000972964, 10.4186, 41.4366, 87.215, 3.98701, 43.5515, 73.4225, -0.000530847, -4.15535E-05, 0.00132373, -0.00056859, -0.00056859, -0.00056859
5077, 1,0.00167103, 0.000911955, 0.000617541, 107.333, 57.3021, 0.00575923, 357.657, -112.693, 0, 0.00108105, 0.00255869, 0.00170625, 163.471, -54.4062, 0, 0.00108003, 0.000837277, 0.00057702, 53.6909, -17.015, 0, 0.00107938, 21.3889, 60.8567, 80.973, -1.84935, 27.6244, 25.2701, -0.000389559, 0.000330399, 0.000942426, -0.000289612, -0.000289612, -0.000289612
5078, 1,0.00212873, 0.000699753, 0.000485459, 134.877, 44.0369, 0.00886244, 450.531, -133.831, 0.0299903, 0.00104547, 0.00275447, 0.00184842, 175.862, -57.6089, 0, 0.00104414, 0.00156456, 0.00111314, 96.4706, -29.1074, 0, 0.00104365, 14.7685, 65.4586, 92.5997, -6.39145, 40.6408, 53.0729, -0.000575941, 0.000328083, 0.00118294, -0.000572238, -0.000572238, -0.000572238
5079, 1,0.00251384, 0.000481122, 0.000343619, 157.028, 30.4386, 0.0121256, 454.784, -136.658, 0.093778, 0.00100973, 0.00292064, 0.00196448, 184.273, -59.6221, 0, 0.00100834, 0.00213787, 0.00147434, 131.16, -40.2053, 0, 0.00100802, 11.6997, 64.8417, 102.325, -4.08849, 51.8154, 72.889, -0.000682819, 0.000232785, 0.00141747, -0.000708522, -0.000708522, -0.000708522
5080, 1,0.0025666, 0.000252118, 0.000183862, 161.956, 16.3497, 0.0138144, 464.548, -152.565, 0.12728, 0.000974338, 0.00279011, 0.00188054, 176.886, -60.6491, -2.71051E-20, 0.000972702, 0.00234934, 0.00158494, 147.354, -50.3467, -2.71051E-20, 0.000972539, 22.1626, 54.149, 105.636, 13.7632, 51.3731, 85.9039, -0.000508407, -4.0284E-05, 0.00153187, -0.000519929, -0.000519929, -0.000519929
5081, 1,0.00216712, 0.00102057, 0.000688713, 134.375, 64.3262, 0.0092332, 452.638, -135.064, 0.0362661, 0.00108076, 0.00317005, 0.00214199, 197.725, -62.3971, 0, 0.00107944, 0.00119452, 0.000831486, 72.6728, -20.3036, 0, 0.0010787, 24.0715, 70.4334, 92.6864, -1.86895, 33.3516, 29.4283, -0.000458068, 0.000353407, 0.00111749, -0.00034029, -0.00034029, -0.00034029
5082, 1,0.00262282, 0.000800401, 0.000551109, 164.366, 50.7083, 0.0135934, 466.454, -153.574, 0.123381, 0.00104524, 0.00336519, 0.00226007, 212.712, -70.1834, 0, 0.00104364, 0.00192673, 0.00134346, 117.968, -37.0494, 0, 0.00104308, 21.9137, 76.8437, 111.793, -1.58336, 47.904, 64.8277, -0.000620422, 0.000294926, 0.00146452, -0.000592147, -0.000592147, -0.000592147
5083, 1,0.00278376, 0.000570284, 0.000400293, 174.652, 36.5496, 0.0174992, 466.512, -149.892, 0.198491, 0.00100946, 0.00329006, 0.00219756, 208.596, -70.6728, 0, 0.00100786, 0.00230704, 0.00158803, 141.996, -46.7835, 0, 0.00100747, 19.1213, 72.5976, 120.3, 1.46431, 54.3509, 84.5354, -0.000696735, 0.000132605, 0.00171079, -0.00069041, -0.00069041, -0.00069041
5084, 1,0.00320537, 0.00034225, 0.000241466, 198.571, 22.5755, 0.0244438, 467.603, -145.525, 0.329704, 0.000973941, 0.00352755, 0.00237453, 219.98, -73.201, 0, 0.000972281, 0.00288808, 0.00196278, 177.464, -58.6216, 0, 0.000972051, 26.4539, 68.9151, 124.234, 16.0278, 62.6279, 97.209, -0.000605646, -7.42554E-05, 0.00186668, -0.000590918, -0.000590918, -0.000590918
5085, 1,0.00265363, 0.00111878, 0.000752006, 166.443, 71.0832, 0.0180523, 480.866, -172.965, 0.21014, 0.00108111, 0.00376258, 0.00252961, 237.003, -80.4082, 0, 0.00107909, 0.00155887, 0.00108221, 96.7008, -33.5855, 0, 0.00107827, 39.5741, 85.2852, 116.365, 10.9358, 43.9427, 45.8781, -0.000403709, 0.000244022, 0.00146463, -0.000266635, -0.000266635, -0.000266635
5086, 1,0.00300134, 0.000897657, 0.000615102, 188.799, 57.4194, 0.022632, 478.523, -166.897, 0.299266, 0.0010452, 0.00384161, 0.00255385, 244.053, -86.0801, 0, 0.00104327, 0.00220627, 0.00149497, 135.386, -48.2781, 0, 0.00104263, 31.7536, 90.7197, 135.767, 5.87463, 57.0806, 81.879, -0.000645747, 0.00018343, 0.00185915, -0.000592647, -0.000592647, -0.000592647
5087, 1,0.00346505, 0.000669502, 0.000465013, 213.349, 43.5168, 0.0339953, 478.999, -158.475, 0.508985, 0.00100974, 0.00408568, 0.00273601, 254.625, -84.4703, 0, 0.0010075, 0.00286619, 0.001975, 173.168, -56.0471, 0, 0.00100703, 22.2313, 93.809, 137.371, 2.28453, 72.287, 93.5696, -0.00082235, 0.0001252, 0.00206756, -0.00079046, -0.00079046, -0.00079046
5088, 1,0.00374848, 0.000430489, 0.000299316, 222.989, 29.2102, 0.0482978, 492.111, -170.558, 0.759261, 0.000975304, 0.00416341, 0.00285308, 250.973, -76.6067, 0, 0.000971839, 0.00333763, 0.002329, 195.361, -57.7237, 0, 0.000971542, 22.9762, 78.6548, 128.189, 10.376, 69.022, 93.7732, -0.000728675, -0.000252947, 0.00222343, -0.000687677, -0.000687677, -0.000687677
5089, 1,0.00320345, 0.00122055, 0.000821305, 195.153, 78.0971, 0.0316761, 478.325, -159.243, 0.46652, 0.00108068, 0.00440644, 0.00302051, 272.605, -90.6478, 0, 0.00107849, 0.00202232, 0.00143951, 118.541, -39.057, 0, 0.00107759, 44.1736, 89.0373, 138.732, 12.4353, 44.5298, 60.2059, -0.000460574, -9.83198E-06, 0.00194138, -0.000311691, -0.000311691, -0.000311691
5090, 1,0.0035462, 0.000999306, 0.000682562, 212.036, 64.7074, 0.0434608, 493.106, -177.479, 0.681362, 0.00104593, 0.00449313, 0.00303292, 274.709, -89.6243, 0, 0.0010426, 0.00263684, 0.00184398, 151.017, -47.0696, 0, 0.00104188, 27.2165, 99.8406, 141.816, -1.29924, 62.8717, 79.6363, -0.000775132, 3.248E-05, 0.0021968, -0.000699478, -0.000699478, -0.000699478
5091, 1,0.00397877, 0.00076016, 0.000524276, 239.887, 50.3679, 0.0577686, 516.031, -203.409, 0.915232, 0.00101217, 0.00469661, 0.0032062, 288.343, -91.4128, 0, 0.00100686, 0.00327949, 0.00231774, 192.404, -58.4102, 0, 0.00100632, 25.8608, 100.959, 147.419, 3.62255, 76.0164, 95.5918, -0.000852957, -0.000145271, 0.00248103, -0.000792152, -0.000792152, -0.000792152
5092, 1,0.00387588, 0.000513844, 0.000354157, 239.307, 35.5246, 0.0669901, 594.271, -208.041, 1, 0.000977447, 0.00437611, 0.00296561, 273.864, -91.2079, 0, 0.000971446, 0.00337978, 0.00233694, 205.089, -68.0192, 0, 0.00097108, 40.291, 92.263, 141.07, 25.4307, 78.0407, 100.586, -0.000600631, -0.000418657, 0.00249787, -0.000533437, -0.000533437, -0.000533437
5093, 1,0.00394308, 0.00132969, 0.000896184, 233.143, 85.6971, 0.0521875, 500.634, -182.428, 0.824741, 0.00108214, 0.00524513, 0.00358458, 317.46, -99.4884, 0, 0.00107796, 0.00266786, 0.00189568, 150.3, -43.0308, 0, 0.00107697, 36.8659, 107.352, 154.247, 2.0013, 60.6044, 66.4867, -0.000765993, -1.65857E-05, 0.00239665, -0.000603054, -0.000603054, -0.000603054
5094, 1,0.00391896, 0.00110549, 0.0007514, 242.444, 72.1401, 0.0639092, 527.568, -202.319, 1, 0.0010481, 0.00498227, 0.00334526, 312.964, -105.713, 0, 0.00104213, 0.00288702, 0.00198857, 173.278, -58.4041, 0, 0.00104133, 44.0334, 119.112, 153.993, 12.6057, 78.8936, 83.7129, -0.000690134, -4.33919E-05, 0.00244852, -0.000596616, -0.000596616, -0.000596616
5095, 1,0.00399976, 0.00085812, 0.000587203, 249.291, 57.0576, 0.0688609, 643.377, -220.078, 1, 0.00101291, 0.00481554, 0.00323753, 304.96, -104.211, 0, 0.00100646, 0.00320506, 0.00223369, 194.461, -66.6026, 0, 0.00100584, 41.4676, 112.082, 159.083, 16.927, 82.0705, 100.81, -0.000736215, -0.000221548, 0.00264803, -0.000647972, -0.000647972, -0.000647972
5096, 1,0.00425771, 0.000610231, 0.000418814, 265.573, 41.8775, 0.0732148, 752.208, -245.682, 1, 0.000978339, 0.00485082, 0.00323749, 306.605, -105.847, 0, 0.00097122, 0.00367007, 0.0024996, 224.868, -78.275, 0, 0.000970786, 46.5643, 106.559, 164.417, 29.4199, 88.3585, 117.047, -0.000703449, -0.000416144, 0.00283527, -0.000613256, -0.000613256, -0.000613256
5097, 1,0.0040325, 0.00143753, 0.000967003, 251.633, 92.9143, 0.0655505, 545.97, -184.162, 1, 0.00108273, 0.00544193, 0.00369211, 343.189, -119.331, 0, 0.00107752, 0.00265211, 0.00188316, 161.789, -58.1247, 0, 0.00107645, 58.7517, 132.073, 167.17, 20.9847, 81.2485, 72.141, -0.000656412, 5.50768E-05, 0.00253711, -0.000477405, -0.000477405, -0.000477405
5098, 1,0.00412585, 0.00121735, 0.000825239, 256.41, 79.284, 0.0697811, 658.878, -215.662, 1, 0.00104766, 0.00529854, 0.00357006, 334.114, -111.961, 0, 0.00104129, 0.00298886, 0.00205128, 180.077, -59.7894, 0, 0.00104041, 47.9499, 122.841, 165.091, 13.4816, 79.0833, 86.8033, -0.00073777, -8.90425E-05, 0.00264303, -0.000630645, -0.000630645, -0.000630645
5099, 1,0.00449799, 0.000964381, 0.000657689, 277.206, 63.8493, 0.0737309, 770.246, -254.705, 1, 0.00101346, 0.00542301, 0.00366315, 340.036, -114.268, 0, 0.00100589, 0.0035925, 0.00251268, 214.997, -71.9819, 0, 0.0010052, 46.7801, 116.846, 179.177, 19.7204, 83.483, 112.742, -0.000804919, -0.000319118, 0.00297706, -0.000695402, -0.000695402, -0.000695402
5100, 1,0.00482561, 0.000710082, 0.000486487, 291.835, 48.4463, 0.0787402, 906.816, -297.799, 1, 0.000979639, 0.00551659, 0.00375513, 339.548, -111.067, 0, 0.000970734, 0.00414086, 0.0028927, 244.412, -79.0056, 0, 0.000970229, 48.4738, 102.75, 181.976, 28.8176, 81.7919, 126.407, -0.000774297, -0.000682459, 0.00325619, -0.00066479, -0.00066479, -0.00066479
5101, 1,0.00455769, 0.00154403, 0.00103931, 277.972, 99.6378, 0.0688379, 631.264, -207.008, 1, 0.00108293, 0.00606709, 0.00408007, 376.711, -127.355, 0, 0.00107696, 0.00308112, 0.00213935, 180.246, -61.2349, 0, 0.0010758, 57.3483, 130.053, 194.664, 15.8348, 76.7002, 91.1696, -0.00086707, -8.17069E-05, 0.00301473, -0.000689814, -0.000689814, -0.000689814
5102, 1,0.00456142, 0.00133223, 0.000901804, 280.939, 86.2947, 0.0738765, 770.989, -252.088, 1, 0.00104821, 0.00586156, 0.00395419, 366.047, -118.241, 0, 0.00104055, 0.00328684, 0.00226998, 196.844, -61.7247, 0, 0.00103959, 54.6438, 126.184, 173.894, 17.388, 80.3142, 87.4719, -0.000739693, -0.000134394, 0.00279201, -0.000622489, -0.000622489, -0.000622489
5103, 1,0.00506738, 0.00108644, 0.000739904, 309.835, 71.4358, 0.0784969, 898.885, -293.223, 1, 0.00101433, 0.00611386, 0.0041512, 380.082, -121.427, 0, 0.00100545, 0.00404084, 0.00282217, 240.277, -74.2949, 0, 0.00100468, 41.0455, 125.154, 198.081, 11.1569, 89.4946, 122.233, -0.00108615, -0.000284722, 0.00333964, -0.000958676, -0.000958676, -0.000958676
5104, 1,0.00517164, 0.000831547, 0.000565696, 319.565, 55.8699, 0.0841029, 1054.16, -343.888, 1, 0.000980704, 0.00598943, 0.0040723, 374.603, -122.092, 0, 0.000970319, 0.00435898, 0.00303215, 264.872, -85.2613, 0, 0.000969739, 60.4078, 113.514, 192.355, 37.8483, 90.0747, 127.861, -0.000750589, -0.000606396, 0.00333528, -0.000626189, -0.000626189, -0.000626189
5105, 1,0.0049753, 0.00165819, 0.00111715, 301.06, 106.499, 0.0713688, 701.574, -230.462, 1, 0.00108273, 0.00660191, 0.00450333, 407.121, -135.207, 0, 0.00107597, 0.00337794, 0.00236792, 195.483, -64.8287, 0, 0.00107474, 64.0304, 131.198, 210.393, 18.8829, 76.176, 99.427, -0.000926856, -0.000159393, 0.00327919, -0.000758486, -0.000758486, -0.000758486
5106, 1,0.00537674, 0.00147368, 0.00100105, 313.654, 92.539, 0.0779334, 880.689, -284.655, 1, 0.00104828, 0.00681301, 0.00469645, 404.76, -126.211, 0.0062512, 0.00103951, 0.0039664, 0.00281664, 223.688, -65.4219, 0.00492514, 0.00103848, 45.0123, 138.857, 194.763, 5.22669, 91.6572, 99.3818, -0.00123233, 4.32543E-05, 0.0032431, -0.00110099, -0.00110099, -0.00110099
5107, 1,0.00526565, 0.00122494, 0.000833057, 321.016, 79.6339, 0.0828204, 1017.66, -330.654, 1, 0.00101498, 0.00645308, 0.00440119, 399.583, -127.448, 0.00156068, 0.00100481, 0.00409913, 0.00288549, 243.142, -74.9267, 0.00156068, 0.00100395, 47.4941, 127.707, 207.143, 14.8732, 88.9212, 120.986, -0.00112831, -0.000250906, 0.00344785, -0.000977947, -0.000977947, -0.000977947
5108, 1,0.00548674, 0.000956091, 0.000648897, 344.519, 63.2427, 0.0883275, 1170.25, -381.31, 1, 0.000981134, 0.0064276, 0.00430173, 407.013, -138.247, 0, 0.000969666, 0.00455214, 0.00307984, 282.368, -96.3966, 0, 0.000969008, 66.9391, 127.379, 220.424, 41.5214, 100.946, 146.722, -0.000922295, -0.000457796, 0.00362114, -0.000780452, -0.000780452, -0.000780452
5109, 1,0.00604428, 0.00181999, 0.00123252, 334.79, 111.982, 0.0737542, 768.665, -253.356, 1, 0.00108254, 0.00784322, 0.00534644, 446.45, -139.262, 0.0104747, 0.00107496, 0.00426273, 0.00294017, 223.435, -65.0925, 0.00798281, 0.00107365, 76.1408, 116.714, 224.93, 26.3926, 62.91, 105.975, -0.000931461, -0.000503159, 0.0037066, -0.000789334, -0.000789334, -0.000789334
5110, 1,0.00624275, 0.00162748, 0.00111246, 327.269, 99.6142, 0.0811646, 971.298, -315.318, 1, 0.00104844, 0.00783579, 0.0054796, 426.064, -135.401, 0.0213062, 0.00103867, 0.00467194, 0.00337594, 229.183, -70.2287, 0.019502, 0.00103756, 56.0449, 134.805, 215.353, 15.1497, 85.7065, 109.83, -0.00143155, -9.647E-05, 0.00375043, -0.00129279, -0.00129279, -0.00129279
5111, 1,0.00620533, 0.00140272, 0.00095966, 322.046, 87.4693, 0.0871568, 1137.9, -370.505, 1, 0.00101539, 0.00756099, 0.00526155, 407.889, -127.179, 0.0222771, 0.00100377, 0.0048757, 0.00350281, 237.382, -70.4064, 0.0222771, 0.00100283, 41.4892, 136.465, 203.583, 8.9229, 95.1845, 107.112, -0.00163538, 7.10175E-05, 0.00365309, -0.00147437, -0.00147437, -0.00147437
5112, 1,0.0067425, 0.00109595, 0.000743528, 374.468, 71.31, 0.0921466, 1256.47, -409.859, 1, 0.000981183, 0.00782445, 0.00533012, 445.113, -145.373, 0, 0.000968811, 0.00566599, 0.00393104, 304.128, -97.9401, 0, 0.000968065, 72.3281, 112.508, 251.282, 43.6863, 85.1992, 164.935, -0.00115622, -0.000855738, 0.00436902, -0.0010023, -0.0010023, -0.0010023
5113, 1,0.00842994, 0.0020882, 0.00142864, 348.628, 114.997, 0.0759868, 831.537, -274.918, 1, 0.00108246, 0.0105064, 0.00732414, 463.245, -156.092, 0.0634875, 0.00107441, 0.00636109, 0.00455991, 234.39, -79.5478, 0.0548964, 0.00107302, 104.401, 129.979, 233.896, 51.3085, 77.3722, 109.963, -0.00110993, -0.000598395, 0.00433297, -0.000976454, -0.000976454, -0.000976454
5114, 1,0.00849068, 0.00183827, 0.00126234, 338.368, 108.341, 0.0847932, 1074.93, -352.74, 1, 0.00104899, 0.0103014, 0.0072197, 446.043, -139.284, 0.0657165, 0.00103793, 0.00669479, 0.00482993, 231.299, -69.098, 0.064351, 0.0010367, 78.0707, 126.109, 213.673, 32.7814, 76.0404, 98.4723, -0.00148302, -0.000340812, 0.00416891, -0.00137206, -0.00137206, -0.00137206
5115, 1,0.00917432, 0.00160383, 0.00111442, 334.905, 93.5077, 0.0918698, 1250.88, -406.948, 1, 0.00101582, 0.010676, 0.00748731, 427.006, -145.044, 0.0693616, 0.00100321, 0.00771263, 0.00553118, 243.917, -84.023, 0.0693616, 0.00100217, 50.9333, 138.795, 245.405, 20.5922, 95.4809, 135.996, -0.00278429, -0.000224462, 0.00545624, -0.00264088, -0.00264088, -0.00264088
5116, 1,0.00912599, 0.0012779, 0.000864074, 381.149, 80.3426, 0.0965163, 1331.39, -433.516, 1, 0.000980709, 0.0103789, 0.00720832, 460.643, -153.914, 0.0161419, 0.000967657, 0.0078808, 0.00557255, 302.095, -100.296, 0.0161419, 0.000966808, 82.779, 113.838, 265.124, 50.264, 85.3313, 165.292, -0.00172519, -0.00120857, 0.00545187, -0.0015799, -0.0015799, -0.0015799
5117, 1,0.0107819, 0.00248877, 0.00172784, 359.605, 116.41, 0.0776434, 891.396, -308.816, 1, 0.00108302, 0.0132651, 0.00939123, 475.853, -175.253, 0.119702, 0.00107408, 0.00830223, 0.00603748, 243.523, -95.9029, 0.0976664, 0.00107257, 135.891, 130.303, 259.565, 77.8113, 80.3365, 129.561, -0.00113411, -0.00138653, 0.00556583, -0.000925993, -0.000925993, -0.000925993
5118, 1,0.0128027, 0.00213887, 0.00148628, 356.361, 112.873, 0.0893154, 1203.83, -399.347, 1, 0.00104987, 0.0149234, 0.0104924, 469.026, -165.661, 0.156157, 0.00103764, 0.0106888, 0.00772254, 243.897, -91.0601, 0.149433, 0.00103626, 118.505, 126.721, 251.758, 67.8475, 77.9202, 127.413, -0.00168951, -0.00145677, 0.00608942, -0.00148678, -0.00148678, -0.00148678
5119, 1,0.0130089, 0.00180755, 0.00126339, 345.587, 102.291, 0.0974321, 1350.79, -448.46, 1, 0.00101586, 0.0147294, 0.0104361, 447.157, -157.525, 0.100581, 0.00100198, 0.0113147, 0.00814566, 244.662, -90.0721, 0.0995947, 0.00100082, 70.5338, 130.406, 271.636, 37.8604, 85.8735, 146.482, -0.0036205, -0.00131023, 0.00763745, -0.00338855, -0.00338855, -0.00338855
5120, 1,0.0115688, 0.00144125, 0.00097699, 368.133, 88.0875, 0.100398, 1379.31, -452.609, 1, 0.000980156, 0.0129661, 0.00915957, 455.416, -148.652, 0.0232238, 0.00096636, 0.0101828, 0.00730614, 281.335, -90.39, 0.0232238, 0.000965435, 71.0674, 98.807, 276.08, 38.3321, 70.445, 162.393, -0.00261805, -0.00194559, 0.00700481, -0.00242667, -0.00242667, -0.00242667
5121, 1,0.0136688, 0.00301561, 0.00213369, 351.212, 117.461, 0.079813, 946.974, -322.779, 1, 0.00108194, 0.0166842, 0.0120806, 468.539, -161.24, 0.187278, 0.00107232, 0.0106534, 0.00794046, 234.015, -79.8866, 0.147544, 0.0010707, 139.51, 88.9233, 255.286, 74.9205, 45.9223, 118.817, -0.00101083, -0.00324744, 0.00717497, -0.000706554, -0.000706554, -0.000706554
5122, 1,0.0163508, 0.00260085, 0.001837, 350.722, 115.111, 0.0933398, 1292.91, -435.073, 1, 0.00104833, 0.0189512, 0.0135768, 465.769, -157.689, 0.214551, 0.00103472, 0.0137505, 0.0101651, 235.737, -79.3398, 0.191999, 0.00103321, 122.797, 83.5274, 266.741, 66.7523, 41.4302, 129.837, -0.00193391, -0.00404286, 0.00887916, -0.0014629, -0.0014629, -0.0014629
5123, 1,0.0180183, 0.00205453, 0.00145629, 352.405, 111.996, 0.102508, 1410.59, -473.94, 1, 0.0010138, 0.0200142, 0.0143458, 464.163, -158.342, 0.136347, 0.000999082, 0.0160364, 0.0118203, 240.876, -85.0167, 0.133076, 0.000997794, 80.6257, 100.853, 293.548, 44.7568, 60.0789, 150.214, -0.0044816, -0.00365947, 0.0109188, -0.00405805, -0.00405805, -0.00405805
5124, 1,0.0165237, 0.00164809, 0.00111747, 375.822, 95.5762, 0.105046, 1432.9, -477.881, 1, 0.000978449, 0.0180779, 0.0129739, 470.732, -170.798, 0.0658391, 0.0009642, 0.0149877, 0.0109104, 281.379, -105.931, 0.0658391, 0.000963147, 88.5633, 100.574, 323.257, 54.0994, 73.1671, 190.526, -0.00402633, -0.00373624, 0.0106352, -0.00381464, -0.00381464, -0.00381464
5125, 1,0.0192212, 0.00361246, 0.00256462, 360.217, 118.26, 0.0835333, 1061.81, -372.312, 1, 0.00108196, 0.0228297, 0.0167557, 478.348, -175.602, 0.309, 0.00107095, 0.0156146, 0.0118201, 242.219, -91.3813, 0.252614, 0.00106911, 167.735, 71.2351, 287.834, 95.4325, 37.7639, 140.948, -0.000685701, -0.00681673, 0.0109358, -0.000259167, -0.000259167, -0.000259167
5126, 1,0.0230826, 0.00335928, 0.00234835, 369.231, 118.394, 0.0974081, 1368.93, -475.227, 1, 0.00104573, 0.0264314, 0.0194027, 487.431, -191.236, 0.327614, 0.00103155, 0.0197373, 0.0149186, 251.237, -105.164, 0.283176, 0.00102972, 179.724, 84.9099, 309.074, 108.701, 50.0514, 156.739, -0.00124252, -0.00846853, 0.0134988, -0.000540743, -0.000540743, -0.000540743
5127, 1,0.0249083, 0.00260979, 0.00185989, 365.187, 116.673, 0.105691, 1448.25, -493.067, 1, 0.00101005, 0.027499, 0.0203103, 481.852, -185.104, 0.242535, 0.000995383, 0.022322, 0.0169911, 248.532, -100.99, 0.221704, 0.000993789, 129.509, 77.2627, 348.542, 77.2617, 44.0254, 181.683, -0.00480703, -0.00886747, 0.0171397, -0.00412038, -0.00412038, -0.00412038
5128, 1,0.0224819, 0.00191707, 0.00130272, 360.637, 105.673, 0.108179, 1449.05, -483.822, 1, 0.000976224, 0.0242775, 0.0178767, 465.982, -162.661, 0.137071, 0.000961779, 0.0207052, 0.0155523, 255.555, -89.0539, 0.137071, 0.000960536, 93.2995, 57.2415, 337.442, 51.5011, 34.2471, 181.413, -0.00503528, -0.00743304, 0.0153177, -0.00474458, -0.00474458, -0.00474458
5129, 1,0.0247476, 0.0043109, 0.00304243, 365.746, 119.822, 0.0857109, 1120, -385.591, 1, 0.0010795, 0.0290503, 0.021657, 485.511, -185.573, 0.429593, 0.00106855, 0.0204482, 0.0156528, 246.039, -96.3185, 0.352964, 0.0010664, 169.26, 62.4788, 324.979, 92.7782, 33.3107, 162.867, -0.00170801, -0.0104564, 0.0161113, -0.0013144, -0.0013144, -0.0013144
5130, 1,0.0292903, 0.00418834, 0.00291097, 371.285, 121.229, 0.101723, 1423.06, -500.843, 1, 0.00104247, 0.033468, 0.0254165, 492.288, -198.41, 0.411568, 0.00102776, 0.0251161, 0.0196304, 250.52, -104.835, 0.3407, 0.00102563, 197.141, 51.5775, 346.511, 114.227, 27.9627, 172.316, -0.00101763, -0.0149419, 0.0201233, -0.00035151, -0.00035151, -0.00035151
5131, 1,0.0305776, 0.00348321, 0.00244485, 369.469, 121.274, 0.110932, 1484.06, -528.098, 1, 0.00100702, 0.0340393, 0.0257535, 490.634, -198.519, 0.278591, 0.000991458, 0.0271207, 0.0210922, 248.421, -104.468, 0.226902, 0.000989603, 172.833, 56.6242, 366.099, 101.561, 29.4404, 182.402, -0.00375794, -0.0144548, 0.0220107, -0.00293044, -0.00293044, -0.00293044
5132, 1,0.0294374, 0.00234511, 0.00159295, 366.633, 114.802, 0.111043, 1472.02, -507.93, 1, 0.000974155, 0.0316508, 0.0235761, 481.23, -186.298, 0.231, 0.00095948, 0.0272433, 0.020695, 252.241, -104.804, 0.225095, 0.000958018, 134.567, 58.3785, 365.949, 81.4843, 41.8363, 191.092, -0.00532356, -0.0121833, 0.0209615, -0.00493949, -0.00493949, -0.00493949
5133, 1,0.0260572, 0.00480043, 0.00340024, 363.677, 120.719, 0.0870194, 1160.95, -399.451, 1, 0.00111339, 0.0308558, 0.0228801, 484.332, -181.695, 0.464066, 0.00110155, 0.0212595, 0.0161016, 243.086, -90.6737, 0.370937, 0.00109922, 158.204, 41.7096, 345.171, 83.1565, 20.0332, 168.832, -0.00250184, -0.0126022, 0.0190666, -0.0019158, -0.0019158, -0.0019158
5134, 1,0.031019, 0.00498773, 0.00358881, 378.912, 124.093, 0.102589, 1444.11, -520.991, 1, 0.00107451, 0.0359699, 0.0273982, 502.669, -213.98, 0.446579, 0.00105904, 0.0260812, 0.0202976, 255.503, -112.942, 0.347281, 0.00105656, 207.584, 58.1105, 376.246, 118.468, 36.5155, 183.842, -0.00144685, -0.017227, 0.0232804, -0.00084517, -0.00084517, -0.00084517
5135, 1,0.0341646, 0.00423416, 0.00299764, 364.578, 124.407, 0.112391, 1490.27, -529.946, 1, 0.00103744, 0.0383256, 0.0296706, 488.414, -195.485, 0.340099, 0.00102144, 0.030022, 0.0238266, 241.318, -93.5992, 0.266152, 0.00101927, 197.664, 25.8169, 362.975, 107.909, 5.68574, 167.203, -0.00152965, -0.0194832, 0.0249089, -0.000926067, -0.000926067, -0.000926067
5136, 1,0.0344954, 0.00293912, 0.00199752, 352.476, 118.795, 0.113659, 1480.53, -506.564, 1, 0.00100556, 0.0373061, 0.0280661, 470.944, -166.607, 0.297529, 0.000990233, 0.0317057, 0.0243214, 234.317, -76.5469, 0.272365, 0.000988476, 139.62, 17.8448, 342.357, 66.6607, 0.824729, 162.155, -0.00393995, -0.0167552, 0.023919, -0.00369921, -0.00369921, -0.00369921
5137, 1,0.024386, 0.00256694, 0.00176225, 363.521, 115.771, 0.0674759, 615.56, -220.183, 1, 0.00111178, 0.0268288, 0.0201277, 479.099, -183.538, 0.385061, 0.00110702, 0.0219701, 0.0168857, 248.131, -97.3664, 0.377371, 0.00110504, 221.395, 48.0759, 281.144, 109.277, 27.4568, 155.365, 0.00390841, -0.0105972, 0.0104791, 0.00173226, 0.00173226, 0.00173226
5138, 1,0.0296765, 0.00386233, 0.00273016, 361.789, 121.709, 0.0820961, 1028.84, -364.482, 1, 0.00114904, 0.0334166, 0.025584, 483.294, -185.396, 0.510464, 0.00113854, 0.0259718, 0.0204373, 240.482, -86.5069, 0.461432, 0.00113591, 235.832, 32.1875, 288.169, 106.616, 6.61317, 146.291, 0.0059533, -0.0152912, 0.0135398, 0.00308786, 0.00308786, 0.00308786
5139, 1,0.0320997, 0.00469747, 0.00337431, 358.716, 121.883, 0.0937984, 1312.42, -453.041, 1, 0.00118987, 0.0366658, 0.0278537, 480.324, -176.463, 0.54701, 0.00117507, 0.0275759, 0.0213864, 237.368, -80.4913, 0.469959, 0.00117231, 234.508, 34.2348, 260.648, 104.845, 10.8337, 125.796, 0.00695545, -0.0154539, 0.0126135, 0.00364244, 0.00364244, 0.00364244
5140, 1,0.0301107, 0.00478436, 0.00335128, 344.915, 120.686, 0.0999457, 1386.6, -470.348, 1, 0.00123022, 0.0347741, 0.0259483, 465.241, -150.277, 0.44885, 0.0012131, 0.0254904, 0.0194059, 224.924, -60.7128, 0.361169, 0.00121065, 211.743, 23.8506, 215.236, 88.4635, 0.0814895, 93.5934, 0.00599648, -0.0127763, 0.0100267, 0.00297016, 0.00297016, 0.00297016
5141, 1,0.0201646, 0.00221048, 0.00153334, 358.596, 111.007, 0.0660561, 569.43, -198.294, 1, 0.00110819, 0.022221, 0.0165166, 469.26, -168.602, 0.295179, 0.00110376, 0.0181414, 0.0137921, 248.242, -89.7395, 0.295179, 0.00110207, 170.689, 54.7288, 280.387, 80.293, 30.633, 158.293, 0.000749439, -0.00710079, 0.00962461, -0.000934882, -0.000934882, -0.000934882
5142, 1,0.0251397, 0.00314532, 0.00222796, 372.665, 118.247, 0.0801223, 979.425, -353.772, 1, 0.00114733, 0.0281901, 0.0212127, 490.769, -199.622, 0.413629, 0.0011373, 0.0221165, 0.0172001, 254.711, -110.347, 0.385, 0.00113511, 239.105, 65.2087, 294.553, 126.18, 39.9995, 164.861, 0.00430121, -0.0112947, 0.0112009, 0.00238838, 0.00238838, 0.00238838
5143, 1,0.0279488, 0.00389212, 0.00270344, 366.608, 119.463, 0.0924321, 1285.99, -445.891, 1, 0.00118816, 0.0317738, 0.0238635, 485.981, -187.942, 0.464422, 0.00117369, 0.0241453, 0.0186634, 247.328, -97.8682, 0.409218, 0.00117127, 244.642, 60.4105, 258.774, 122.746, 32.5185, 138.34, 0.00610942, -0.0120569, 0.0100584, 0.00355521, 0.00355521, 0.00355521
5144, 1,0.0269451, 0.00418094, 0.00296422, 362.933, 119.605, 0.10012, 1388.11, -473.527, 1, 0.00122861, 0.0310438, 0.0229236, 482.435, -180.428, 0.37558, 0.00121191, 0.022876, 0.0172786, 243.537, -92.6891, 0.303333, 0.00120962, 241.353, 57.39, 242.541, 119.001, 30.2569, 128.809, 0.0056051, -0.0111262, 0.00921944, 0.00280782, 0.00280782, 0.00280782
5145, 1,0.0144961, 0.00194483, 0.00136033, 365.663, 103.021, 0.0642027, 514.66, -177.843, 1, 0.00110611, 0.0162583, 0.0117805, 467.783, -165.976, 0.178288, 0.0011022, 0.0127829, 0.00947772, 264.244, -94.0255, 0.178288, 0.00110077, 144.863, 71.5809, 281.484, 66.1195, 44.4888, 171.468, -0.000432515, -0.00404954, 0.00747109, -0.0017733, -0.0017733, -0.0017733
5146, 1,0.0188836, 0.0025011, 0.00179442, 365.79, 115.008, 0.0778545, 907.249, -321.725, 1, 0.00114588, 0.0212328, 0.0155129, 480.402, -184.278, 0.279387, 0.00113644, 0.0165786, 0.0124356, 251.585, -103.469, 0.269824, 0.00113466, 187.044, 99.6518, 266.138, 96.3089, 63.034, 151.065, 0.000777558, -0.0049717, 0.0077342, -0.000678273, -0.000678273, -0.000678273
5147, 1,0.0204686, 0.00304801, 0.00215393, 363.777, 117.124, 0.0893001, 1217.32, -418.543, 1, 0.00118685, 0.0234194, 0.0171671, 480.672, -181.622, 0.321078, 0.00117296, 0.0175515, 0.0132778, 247.12, -97.8351, 0.290485, 0.00117097, 216.075, 90.1831, 238.608, 108.812, 52.7125, 131.981, 0.00295447, -0.00611517, 0.0067474, 0.0010951, 0.0010951, 0.0010951
5148, 1,0.02179, 0.00341208, 0.00243261, 356.234, 117.803, 0.0992744, 1377.94, -469.848, 1, 0.00122748, 0.0251395, 0.0183787, 473.964, -168.779, 0.2713, 0.00121039, 0.0184633, 0.0138127, 238.577, -85.3659, 0.222142, 0.0012084, 226.904, 63.6852, 215.746, 111.17, 31.2115, 113.716, 0.00424028, -0.00760308, 0.00658554, 0.00206714, 0.00206714, 0.00206714
5149, 1,0.0102417, 0.00168142, 0.00116673, 365.836, 95.6193, 0.0618042, 487.541, -164.606, 0.975796, 0.00110362, 0.0118069, 0.00845987, 460.153, -154.019, 0.0903234, 0.00110006, 0.00871711, 0.00639293, 272.416, -90.474, 0.0903234, 0.00109887, 128.351, 87.7953, 245.911, 56.5, 59.6959, 155.226, -0.000308382, -0.0018662, 0.00480497, -0.00126233, -0.00126233, -0.00126233
5150, 1,0.0122442, 0.00201621, 0.00143144, 349.73, 110.015, 0.0750255, 812.709, -274.957, 1, 0.00114398, 0.0141183, 0.0100921, 458.881, -151.317, 0.138213, 0.0011355, 0.0104215, 0.00760044, 241.372, -79.5141, 0.138213, 0.00113407, 134.356, 93.0808, 226.514, 56.4977, 54.7164, 127.328, -0.000283155, -0.0021166, 0.00505887, -0.00136568, -0.00136568, -0.00136568
5151, 1,0.0141653, 0.00236608, 0.00168351, 352.635, 114.313, 0.0857951, 1112.82, -376.565, 1, 0.00118562, 0.0164251, 0.0117656, 466.525, -160.565, 0.183861, 0.00117274, 0.0119466, 0.00878782, 239.168, -83.9392, 0.172507, 0.0011711, 178.054, 94.2866, 209.355, 82.9023, 52.2244, 116.691, 0.00123137, -0.00295995, 0.00462989, -0.000172302, -0.000172302, -0.000172302
5152, 1,0.0168178, 0.00271021, 0.00191648, 361.089, 115.844, 0.0965091, 1338.05, -448.233, 1, 0.00122609, 0.0194701, 0.0140602, 476.833, -176.153, 0.193155, 0.00120994, 0.0141867, 0.0104539, 245.45, -96.7157, 0.167079, 0.00120816, 217.913, 98.4189, 212.127, 112.503, 58.9921, 118.652, 0.00262072, -0.00427299, 0.00485275, 0.00101202, 0.00101202, 0.00101202
5153, 1,0.00680603, 0.00143926, 0.000984961, 365.528, 89.0089, 0.0581087, 480.798, -156.227, 0.919264, 0.00110085, 0.0081946, 0.00563486, 453.176, -145.14, 0.0185846, 0.00109774, 0.00544326, 0.00379601, 278.722, -86.6448, 0.0185846, 0.00109669, 131.057, 88.4198, 215.944, 60.0281, 60.6021, 139.304, 0.000274442, -0.00102157, 0.00312583, -0.000374878, -0.000374878, -0.000374878
5154, 1,0.00884398, 0.00174067, 0.00121657, 342.023, 100.884, 0.0724268, 732.503, -240.893, 1, 0.00114184, 0.0104754, 0.00743859, 441.682, -145.6, 0.0707367, 0.00113457, 0.00726098, 0.00527194, 243.37, -80.1586, 0.0707367, 0.00113332, 121.656, 103.212, 211.931, 48.501, 65.0008, 126.974, -0.000257222, -0.00114365, 0.00385935, -0.00113564, -0.00113564, -0.00113564
5155, 1,0.0105909, 0.00195925, 0.00137239, 349.83, 110.805, 0.0824788, 1009.22, -330.453, 1, 0.00118315, 0.012465, 0.00882498, 460.039, -153.171, 0.10643, 0.00117198, 0.00875324, 0.00632066, 240.189, -82.1857, 0.105796, 0.00117054, 163.425, 107.982, 188.106, 75.0108, 65.3035, 106.243, 0.000807624, -0.00148178, 0.00331482, -0.000345381, -0.000345381, -0.000345381
5156, 1,0.0126678, 0.00220229, 0.00152704, 355.831, 114.02, 0.0931009, 1278.25, -422.464, 1, 0.00122379, 0.0148284, 0.0104665, 469.68, -166.28, 0.130911, 0.00120847, 0.0105241, 0.00758428, 242.155, -89.5657, 0.121225, 0.00120684, 199.475, 108.313, 191.05, 100.548, 65.0904, 103.058, 0.001774, -0.00238375, 0.00351835, 0.000542368, 0.000542368, 0.000542368
5157, 1,0.00568644, 0.00126743, 0.000861777, 351.86, 80.5369, 0.0561177, 483.078, -157.238, 0.88678, 0.00109775, 0.00692002, 0.00465285, 431.413, -139.739, 0, 0.00109469, 0.00447175, 0.00303671, 272.875, -86.323, 0, 0.00109374, 134.888, 86.2493, 198.079, 68.5547, 58.3925, 132.022, 0.000545357, -0.000869791, 0.00259085, -9.59951E-07, -9.59951E-07, -9.59951E-07
5158, 1,0.00686778, 0.00155931, 0.0010724, 326.783, 93.3715, 0.0696509, 652.928, -212.788, 1, 0.00113784, 0.00835281, 0.00581228, 418.718, -137.815, 0.0356992, 0.00113156, 0.00542285, 0.00385496, 235.96, -76.9464, 0.0349904, 0.00113042, 119.633, 109.427, 184.386, 47.2324, 72.44, 111.167, 9.34973E-05, -0.000665833, 0.00285265, -0.000661772, -0.000661772, -0.000661772
5159, 1,0.00805308, 0.00176324, 0.0012127, 338.847, 103.526, 0.0792228, 917.01, -298.704, 1, 0.00117885, 0.00974431, 0.00680531, 441.267, -145.701, 0.0576501, 0.00116884, 0.00639922, 0.00456443, 237.399, -78.5041, 0.0568529, 0.00116753, 145.229, 123.157, 168.716, 61.9312, 79.7266, 93.8546, 0.000500108, -0.000619759, 0.0025607, -0.000467671, -0.000467671, -0.000467671
5160, 1,0.00877807, 0.00191831, 0.00130454, 353.89, 112.325, 0.0886794, 1184.77, -392.548, 1, 0.00121996, 0.0106664, 0.00741945, 465.723, -161.79, 0.0690763, 0.00120579, 0.00690568, 0.00490513, 242.544, -88.0417, 0.0673352, 0.00120429, 184.921, 126.456, 173.993, 91.5289, 81.8947, 90.7017, 0.00120298, -0.00100672, 0.00253238, 0.000211838, 0.000211838, 0.000211838
5161, 1,0.00509889, 0.00112594, 0.000762939, 317.224, 71.996, 0.0546096, 485.779, -158.225, 0.861516, 0.00109483, 0.00619889, 0.00416224, 388.655, -128.344, 6.77626E-21, 0.0010917, 0.00401312, 0.0027288, 246.121, -80.3439, 6.77626E-21, 0.00109085, 130.486, 85.6736, 168.873, 71.1099, 58.4485, 111.473, 0.000660832, -0.000750704, 0.00217125, 0.000176163, 0.000176163, 0.000176163
5162, 1,0.00566824, 0.00139579, 0.000952456, 313.73, 86.1697, 0.0674312, 587.977, -188.784, 1, 0.00113409, 0.00700648, 0.00479578, 398.311, -127.05, 0.0130189, 0.0011286, 0.004365, 0.00304059, 230.28, -70.3559, 0.0121256, 0.00112755, 110.92, 104.311, 165.92, 41.4226, 68.8274, 100.818, 0.0002266, -0.000532528, 0.00238138, -0.000401072, -0.000401072, -0.000401072
5163, 1,0.00622576, 0.00159097, 0.00108429, 325.605, 96.8823, 0.0758697, 821.538, -265.977, 1, 0.00117438, 0.00777354, 0.00532722, 421.368, -133.596, 0.0215522, 0.00116552, 0.00470612, 0.00326844, 230.751, -70.5325, 0.020241, 0.00116431, 136.18, 112.394, 152.213, 56.0185, 72.2667, 83.3122, 0.000644709, -0.000589423, 0.00213731, -0.00013703, -0.00013703, -0.00013703
5164, 1,0.00714117, 0.00177469, 0.00119923, 342.349, 108.118, 0.083774, 1045.06, -343.139, 1, 0.00121519, 0.00888165, 0.00612748, 449.722, -148.344, 0.0348414, 0.00120292, 0.00542186, 0.00383643, 235.664, -77.0266, 0.0337789, 0.0012015, 158.657, 118.974, 167.401, 70.1451, 75.4476, 85.4872, 0.000843939, -0.000835966, 0.00244484, -1.69516E-05, -1.69516E-05, -1.69516E-05
5165, 1,0.00447382, 0.00100411, 0.000680453, 278.975, 64.3195, 0.0508818, 489.176, -163.971, 0.801047, 0.00109177, 0.00545417, 0.00363173, 342.848, -113.927, 0, 0.00108854, 0.00350688, 0.00236949, 215.37, -71.1576, 0, 0.00108779, 116.291, 81.2445, 144.246, 63.8505, 55.5997, 94.0226, 0.000577787, -0.000619261, 0.00188889, 0.000157859, 0.000157859, 0.000157859
5166, 1,0.0047992, 0.00123953, 0.000843152, 297.336, 79.1229, 0.065146, 532.154, -178.249, 1, 0.00113081, 0.00599017, 0.00404318, 375.069, -121.697, 0, 0.00112566, 0.00363987, 0.00250196, 220.581, -69.9226, 0, 0.00112471, 109.443, 103.04, 152.606, 45.3365, 69.5789, 94.8522, 0.000348456, -0.000445133, 0.00207019, -0.000176131, -0.000176131, -0.000176131
5167, 1,0.0053187, 0.00144888, 0.000983512, 314.424, 90.6245, 0.0723077, 724.4, -235.7, 1, 0.00117021, 0.00672363, 0.00456356, 403.848, -128.724, 0.00523064, 0.00116256, 0.00394519, 0.00268926, 225.918, -68.7124, 0.00406872, 0.00116142, 126.014, 107.225, 152.933, 50.0714, 68.0894, 87.9764, 0.000584691, -0.000563383, 0.00207211, -7.92432E-05, -7.92432E-05, -7.92432E-05
5168, 1,0.00610894, 0.00165096, 0.00111266, 335.06, 102.487, 0.0784111, 895.406, -293.74, 1, 0.00121039, 0.00773183, 0.00524116, 436.557, -145.096, 0.0163048, 0.00120025, 0.00450606, 0.00312122, 234.432, -77.0954, 0.0151752, 0.00119892, 152.503, 120.998, 161.786, 68.355, 78.9958, 83.9354, 0.000866107, -0.000647505, 0.00215565, 0.000114832, 0.000114832, 0.000114832
5169, 1,0.00397431, 0.000892736, 0.000604698, 245.498, 57.2478, 0.0414813, 483.582, -161.135, 0.641559, 0.00108796, 0.00484769, 0.00327095, 302.45, -97.6173, 0, 0.00108526, 0.00311193, 0.00214251, 188.724, -59.435, 0, 0.00108458, 103.79, 66.667, 122.395, 57.0118, 42.877, 78.4162, 0.000568385, -0.000591804, 0.00160635, 0.000195222, 0.000195222, 0.000195222
5170, 1,0.0044689, 0.0011259, 0.000766259, 279.246, 72.0261, 0.0572773, 502.978, -182.478, 0.904848, 0.00112726, 0.00554495, 0.00369675, 349.652, -116.376, 0, 0.00112265, 0.00342468, 0.00232503, 209.952, -69.1381, 0, 0.00112179, 100.831, 103.961, 144.335, 42.5698, 72.8596, 91.985, 0.000261667, -0.00032112, 0.0019465, -0.000211367, -0.000211367, -0.000211367
5171, 1,0.00469898, 0.00131618, 0.000892197, 292.661, 84.3814, 0.0678637, 612.335, -209.267, 1, 0.0011664, 0.00597319, 0.00399674, 375.91, -123.857, 6.5275E-07, 0.0011598, 0.00345581, 0.00234336, 210.321, -68.5017, 6.5275E-07, 0.00115876, 120.132, 107.912, 143.529, 50.6518, 70.467, 84.3864, 0.000596438, -0.000446658, 0.00185856, 1.47352E-05, 1.47352E-05, 1.47352E-05
5172, 1,0.00512112, 0.00150933, 0.00101757, 322.542, 96.1772, 0.0728997, 743.114, -243.528, 1, 0.00120548, 0.00660136, 0.00441757, 417.695, -141.982, 0.000642039, 0.00119751, 0.00366431, 0.00248615, 228.286, -78.856, 0.000361956, 0.00119628, 144.048, 123.004, 158.894, 65.8774, 83.3362, 87.3544, 0.000787868, -0.000446369, 0.0019618, 0.00014692, 0.00014692, 0.00014692
5173, 1,0.0035545, 0.000794311, 0.000537912, 222.924, 50.8323, 0.0303411, 478.163, -159.257, 0.440497, 0.0010841, 0.00433126, 0.00290158, 273.328, -90.028, 0, 0.00108197, 0.00278767, 0.00189917, 172.775, -56.2428, 0, 0.00108137, 91.1147, 66.1794, 112.79, 49.8488, 44.7711, 74.1086, 0.000450532, -0.00037665, 0.00138614, 0.000121875, 0.000121875, 0.000121875
5174, 1,0.00402718, 0.00101709, 0.000691621, 250.379, 64.8554, 0.0408154, 490.93, -175.386, 0.63315, 0.00112248, 0.00500634, 0.00335785, 314.03, -104.319, 0, 0.00111944, 0.00307295, 0.00209463, 187.566, -61.7023, 0, 0.00111867, 94.9861, 90.268, 127.703, 42.3092, 61.4474, 81.3504, 0.000335619, -0.000265143, 0.00162115, -9.51119E-05, -9.51119E-05, -9.51119E-05
5175, 1,0.00456911, 0.00121346, 0.000825003, 278.857, 77.7243, 0.0566628, 517.215, -206.679, 0.897691, 0.00116251, 0.00573601, 0.00387352, 355.182, -115.102, 0, 0.00115688, 0.00343458, 0.00235464, 203.576, -64.0177, 0, 0.00115592, 107.381, 98.6421, 139.281, 42.9385, 63.9481, 85.1665, 0.000453462, -0.000429011, 0.00184187, -9.10019E-05, -9.10019E-05, -9.10019E-05
5176, 1,0.0047666, 0.0013988, 0.0009427, 297.727, 89.7706, 0.066436, 585.039, -212.31, 1, 0.00120134, 0.00613729, 0.00411329, 386.242, -129.225, 0, 0.00119452, 0.0034184, 0.00233703, 210.305, -70.319, 0, 0.00119337, 126.58, 114.851, 146.245, 53.9448, 77.2936, 79.7187, 0.000688762, -0.000390403, 0.00179733, 9.69971E-05, 9.69971E-05, 9.69971E-05
5177, 1,0.00321404, 0.000702236, 0.000476488, 201.092, 44.709, 0.0212501, 473.141, -157.12, 0.269148, 0.00108052, 0.00389827, 0.00261494, 245.171, -79.9371, 0, 0.00107868, 0.00253976, 0.00171167, 157.369, -50.4199, 0, 0.00107816, 75.7575, 61.9198, 102.134, 39.344, 43.4599, 68.4557, 0.000287433, -0.000208696, 0.00121777, -8.40414E-06, -8.40414E-06, -8.40414E-06
5178, 1,0.00358367, 0.000910873, 0.000620267, 225.519, 57.8714, 0.0251788, 475.619, -159.064, 0.344374, 0.00111817, 0.00445785, 0.00299169, 282.158, -97.0201, 0, 0.00111636, 0.00273373, 0.00187763, 169.751, -58.8858, 0, 0.00111567, 88.2533, 81.3772, 121.43, 41.2431, 54.7475, 80.6669, 0.000317353, -0.00015359, 0.00140979, -6.80727E-05, -6.80727E-05, -6.80727E-05
5179, 1,0.00406857, 0.00111306, 0.000756166, 249.171, 70.7393, 0.03365, 482.644, -165.237, 0.502592, 0.00115623, 0.00514414, 0.00344685, 318.658, -104.853, 4.58034E-08, 0.0011539, 0.00302028, 0.00205659, 180.653, -58.4179, 4.58034E-08, 0.00115303, 97.4705, 92.4624, 124.626, 38.9088, 59.9351, 76.4097, 0.000397324, -0.000163914, 0.00146702, -9.98232E-05, -9.98232E-05, -9.98232E-05
5180, 1,0.00449285, 0.00130014, 0.000876583, 276.169, 82.8349, 0.0448364, 493.525, -175.536, 0.700879, 0.00119485, 0.00576923, 0.00386879, 357.856, -119.425, 0, 0.00119158, 0.00323549, 0.00220651, 195.469, -65.138, 0, 0.00119053, 116.127, 105.509, 136.64, 49.0502, 70.562, 75.8019, 0.000598445, -0.000220311, 0.0015587, 4.54458E-05, 4.54458E-05, 4.54458E-05
5181, 1,0.0028295, 0.000604433, 0.000411409, 176.353, 38.3503, 0.0143052, 463.63, -147.353, 0.13501, 0.00107686, 0.00341559, 0.00230524, 214.061, -69.3333, 0, 0.00107529, 0.0022533, 0.00153689, 138.995, -44.041, 0, 0.00107485, 65.4811, 51.3658, 91.153, 33.9476, 35.7178, 62.4577, 0.000237248, -0.000187409, 0.00107472, -2.30496E-05, -2.30496E-05, -2.30496E-05
5182, 1,0.00325161, 0.000812126, 0.000555189, 201.204, 51.3486, 0.0162493, 468.77, -154.236, 0.173119, 0.00111459, 0.00402662, 0.00271233, 251.173, -82.3155, 0, 0.00111299, 0.00250052, 0.00170032, 152.156, -48.6239, 0, 0.00111238, 71.7831, 67.2968, 107.867, 29.3692, 44.0422, 72.4602, 0.000193085, -0.000105008, 0.00124708, -0.000166626, -0.000166626, -0.000166626
5183, 1,0.00351255, 0.00100893, 0.000685525, 219.71, 63.7546, 0.0173269, 465.284, -147.13, 0.193461, 0.00115204, 0.00448876, 0.0030252, 282.214, -95.7871, 0, 0.00115075, 0.00256224, 0.00176945, 158.252, -53.9455, 0, 0.00114997, 90.4422, 83.9569, 112.962, 37.8254, 53.7928, 70.2183, 0.000398029, 4.93072E-06, 0.0011507, -4.90102E-05, -4.90102E-05, -4.90102E-05
5184, 1,0.00394545, 0.00119838, 0.000808467, 245.449, 75.6912, 0.0209754, 460.928, -145.962, 0.265987, 0.00118971, 0.00512202, 0.00341206, 320.174, -106.942, 0, 0.00118847, 0.0027876, 0.00187289, 171.583, -57.3408, 0, 0.00118751, 103.075, 92.5161, 125.236, 41.8002, 59.9872, 70.2351, 0.000469163, -2.1865E-05, 0.00128718, -3.70063E-05, -3.70063E-05, -3.70063E-05
5185, 1,0.00248689, 0.000507243, 0.000346467, 155.664, 32.0955, 0.0097122, 457.105, -142.399, 0.0456298, 0.00107349, 0.00297616, 0.00199705, 187.057, -61.1571, 0, 0.00107201, 0.00200672, 0.00136361, 124.634, -40.0748, 0, 0.00107165, 56.5409, 45.5285, 81.4019, 29.668, 32.9417, 57.6147, 0.000196985, -0.000126947, 0.000921977, -3.29033E-05, -3.29033E-05, -3.29033E-05
5186, 1,0.00276644, 0.000712343, 0.00048878, 172.953, 44.8466, 0.0105674, 453.326, -135.327, 0.0619466, 0.00111101, 0.00344041, 0.00231269, 216.304, -71.6066, 0, 0.00110978, 0.00211812, 0.00143479, 130.626, -42.3451, 0, 0.00110925, 61.0401, 60.3425, 93.4372, 23.6337, 40.0757, 63.326, 0.00013264, -7.15239E-06, 0.00103602, -0.00019117, -0.00019117, -0.00019117
5187, 1,0.00315432, 0.000907452, 0.000619062, 196.711, 57.1043, 0.0115657, 465.162, -152.864, 0.0822109, 0.00114904, 0.00402635, 0.00269109, 252.38, -84.1574, -6.77626E-21, 0.00114762, 0.00230998, 0.00155142, 142.194, -46.8959, -6.77626E-21, 0.00114693, 75.6598, 74.5314, 102.281, 27.8619, 47.778, 65.0478, 0.000259962, 7.08505E-05, 0.00103423, -0.00015837, -0.00015837, -0.00015837
5188, 1,0.0034084, 0.00108907, 0.000735209, 212.277, 68.6102, 0.0125537, 429.309, -147.659, 0.115944, 0.00118668, 0.00447904, 0.00301015, 280.064, -92.9434, 0, 0.00118543, 0.00235511, 0.00160578, 145.284, -48.0022, 0, 0.00118457, 91.9582, 77.5827, 109.289, 36.5471, 47.8192, 59.6402, 0.000465615, -2.06675E-05, 0.0010625, 7.94391E-06, 7.94391E-06, 7.94391E-06
5189, 1,0.00212306, 0.000408572, 0.000280855, 132.617, 25.8065, 0.0071457, 434.021, -129.015, 0, 0.00106999, 0.00251386, 0.0016918, 157.685, -51.6688, 0, 0.00106865, 0.00174066, 0.0011876, 107.905, -34.8091, 0, 0.00106835, 47.8029, 36.2304, 70.9731, 25.4939, 26.8745, 52.0589, 0.000175887, -0.000141382, 0.000803685, -2.57006E-05, -2.57006E-05, -2.57006E-05
5190, 1,0.0024478, 0.000611046, 0.000421845, 153.417, 38.3506, 0.00740452, 439.086, -120.245, 0.000219732, 0.00110754, 0.00301847, 0.00201445, 190.092, -62.7598, 0, 0.00110651, 0.00190245, 0.00129987, 117.815, -37.9231, 0, 0.00110606, 51.7733, 53.7112, 82.795, 18.9383, 36.9309, 57.9001, 8.4325E-05, 3.59683E-05, 0.0008978, -0.000213611, -0.000213611, -0.000213611
5191, 1,0.00261191, 0.000802603, 0.000549571, 166.069, 50.3559, 0.00782415, 446.396, -130.168, 0.00859132, 0.00114548, 0.00337619, 0.00225198, 214.865, -73.8032, 0, 0.00114442, 0.00188063, 0.00125191, 118.641, -41.1095, 0, 0.00114382, 65.7255, 66.042, 89.642, 23.2953, 42.2285, 57.8048, 0.000207406, 0.000106623, 0.000883105, -0.000169549, -0.000169549, -0.000169549
5192, 1,0.00298896, 0.000984433, 0.000665794, 186.108, 61.8464, 0.00936293, 409.165, -136.739, 0.0575487, 0.00118351, 0.00395511, 0.00263959, 247.091, -81.7782, 0, 0.00118237, 0.00204049, 0.00137873, 125.984, -41.4696, 0, 0.00118159, 78.9609, 71.5918, 94.7818, 28.7683, 45.1235, 50.5169, 0.000365044, 7.40019E-05, 0.000887324, -5.63128E-05, -5.63128E-05, -5.63128E-05
5193, 1,0.00181332, 0.000312353, 0.000217789, 112.878, 19.654, 0.00642444, 400.501, -129.823, 0, 0.00106689, 0.00210566, 0.00142157, 131.671, -42.8943, 0, 0.00106539, 0.00152919, 0.0010476, 94.4468, -30.2684, 0, 0.00106517, 39.404, 28.3676, 60.9113, 21.4116, 22.6495, 46.7441, 0.00013643, -0.000156089, 0.000715495, -4.10956E-05, -4.10956E-05, -4.10956E-05
5194, 1,0.00204453, 0.000509508, 0.000355311, 128.386, 31.8883, 0.00654896, 402.072, -124.242, 0, 0.00110458, 0.00250781, 0.00167873, 158.334, -52.3648, 0, 0.00110329, 0.00160963, 0.00110531, 99.66, -31.944, 0, 0.00110292, 42.1776, 43.8229, 71.094, 13.9954, 30.5528, 51.2839, 4.80737E-05, 5.23194E-06, 0.000796145, -0.000221452, -0.000221452, -0.000221452
5195, 1,0.00227142, 0.000696127, 0.000479504, 142.304, 43.6009, 0.00643079, 392.42, -118.966, 0, 0.00114232, 0.00292607, 0.00195117, 184.211, -60.7637, 0, 0.00114124, 0.00165105, 0.00112825, 101.827, -32.6173, 0, 0.00114072, 53.2909, 52.9034, 76.0969, 15.593, 32.7068, 49.5521, 0.000151427, 5.63636E-05, 0.000777818, -0.000197338, -0.000197338, -0.000197338
5196, 1,0.00244159, 0.000876574, 0.000594214, 155.016, 54.9502, 0.00622772, 382.231, -118.746, 0.000198287, 0.00118023, 0.00330135, 0.00220688, 209.18, -71.5618, 7.2857E-07, 0.00117933, 0.00160079, 0.00106709, 101.746, -35.8787, 7.2857E-07, 0.00117865, 70.4133, 61.3177, 82.9543, 25.7273, 38.0139, 43.895, 0.00034519, 5.95032E-05, 0.000755976, -3.31303E-05, -3.31303E-05, -3.31303E-05
5197, 1,0.00149606, 0.000218427, 0.000157323, 92.3452, 13.6023, 0.00585301, 363.707, -116.649, 0, 0.00106347, 0.00169009, 0.00115493, 104.866, -33.5385, 0, 0.00106204, 0.00131022, 0.000908594, 80.1998, -25.1699, 0, 0.0010619, 31.0379, 18.8199, 50.7576, 17.3048, 16.8878, 41.3172, 0.000105911, -0.000200347, 0.000638494, -4.89027E-05, -4.89027E-05, -4.89027E-05
5198, 1,0.00168641, 0.000408624, 0.000289605, 105.222, 25.4534, 0.00580993, 357.219, -110.972, 0, 0.00110125, 0.00204189, 0.00137347, 128.434, -41.993, 0, 0.00110002, 0.00136111, 0.000949898, 83.3288, -25.9876, 0, 0.00109973, 32.9681, 33.2409, 59.7701, 9.22164, 23.6833, 45.058, 1.79226E-05, -4.27303E-05, 0.000705998, -0.000227825, -0.000227825, -0.000227825
5199, 1,0.00186455, 0.000591281, 0.000410595, 117.17, 36.9375, 0.00549563, 338.805, -106.476, 0, 0.00113909, 0.00241, 0.0016134, 152.225, -50.4536, 0, 0.00113805, 0.00135818, 0.000934571, 83.7651, -26.8384, 0, 0.00113762, 44.442, 42.3395, 64.5792, 11.5466, 25.7676, 43.2009, 0.000130712, 9.56922E-06, 0.000678076, -0.00018844, -0.00018844, -0.00018844
5200, 1,0.00202908, 0.000768682, 0.000522548, 126.68, 48.1235, 0.00510187, 319.744, -105.858, 0, 0.00117702, 0.00278217, 0.00186357, 174.076, -56.9945, 0, 0.00117609, 0.00129474, 0.00087603, 80.1718, -25.8934, 0, 0.0011755, 56.5571, 47.5725, 66.8539, 16.8866, 27.8901, 32.9036, 0.000286493, 1.42374E-05, 0.000623618, -5.83477E-05, -5.83477E-05, -5.83477E-05
5201, 1,0.00118374, 0.000133119, 0.000105519, 72.0338, 7.93732, 0.00528233, 328.273, -105.246, 0, 0.0010602, 0.00128217, 0.000895797, 78.3676, -24.2521, 0, 0.00105881, 0.00109383, 0.000772576, 66.1086, -20.1643, 0, 0.00105874, 22.9592, 8.8124, 40.9846, 13.4202, 10.7715, 36.3012, 8.06757E-05, -0.000254795, 0.000567527, -5.32053E-05, -5.32053E-05, -5.32053E-05
5202, 1,0.00133724, 0.000310454, 0.000226645, 82.7806, 19.1441, 0.00508121, 312.207, -96.789, 0, 0.00109802, 0.00158343, 0.00107497, 99.1843, -32.0245, 0, 0.00109687, 0.00112325, 0.000800871, 67.8195, -20.4319, 0, 0.00109666, 24.3586, 22.5114, 49.2035, 4.95576, 16.8149, 39.525, -5.95838E-06, -9.97703E-05, 0.000625205, -0.000229824, -0.000229824, -0.000229824
5203, 1,0.00146439, 0.000487632, 0.000342694, 91.515, 30.3327, 0.00460855, 283.537, -88.6611, 0, 0.00113589, 0.00190061, 0.00127726, 119.735, -39.156, 0, 0.00113498, 0.00107295, 0.000754662, 65.2036, -20.0497, 0, 0.00113463, 34.7659, 30.6596, 52.0425, 6.51126, 17.8078, 35.8302, 0.000106941, -4.52668E-05, 0.000573411, -0.000185665, -0.000185665, -0.000185665
5204, 1,0.00159266, 0.000661147, 0.000451383, 99.7639, 41.3181, 0.00396412, 247.034, -80.5374, 0, 0.00117366, 0.00223867, 0.00150453, 140.413, -46.2761, 0, 0.00117301, 0.000967731, 0.000656172, 60.0685, -19.7298, 0, 0.00117251, 46.8129, 35.9748, 56.0406, 12.1589, 19.9031, 27.1273, 0.000254397, -4.66075E-05, 0.000542696, -5.67396E-05, -5.67396E-05, -5.67396E-05
5205, 1,0.000888383, -8.94388E-05, 8.3764E-05, 52.3636, -4.29582, 0.00474561, 294.293, -93.6126, 0, 0.0010569, 0.000901111, 0.000664165, 52.8867, -14.8951, 0, 0.00105555, 0.000887021, 0.000646277, 52.3974, -15.1146, 0, 0.00105555, 14.9226, -1.58092, 31.3435, 9.50599, 4.39412, 31.4437, 5.76148E-05, -0.000316395, 0.000500392, -5.72727E-05, -5.72727E-05, -5.72727E-05
5206, 1,0.000997237, 0.000217537, 0.000168908, 60.5037, 13.081, 0.00438747, 267.916, -81.3118, 0, 0.00109476, 0.00113366, 0.000786899, 70.0604, -21.8254, 0, 0.0010937, 0.00089351, 0.000662807, 52.4778, -14.645, 0, 0.00109357, 15.8794, 11.2881, 38.3087, 0.732099, 9.54102, 33.6619, -2.35608E-05, -0.00016359, 0.000541172, -0.000227409, -0.000227409, -0.000227409
5207, 1,0.00107833, 0.000386405, 0.000277234, 66.8714, 23.8465, 0.00372306, 226.692, -68.5618, 0, 0.00113266, 0.00140167, 0.000950875, 88.1171, -28.4827, 0, 0.00113192, 0.000810272, 0.000591472, 48.0345, -13.8643, 0, 0.00113165, 25.6508, 18.9664, 40.8309, 1.94255, 9.9404, 29.7101, 8.4908E-05, -0.000109625, 0.000486661, -0.000182832, -0.000182832, -0.000182832
5208, 1,0.00117347, 0.000554851, 0.000381187, 73.0278, 34.5744, 0.00279982, 173.465, -55.7941, 0, 0.00117023, 0.00171327, 0.00116065, 106.983, -34.7441, 0, 0.00116983, 0.000659417, 0.000457191, 40.1725, -12.7271, 0, 0.00116941, 36.5785, 23.4431, 44.2107, 6.77345, 11.124, 20.2838, 0.000223644, -0.00011299, 0.000452766, -5.6963E-05, -5.6963E-05, -5.6963E-05
5209, 1,0.00062962, -0.000151667, 0.000113018, 34.1909, -8.82374, 0.00422702, 261.327, -82.1606, 0, 0.00105357, 0.000589576, 0.000503417, 30.3332, -5.42668, 0, 0.00105226, 0.000695733, 0.000536613, 39.3191, -9.98209, 0, 0.00105234, 7.01662, -12.3255, 21.5889, 5.6556, -2.23715, 26.5278, 3.91896E-05, -0.000383494, 0.000432312, -5.85785E-05, -5.85785E-05, -5.85785E-05
5210, 1,0.000691339, 0.000137875, 0.000124494, 39.7186, 7.6413, 0.00371403, 224.283, -65.382, 0, 0.00109143, 0.000721243, 0.000535666, 42.4873, -11.7251, 0, 0.00109048, 0.000690846, 0.000550815, 38.4328, -8.9586, 0, 0.00109044, 7.59957, -0.141415, 27.717, -3.36483, 2.14131, 28.0993, -3.8539E-05, -0.000232964, 0.000461671, -0.000223943, -0.000223943, -0.000223943
5211, 1,0.000715913, 0.000289151, 0.000215634, 43.1396, 17.5505, 0.00287557, 171.403, -48.1087, 0, 0.00112933, 0.000920715, 0.000641295, 57.1767, -17.7074, 0, 0.00112878, 0.000579948, 0.000461256, 32.2502, -7.56371, 0, 0.00112859, 16.6249, 6.94758, 29.5498, -2.63932, 1.82322, 23.5072, 6.61226E-05, -0.000178709, 0.000399735, -0.000178723, -0.000178723, -0.000178723
5212, 1,0.000766589, 0.000449735, 0.000312044, 47.0148, 27.8917, 0.00169266, 102.134, -30.5603, 0, 0.00116672, 0.00119899, 0.000827226, 74.2648, -23.4938, 0, 0.00116659, 0.000375453, 0.000281246, 21.4273, -5.98594, 0, 0.00116626, 26.8701, 10.8746, 32.7366, 1.8094, 2.36091, 13.7875, 0.000199094, -0.000184192, 0.00036602, -5.28952E-05, -5.28952E-05, -5.28952E-05
5213, 1,0.000450961, -0.000241279, 0.000169379, 19.776, -14.6924, 0.00371782, 228.782, -70.6377, 0, 0.00105035, 0.000430016, 0.000495747, 15.1757, 4.09495, 0, 0.00104908, 0.000535533, 0.000458606, 27.6804, -4.82827, 0, 0.00104923, -0.747046, -23.3242, 11.7864, 1.88599, -9.04063, 21.6394, 2.47866E-05, -0.000454892, 0.000363646, -5.76822E-05, -5.76822E-05, -5.76822E-05
5214, 1,0.000463825, -0.000132735, 0.000110818, 22.4225, -6.87037, 0.00307453, 182.131, -49.236, 0, 0.0010882, 0.000424712, 0.000400518, 19.924, -1.58282, 0, 0.00108736, 0.000532273, 0.000483342, 26.4524, -3.23638, 0, 0.00108739, -0.558129, -11.785, 17.0916, -7.40597, -5.41446, 22.5296, -5.0264E-05, -0.000305863, 0.000381762, -0.000218739, -0.000218739, -0.000218739
5215, 1,0.000420084, 0.000200128, 0.000162175, 22.3486, 11.646, 0.00212175, 120.433, -27.4511, 0, 0.00112605, 0.000495905, 0.000387303, 28.6574, -7.00363, 0, 0.00112568, 0.000413549, 0.000394414, 19.5577, -1.32469, 0, 0.00112557, 7.84, -5.19885, 18.3697, -7.06468, -6.37029, 17.4091, 5.11445E-05, -0.000251199, 0.000313566, -0.000172455, -0.000172455, -0.000172455
5216, 1,0.000405979, 0.000346657, 0.000244794, 23.0518, 21.3115, 0.000816525, 41.6676, -5.43044, 0, 0.00116328, 0.000718846, 0.000527154, 43.1147, -12.2254, 0, 0.0011634, 0.000193455, 0.000207167, 7.45283, 0.792225, 0, 0.00116316, 17.3603, -1.86572, 21.1815, -3.06177, -6.53528, 7.22038, 0.000178611, -0.000258292, 0.000277812, -4.67073E-05, -4.67073E-05, -4.67073E-05
5217, 1,0.000386799, -0.000339987, 0.000234126, 11.1751, -21.017, 0.00321621, 196.533, -58.9837, 0, 0.00104715, 0.000431973, 0.000650663, 8.30495, 13.6961, 0, 0.00104591, 0.000425993, 0.000431895, 18.5081, 0.372286, 0, 0.00104614, -8.39336, -34.5284, 1.83354, -1.82626, -15.9878, 16.6972, 1.43358E-05, -0.00052914, 0.000292588, -5.46415E-05, -5.46415E-05, -5.46415E-05
5218, 1,0.000371243, -0.000194879, 0.000137622, 11.7993, -11.4696, 0.0024935, 142.661, -32.9163, 0, 0.00108489, 0.000354133, 0.000491477, 8.62797, 8.56474, 0, 0.00108416, 0.000437831, 0.000480101, 17.6386, 2.4835, 0, 0.00108426, -8.57478, -23.5456, 6.42615, -11.364, -13.0503, 16.9637, -5.88892E-05, -0.000380884, 0.000300791, -0.000211798, -0.000211798, -0.000211798
5219, 1,0.000292109, 0.000129925, 0.000127406, 9.57224, 6.63603, 0.00155738, 78.3061, -6.53717, 0, 0.00112266, 0.00028517, 0.000346906, 10.0235, 3.68998, 0, 0.00112248, 0.000341717, 0.000422126, 11.5543, 4.91403, 0, 0.00112245, -0.774678, -17.4337, 7.13839, -11.3983, -14.6244, 11.2806, 3.94609E-05, -0.00032543, 0.000226008, -0.000164405, -0.000164405, -0.000164405
5220, 1,0.000225959, 0.000247517, 0.000181337, 7.77944, 14.927, 0.000630685, 14.4987, 19.6523, 0, 0.00115975, 0.000365798, 0.000353607, 17.9986, -1.01425, 0, 0.00116013, 0.000194102, 0.000315469, 2.85711, 7.5331, 0, 0.00115997, 8.10197, -14.6264, 9.5672, -7.78019, -15.4437, 0.62456, 0.00016229, -0.000333406, 0.000187386, -3.81421E-05, -3.81421E-05, -3.81421E-05
5221, 1,0.000411129, -0.000442458, 0.000302, 7.01713, -27.5351, 0.00272607, 164.726, -47.1325, 0, 0.00104401, 0.000516719, 0.000889438, 5.40652, 23.3628, 0, 0.00104281, 0.000377679, 0.000467045, 12.4066, 5.60901, 0, 0.00104311, -15.9174, -45.8623, -8.30873, -5.4756, -23.028, 11.6765, 7.77395E-06, -0.000604903, 0.000218092, -4.94575E-05, -4.94575E-05, -4.94575E-05
5222, 1,0.000392506, -0.000281154, 0.000190789, 6.97956, -17.2238, 0.00200441, 107.433, -16.3994, 0, 0.00108159, 0.000430511, 0.000729652, 4.84606, 18.7326, 0, 0.00108098, 0.000409073, 0.000542805, 12.0975, 8.21708, 0, 0.00108116, -16.4778, -35.3614, -4.35854, -15.262, -20.7277, 11.3384, -6.47292E-05, -0.000456567, 0.000217367, -0.000203329, -0.000203329, -0.000203329
5223, 1,0.000325843, -0.000160335, 0.00012762, 4.91281, -8.80699, 0.00127074, 49.1809, 14.6337, 0, 0.00111934, 0.000336462, 0.000568138, 4.44064, 14.3629, 0, 0.00111934, 0.000350065, 0.000529985, 7.48303, 11.1423, 0, 0.0011194, -9.22537, -29.6713, -4.19199, -15.6394, -22.8761, 5.08858, 3.073E-05, -0.000399897, 0.000136071, -0.000154758, -0.000154758, -0.000154758
5224, 1,0.000270346, 0.000157842, 0.000127191, 3.40717, 9.00666, 0.000863198, 6.70303, 45.2872, 0, 0.00115625, 0.000307574, 0.000474414, 7.00864, 10.1709, 0, 0.00115691, 0.000270055, 0.000499012, 1.65823, 14.2684, 0, 0.00115683, -0.952286, -27.3466, -2.21394, -12.3915, -24.325, -6.0886, 0.000149541, -0.000408021, 9.33094E-05, -2.77255E-05, -2.77255E-05, -2.77255E-05
5225, 1,0.000480891, -0.000547004, 0.000371464, 4.95936, -34.1627, 0.00225558, 133.743, -35.0651, 0, 0.00104083, 0.000635799, 0.00116357, 3.99931, 33.1, 0, 0.00103968, 0.000380386, 0.000553827, 8.79909, 10.8892, 0, 0.00104005, -23.3414, -57.2618, -18.6968, -9.08163, -30.1232, 6.53727, 4.77741E-06, -0.000680835, 0.000139057, -4.23607E-05, -4.23607E-05, -4.23607E-05
5226, 1,0.000468249, -0.000377302, 0.000256223, 4.7935, -23.4507, 0.00164276, 78.1279, 0.267023, 0, 0.00107821, 0.000556027, 0.00101729, 3.36205, 28.9209, 0, 0.00107771, 0.000427663, 0.000653173, 8.85544, 13.9674, 0, 0.00107797, -24.284, -47.1526, -15.3262, -19.1125, -28.392, 5.60225, -6.81075E-05, -0.000531349, 0.000130248, -0.000193519, -0.000193519, -0.000193519
5227, 1,0.000420995, -0.000230446, 0.000162948, 3.20779, -13.802, 0.00122499, 31.1932, 36.1052, 0, 0.00111589, 0.000469238, 0.000870543, 2.79682, 25.0235, 0, 0.00111609, 0.000401588, 0.000681047, 5.43441, 17.368, 0, 0.00111623, -17.5409, -41.8427, -15.687, -19.8117, -31.0762, -1.21602, 2.45209E-05, -0.000473106, 4.25535E-05, -0.000143848, -0.000143848, -0.000143848
5228, 1,0.000381983, -0.000103358, 9.86294E-05, 2.09183, -5.08852, 0.00117873, 2.09875, 71.6242, 0, 0.00115272, 0.000414646, 0.000759977, 3.82268, 21.3286, 0, 0.00115366, 0.00036454, 0.000701046, 1.20011, 20.9955, 0, 0.00115367, -9.81432, -39.951, -14.2205, -16.9029, -33.1234, -12.9601, 0.000140004, -0.000480554, -5.61275E-06, -1.57452E-05, -1.57452E-05, -1.57452E-05
5229, 1,0.000572677, -0.000652965, 0.000441947, 3.84399, -40.867, 0.00182224, 104.451, -22.835, 0, 0.00103775, 0.000771129, 0.00145513, 3.25016, 42.9078, 0, 0.00103664, 0.000415491, 0.000673811, 6.69015, 16.2131, 0, 0.00103709, -30.6743, -68.6388, -29.4104, -12.6451, -37.2121, 1.21782, 5.2531E-06, -0.000755279, 5.39164E-05, -3.32688E-05, -3.32688E-05, -3.32688E-05
5230, 1,0.000567515, -0.000477772, 0.000323916, 3.67403, -29.884, 0.00142949, 55.7739, 16.9542, 0, 0.00107491, 0.000699529, 0.00132321, 2.66114, 39.1322, 0, 0.00107452, 0.000474365, 0.0007919, 6.92237, 19.7367, 0, 0.00107486, -32.0142, -58.8525, -26.5299, -22.9291, -35.9975, -0.283465, -6.93574E-05, -0.000603964, 3.84633E-05, -0.000182549, -0.000182549, -0.000182549
5231, 1,0.000536712, -0.000318919, 0.000217852, 2.44961, -19.6657, 0.00131532, 19.4225, 57.7814, 0, 0.00111252, 0.000623347, 0.0011941, 2.13998, 35.6753, 0, 0.00111291, 0.000473634, 0.000852706, 4.314, 23.5943, 0, 0.00111313, -25.7488, -53.8696, -27.4074, -23.9354, -39.1665, -7.68098, 2.04314E-05, -0.000543459, -5.57941E-05, -0.000131925, -0.000131925, -0.000131925
5232, 1,0.000510784, -0.000155939, 0.000115964, 1.52535, -9.26019, 0.00158778, 1.78336, 98.2522, 0, 0.00114922, 0.000564074, 0.00108742, 2.59259, 32.4693, 0, 0.00115045, 0.000465303, 0.000909363, 0.982957, 27.7206, 0, 0.00115054, -18.5206, -52.3681, -26.5192, -21.3422, -41.7857, -20.034, 0.000133357, -0.00054927, -0.000110968, -2.41182E-06, -2.41182E-06, -2.41182E-06
5233, 1,0.000675699, -0.000759983, 0.000513161, 3.14533, -47.6293, 0.00146577, 78.8048, -10.5961, 0, 0.0010346, 0.000914909, 0.00175659, 2.7873, 52.8052, 0, 0.00103354, 0.000468947, 0.000813179, 5.34989, 21.6006, 0, 0.00103406, -37.96, -79.9068, -40.5487, -16.202, -44.2305, -4.3694, 8.61867E-06, -0.00082645, -3.88374E-05, -2.2574E-05, -2.2574E-05, -2.2574E-05
5234, 1,0.000678507, -0.000580457, 0.00039274, 3.06619, -36.4227, 0.001361, 40.2884, 33.5029, 0, 0.00107154, 0.000851778, 0.00163832, 2.33379, 49.358, 0, 0.00107126, 0.000537366, 0.000947366, 5.72227, 25.5163, 0, 0.00107168, -39.6868, -70.3704, -38.0166, -26.7182, -43.4795, -6.35118, -6.88375E-05, -0.000672794, -5.91099E-05, -0.000170525, -0.000170525, -0.000170525
5235, 1,0.000661118, -0.000415276, 0.000281537, 2.08584, -25.899, 0.00148467, 11.4427, 79.3154, 0, 0.00110903, 0.000785381, 0.00152554, 1.85263, 46.3187, 0, 0.00110963, 0.000556261, 0.0010349, 3.66144, 29.8218, 0, 0.00110992, -33.8617, -65.6846, -39.4099, -28.0173, -47.0987, -14.3495, 1.83418E-05, -0.000609574, -0.000160245, -0.000118983, -0.000118983, -0.000118983
5236, 1,0.000646116, -0.000240252, 0.000165195, 1.2479, -14.9239, 0.0020094, 1.79964, 125.05, 0, 0.00114559, 0.000727516, 0.00142839, 2.0051, 43.5898, 0, 0.00114711, 0.000569078, 0.00112063, 0.879856, 34.4406, 0, 0.00114728, -27.0932, -64.5032, -39.1732, -25.7297, -50.2362, -27.3559, 0.000129309, -0.00061247, -0.000224111, 1.20399E-05, 1.20399E-05, 1.20399E-05
5237, 1,0.000786754, -0.000867927, 0.000585032, 2.75437, -54.4426, 0.00124299, 59.5363, 1.46038, 0, 0.00103156, 0.00106516, 0.0020653, 2.55405, 62.7184, 0, 0.00103054, 0.000534929, 0.000965363, 4.53744, 26.9786, 0, 0.00103113, -45.2047, -90.9701, -51.9804, -19.7484, -51.1072, -10.0801, 1.35175E-05, -0.000893428, -0.000137575, -1.13892E-05, -1.13892E-05, -1.13892E-05
5238, 1,0.000796493, -0.000684405, 0.000462195, 2.73584, -43.0205, 0.00142636, 31.2791, 49.7664, 0, 0.00106828, 0.0010091, 0.00195941, 2.1939, 59.6034, 0, 0.00106811, 0.000610686, 0.00111372, 4.95758, 31.3127, 0, 0.0010686, -47.3147, -81.624, -49.8714, -30.4813, -50.7804, -12.6764, -6.65707E-05, -0.000736032, -0.00016434, -0.000157203, -0.000157203, -0.000157203
5239, 1,0.000790688, -0.000515253, 0.000348264, 1.98187, -32.2994, 0.00171802, 6.74512, 100.476, 0, 0.00110561, 0.000951882, 0.0018614, 1.80341, 56.9285, 0, 0.00110639, 0.000645568, 0.00122363, 3.32362, 36.0239, 0, 0.00110677, -41.8645, -77.1856, -51.7354, -32.0321, -54.7933, -21.2462, 1.8491E-05, -0.000669704, -0.000272372, -0.000104592, -0.000104592, -0.000104592
5240, 1,0.000784133, -0.000336285, 0.000226401, 1.10985, -21.1343, 0.00242966, 1.72595, 151.875, 0, 0.00114205, 0.000896784, 0.00177466, 1.7001, 54.6728, 0, 0.00114385, 0.000674119, 0.00133296, 0.848381, 41.1362, 0, 0.0011441, -35.4989, -76.262, -52.2573, -30.0293, -58.3938, -34.9855, 0.000128405, -0.000668294, -0.000347162, 2.81679E-05, 2.81679E-05, 2.81679E-05
5241, 1,0.000904526, -0.000976602, 0.00065739, 2.58309, -61.2989, 0.00118269, 47.7294, 13.6004, 0, 0.00102843, 0.00122129, 0.00238013, 2.48995, 72.6903, 0, 0.00102745, 0.000610016, 0.00112636, 4.06581, 32.3889, 0, 0.00102812, -52.5715, -101.71, -63.7888, -23.4377, -57.7504, -15.9787, 1.71745E-05, -0.000952499, -0.000243926, -2.30297E-06, -2.30297E-06, -2.30297E-06
5242, 1,0.000920787, -0.00078914, 0.000532055, 2.71378, -49.6554, 0.00162791, 29.1431, 65.3995, 0, 0.00106496, 0.00117112, 0.00228624, 2.26936, 69.7936, 0, 0.00106488, 0.000692977, 0.00128948, 4.63358, 37.0499, 0, 0.00106545, -54.8984, -92.4763, -62.0061, -34.1982, -57.7908, -19.1609, -6.34927E-05, -0.000791612, -0.000277142, -0.00014312, -0.00014312, -0.00014312
5243, 1,0.000924365, -0.000617046, 0.000416102, 2.10911, -38.781, 0.00202312, 5.58678, 121.458, 0, 0.0011021, 0.00112173, 0.00220106, 1.94796, 67.4835, 0, 0.00110307, 0.000740217, 0.00141765, 3.26594, 42.1792, 0, 0.00110352, -49.6662, -88.2424, -64.542, -35.8801, -62.1439, -28.5137, 2.27743E-05, -0.000721305, -0.000396273, -8.66853E-05, -8.66853E-05, -8.66853E-05
5244, 1,0.000922826, -0.000436639, 0.000292244, 1.04801, -27.5432, 0.00285516, 2.48904, 177.909, 0, 0.00113846, 0.00106817, 0.00212222, 1.53778, 65.6817, 0, 0.00114053, 0.000779269, 0.00154463, 0.864341, 47.7685, 0, 0.00114087, -43.7032, -87.4997, -65.8422, -34.2052, -66.122, -42.9783, 0.000131273, -0.000714328, -0.000482576, 4.65967E-05, 4.65967E-05, 4.65967E-05
5245, 1,0.00102539, -0.00108596, 0.000730173, 2.63859, -68.1936, 0.00128586, 43.4496, 25.8949, 0, 0.00102543, 0.00137993, 0.00269635, 2.61641, 82.4962, 0, 0.00102449, 0.000689699, 0.00129016, 3.89532, 37.6088, 0, 0.00102524, -59.7851, -111.822, -75.8815, -26.9989, -63.8607, -21.9668, 2.23013E-05, -0.00100139, -0.000359224, 7.32393E-06, 7.32393E-06, 7.32393E-06
5246, 1,0.00104931, -0.000894363, 0.000602156, 2.77106, -56.3133, 0.00198812, 34.2902, 81.3203, 0, 0.00106168, 0.00133606, 0.00261559, 2.32447, 80.1228, 0, 0.0010617, 0.000781345, 0.00147037, 4.48209, 42.9237, 0, 0.00106234, -62.7979, -103.023, -74.5479, -38.2331, -64.6113, -25.9267, -6.37687E-05, -0.000837963, -0.000398071, -0.000132522, -0.000132522, -0.000132522
5247, 1,0.0010581, -0.000719898, 0.000484527, 2.31775, -45.3081, 0.00246477, 11.6871, 141.27, 0, 0.0010987, 0.00129023, 0.00254282, 2.06534, 78.0424, 0, 0.00109983, 0.000836979, 0.00161605, 3.39292, 48.3461, 0, 0.00110036, -57.2277, -99.019, -77.8806, -39.4951, -69.3406, -36.2026, 3.34322E-05, -0.000766214, -0.000533304, -6.24717E-05, -6.24717E-05, -6.24717E-05
5248, 1,0.00106085, -0.000539082, 0.000360201, 1.10709, -34.0431, 0.00322944, -0.343133, 205.49, 0, 0.00113493, 0.00123868, 0.00246753, 1.42543, 76.466, 0, 0.0011373, 0.000884432, 0.00175371, 1.14277, 54.1858, 0, 0.00113771, -51.2737, -98.1982, -79.9261, -37.8397, -73.4027, -51.3151, 0.000144412, -0.000753091, -0.000631888, 7.35554E-05, 7.35554E-05, 7.35554E-05
5249, 1,0.00115319, -0.00119589, 0.000803346, 2.9922, -75.1198, 0.0016136, 50.2008, 37.674, 0, 0.00102228, 0.00154559, 0.00301705, 3.03334, 92.1584, 0, 0.00102137, 0.000776987, 0.0014589, 4.06285, 42.6619, 0, 0.00102219, -67.1689, -121.14, -88.166, -30.7353, -69.312, -27.9383, 2.19778E-05, -0.00103598, -0.00048105, 1.11493E-05, 1.11493E-05, 1.11493E-05
5250, 1,0.00118022, -0.00100025, 0.000672535, 3.30633, -63.0037, 0.00254106, 47.6337, 98.4883, 0, 0.00105841, 0.00150401, 0.0029472, 2.91865, 89.9106, 0, 0.00105855, 0.000872016, 0.00165296, 4.79959, 48.2533, 0, 0.00105927, -69.8955, -112.467, -87.3694, -41.4663, -70.4926, -32.801, -5.449E-05, -0.000868234, -0.000535843, -0.000112443, -0.000112443, -0.000112443
5251, 1,0.00119303, -0.000823769, 0.000553722, 2.25591, -51.8804, 0.00302426, 21.5563, 163.49, 0, 0.00109522, 0.00146125, 0.00289154, 2.06011, 89.2019, 0, 0.00109655, 0.000934475, 0.00182134, 3.20089, 55.1255, 0, 0.00109715, -65.6642, -110.159, -91.7829, -43.9788, -77.1041, -44.2936, 3.56526E-05, -0.000807246, -0.000675514, -4.64185E-05, -4.64185E-05, -4.64185E-05
5252, 1,0.00118636, -0.000643044, 0.000429469, 0.644386, -40.6127, 0.00376257, 14.2363, 219.735, 0, 0.00113158, 0.00139994, 0.00280011, 1.07383, 87.4807, 0, 0.00113401, 0.000974125, 0.00194618, 0.503088, 60.8415, 0, 0.0011345, -58.5984, -108.769, -95.0751, -41.3297, -80.6709, -60.5239, 0.000166821, -0.000784079, -0.000801987, 0.00010776, 0.00010776, 0.00010776
5253, 1,0.00126965, -0.00130645, 0.000876627, 2.48872, -82.0952, 0.00218774, 66.1898, 52.7807, 0, 0.00101912, 0.00170134, 0.00332024, 2.67765, 101.947, 0, 0.0010183, 0.000851341, 0.00160703, 3.30382, 47.8012, 0, 0.0010192, -74.7999, -129.232, -101.808, -34.7844, -73.5747, -35.0446, 1.71295E-05, -0.00103866, -0.000632285, 8.53156E-06, 8.53156E-06, 8.53156E-06
5254, 1,0.00131646, -0.00110711, 0.000744007, 2.8372, -69.7415, 0.00325253, 64.5836, 120.898, 0, 0.00105496, 0.00167377, 0.00329449, 2.22763, 101.558, 0, 0.00105529, 0.000972198, 0.00185676, 4.30081, 55.439, 0, 0.00105608, -79.3024, -124.088, -101.284, -46.9182, -78.7869, -40.6119, -6.42513E-05, -0.000913884, -0.000669364, -0.000109606, -0.000109606, -0.000109606
5255, 1,0.00130963, -0.000927701, 0.000622143, 1.96026, -58.4552, 0.00381452, 43.4104, 184.215, 0, 0.00109173, 0.00161591, 0.00320084, 2.0359, 99.4727, 0, 0.00109324, 0.00101009, 0.00198266, 2.52682, 61.0341, 0, 0.00109392, -72.4349, -118.921, -107.062, -47.0447, -82.4651, -53.5925, 5.98159E-05, -0.000808728, -0.00086479, -1.35102E-05, -1.35102E-05, -1.35102E-05
5256, 1,0.00132058, -0.000746709, 0.00049854, 0.648004, -47.1984, 0.00520079, 8.67715, 235.373, 0.0497482, 0.00112803, 0.00156946, 0.00313133, 1.15102, 98.1732, 0, 0.00113066, 0.00107222, 0.00213826, 0.238111, 67.197, 0, 0.00113123, -66.4851, -119.082, -108.953, -45.3661, -87.888, -68.337, 0.000175756, -0.000795718, -0.00097273, 0.000128769, 0.000128769, 0.000128769
5257, 1,0.00142766, -0.00141828, 0.000950504, 6.033, -89.1696, 0.00293327, 87.3894, 71.8489, 0, 0.00101595, 0.0018977, 0.00365504, 6.24207, 108.874, 0, 0.00101534, 0.000967084, 0.0017851, 6.61446, 49.9992, 0, 0.00101631, -79.3736, -133.689, -113.56, -35.6738, -74.4217, -39.902, 3.1211E-05, -0.00100264, -0.000794705, 2.55001E-05, 2.55001E-05, 2.55001E-05
5258, 1,0.00145796, -0.0012141, 0.000815501, 5.55321, -76.4996, 0.00400719, 77.7736, 151.129, 0, 0.00105153, 0.00185538, 0.00360209, 5.22628, 109.3, 0, 0.00105224, 0.00107322, 0.00201571, 6.85728, 58.7069, 0, 0.00105311, -87.0184, -130.222, -110.658, -50.8529, -81.5716, -43.6962, -0.000101309, -0.000899367, -0.000772348, -0.00013813, -0.00013813, -0.00013813
5259, 1,0.00146142, -0.00103281, 0.000691062, 2.9144, -65.0961, 0.00543396, 34.6781, 209.886, 0.0518099, 0.00108809, 0.00180432, 0.00355333, 3.26497, 110.461, 0, 0.00108995, 0.00112258, 0.00218817, 3.03272, 67.7023, 0, 0.00109071, -78.5346, -127.992, -124.857, -49.4747, -88.6014, -65.0308, 0.000115348, -0.000792615, -0.00111464, 5.02899E-05, 5.02899E-05, 5.02899E-05
5260, 1,0.00155021, -0.000845488, 0.000563032, 5.99876, -53.5574, 0.00782416, 3.90005, 244.541, 0.146488, 0.00112453, 0.0018294, 0.00353484, 6.396, 107.108, -2.71051E-20, 0.00112743, 0.00127146, 0.00241196, 5.68913, 71.8383, -2.71051E-20, 0.00112808, -75.3073, -122.623, -123.394, -50.1822, -88.8126, -76.5203, 0.000145935, -0.000675311, -0.0012082, 0.000114554, 0.000114554, 0.000114554
5261, 1,0.00152474, -0.00152899, 0.00102275, -1.08536, -96.266, 0.0038709, 83.0604, 105.086, 0.016068, 0.00101245, 0.00203495, 0.00395638, -0.718331, 126.411, 0, 0.00101211, 0.00101941, 0.00192635, -0.879386, 62.7123, 0, 0.00101316, -98.0883, -144.425, -136.719, -50.7606, -81.4537, -55.9227, -9.16317E-05, -0.000913318, -0.00104564, -9.7281E-05, -9.7281E-05, -9.7281E-05
5262, 1,0.00153999, -0.00131899, 0.000883709, 7.40038, -83.243, 0.00546677, 42.9597, 201.006, 0.0514954, 0.00104753, 0.00197148, 0.00382115, 6.87826, 114.862, 0, 0.00104909, 0.00111463, 0.00208311, 8.35159, 59.7816, 0, 0.00105003, -87.9464, -131.786, -124.854, -48.2785, -79.5159, -51.5504, -4.12237E-05, -0.000785392, -0.00103656, -7.59393E-05, -7.59393E-05, -7.59393E-05
5263, 1,0.00158015, -0.00113163, 0.000757253, 7.32565, -71.5036, 0.00800611, 3.55978, 234.628, 0.165283, 0.00108414, 0.00195721, 0.00379935, 7.44861, 114.887, 0, 0.00108667, 0.00120642, 0.00229886, 7.70472, 67.852, 0, 0.0010875, -85.5119, -130.357, -128.791, -52.892, -87.6574, -63.0066, 3.92466E-05, -0.000698345, -0.00120453, -1.91895E-05, -1.91895E-05, -1.91895E-05
5264, 1,0.00173371, -0.000941185, 0.000627645, 4.25833, -59.7685, 0.0112316, -4.82481, 253.657, 0.27785, 0.00112073, 0.00204245, 0.00391877, 4.49267, 122.196, 0, 0.00112397, 0.00142522, 0.00266949, 4.07505, 82.7309, 0, 0.00112469, -85.6141, -130.276, -150.699, -56.906, -93.8229, -97.4639, 0.000170499, -0.000524358, -0.00162848, 0.000147769, 0.000147769, 0.000147769
5265, 1,0.00167367, -0.00164911, 0.00110236, 6.46862, -104.034, 0.0074199, 32.8738, 138.864, 0.162362, 0.00100879, 0.00222123, 0.00427631, 6.47689, 128.553, 0, 0.00100918, 0.00112852, 0.00208472, 6.7984, 59.8733, 0, 0.00101031, -93.1502, -149.53, -142.98, -41.881, -83.1641, -54.5749, 2.11925E-05, -0.000867397, -0.00123903, 1.96741E-05, 1.96741E-05, 1.96741E-05
5266, 1,0.00166299, -0.00142524, 0.000955419, 3.54471, -90.178, 0.00952689, -3.0178, 260.505, 0.201659, 0.00104292, 0.00214388, 0.00420309, 3.91638, 129.716, 0, 0.0010457, 0.00118652, 0.00230812, 4.1021, 70.1464, 0, 0.00104671, -106.37, -140.81, -141.967, -62.6189, -86.2594, -61.5607, -0.000220282, -0.000625481, -0.00125836, -0.000241286, -0.000241286, -0.000241286
5267, 1,0.00172469, -0.00122886, 0.00082224, 1.73811, -77.8834, 0.0135899, 0.740943, 264.52, 0.336347, 0.00107948, 0.00213704, 0.00422525, 1.89317, 133.422, 0, 0.00108285, 0.00131351, 0.00258623, 1.76288, 82.227, 0, 0.00108375, -97.9907, -143.13, -159.145, -61.7374, -98.2492, -86.6945, 4.98091E-05, -0.000557965, -0.00165619, 1.07183E-06, 1.07183E-06, 1.07183E-06
5268, 1,0.00184281, -0.00103938, 0.000693733, 5.92969, -66.1797, 0.0163813, -7.73531, 263.896, 0.456947, 0.00111624, 0.00218724, 0.00422294, 6.07793, 129.803, 0, 0.00112031, 0.00149872, 0.00283962, 5.79364, 86.2185, 0, 0.0011211, -87.9694, -141.1, -160.341, -56.0682, -102.075, -100.513, 0.000214656, -0.000513124, -0.00180722, 0.000193964, 0.000193964, 0.000193964
5269, 1,0.00195953, -0.00177681, 0.00118804, 11.3362, -112.196, 0.0117908, -1.98492, 158.025, 0.36255, 0.00100485, 0.00255522, 0.00480343, 11.8977, 142.237, 0, 0.00100577, 0.00136563, 0.00243465, 11.4258, 68.4209, 0, 0.00100697, -107.492, -160.869, -158.349, -51.7589, -92.296, -61.2077, -7.36676E-05, -0.000770844, -0.00146267, -6.33342E-05, -6.33342E-05, -6.33342E-05
5270, 1,0.00183385, -0.00154478, 0.00103599, 7.89168, -97.6855, 0.0152738, 2.2138, 272.015, 0.378933, 0.00103873, 0.00235329, 0.00462579, 8.54663, 138.896, 0, 0.0010422, 0.0013208, 0.00257025, 7.62864, 74.8373, 0, 0.00104329, -108.675, -149.672, -158.34, -60.8388, -93.4769, -70.1961, -0.000133498, -0.0005677, -0.00155181, -0.000140692, -0.000140692, -0.000140692
5271, 1,0.0019691, -0.00133596, 0.000895672, 11.9509, -84.6664, 0.0193274, 0.842837, 279.861, 0.505777, 0.0010751, 0.00242272, 0.00464712, 12.4336, 137.841, 0, 0.0010795, 0.00151649, 0.00286011, 11.754, 82.4816, 0, 0.00108047, -101.979, -146.045, -165.499, -62.4551, -99.2986, -85.6911, 1.87006E-05, -0.000455674, -0.00179901, -2.82704E-05, -2.82704E-05, -2.82704E-05
5272, 1,0.00213635, -0.00114456, 0.000764738, 8.75649, -72.8546, 0.0220271, -7.92216, 271.673, 0.638907, 0.00111173, 0.00251241, 0.004738, 9.29418, 146.445, 0, 0.00111672, 0.00176083, 0.00321876, 8.37022, 98.7404, 0, 0.00111758, -100.052, -153.174, -186.11, -64.8504, -112.85, -118.521, 0.000204504, -0.000412479, -0.00216773, 0.000186981, 0.000186981, 0.000186981
5273, 1,0.00212298, -0.00192141, 0.00128544, 13.1608, -121.228, 0.0145577, -6.61297, 162.893, 0.482503, 0.00100165, 0.00276566, 0.00522191, 13.6471, 154.16, 0, 0.00100277, 0.00148135, 0.00266196, 13.0833, 74.5799, 0, 0.00100407, -110.972, -175.422, -176.086, -50.1756, -103.906, -69.6584, 5.91893E-05, -0.000839623, -0.00172002, 8.40904E-05, 8.40904E-05, 8.40904E-05
5274, 1,0.00210661, -0.00166745, 0.00112088, 11.0957, -105.309, 0.0187004, -3.49513, 270.338, 0.510564, 0.00103533, 0.00267351, 0.00514402, 11.6636, 154.076, 0, 0.0010391, 0.00154513, 0.0029211, 11.3664, 85.2631, 0, 0.00104026, -128.269, -162.986, -170.973, -75.9716, -104.937, -74.8807, -0.000289072, -0.000556792, -0.00165328, -0.000278153, -0.000278153, -0.000278153
5275, 1,0.00208216, -0.00144981, 0.000975558, 3.30952, -91.6784, 0.0224621, -5.53659, 283.181, 0.6196, 0.00107111, 0.00258333, 0.00506473, 4.53536, 158.413, 0, 0.00107589, 0.00158108, 0.00311384, 2.13661, 98.7763, 0, 0.00107694, -114.044, -157.441, -203.754, -71.6175, -108.652, -116.059, 9.98443E-05, -0.000327499, -0.00234198, 4.49923E-05, 4.49923E-05, 4.49923E-05
5276, 1,0.00235394, -0.00125634, 0.000841318, 16.3836, -79.7867, 0.0247427, -11.2646, 272.346, 0.740287, 0.00110733, 0.00277813, 0.00529966, 17.141, 153.895, 0, 0.00111291, 0.00193035, 0.00362059, 15.6551, 101.832, 0, 0.00111386, -100.365, -162.325, -198.995, -62.3009, -119.878, -123.317, 0.00032225, -0.000456709, -0.00236198, 0.000294646, 0.000294646, 0.000294646
5277, 1,0.00240934, -0.0020782, 0.00139418, 11.7641, -130.659, 0.0164288, -9.54218, 173.055, 0.555012, 0.000997874, 0.0031113, 0.0058486, 12.9094, 177.873, 0, 0.000999054, 0.00170975, 0.00307581, 11.3505, 92.8845, 0, 0.00100043, -138.344, -196.721, -198.553, -71.944, -124.241, -82.4683, -0.000112038, -0.000879642, -0.00189326, -5.54263E-05, -5.54263E-05, -5.54263E-05
5278, 1,0.00233532, -0.0018009, 0.00121495, 21.731, -113.046, 0.0207563, 0.0491827, 262.756, 0.586285, 0.00103147, 0.00296193, 0.00559735, 23.9299, 154.814, 7.01251E-07, 0.00103542, 0.00171048, 0.00317264, 20.0379, 82.1273, 7.01251E-07, 0.00103664, -124.248, -150.258, -189.936, -68.4253, -91.8989, -86.0576, -0.000159856, -0.000244375, -0.00210665, -0.000136333, -0.000136333, -0.000136333
5279, 1,0.00266605, -0.00158028, 0.00106767, 25.6447, -99.4707, 0.0246493, -8.3054, 278.16, 0.712034, 0.00106673, 0.00322012, 0.00593094, 27.6179, 168.082, 0, 0.00107182, 0.00211251, 0.00379813, 23.8298, 104.03, 0, 0.00107294, -124.129, -164.403, -215.716, -77.8275, -114.892, -119.37, 6.90012E-05, -0.000292838, -0.00250249, 2.5351E-05, 2.5351E-05, 2.5351E-05
5280, 1,0.0024837, -0.00138085, 0.0009278, 0.96516, -87.4616, 0.0272936, -13.6177, 276.093, 0.822486, 0.00110277, 0.00294811, 0.00570185, 2.10023, 186.014, 0, 0.00110859, 0.00202047, 0.00385912, -0.0508307, 129.002, 0, 0.00110961, -125.826, -178.388, -253.828, -85.0569, -132.936, -169.014, 0.000326898, -0.00027968, -0.00306466, 0.000276229, 0.000276229, 0.000276229
5281, 1,0.00288291, -0.00227773, 0.00153258, 29.0506, -139.921, 0.0184887, -5.23097, 176.065, 0.623303, 0.000994632, 0.00366388, 0.00672362, 30.7171, 182.213, 0.00469823, 0.000996041, 0.00210419, 0.0036718, 28.1331, 91.3115, 0.00296853, 0.000997517, -147.174, -184.613, -214.854, -72.8673, -113.004, -88.0629, -0.000154856, -0.000544037, -0.00226398, -3.26277E-05, -3.26277E-05, -3.26277E-05
5282, 1,0.00320456, -0.00197271, 0.00133705, 37.9716, -119.773, 0.0225046, 2.9186, 255.191, 0.654998, 0.00102788, 0.00390312, 0.00685995, 40.6741, 165.788, 0.0161778, 0.00103181, 0.00250781, 0.00419369, 35.6066, 88.6033, 0.0144634, 0.00103311, -144.315, -146.21, -206.84, -81.9144, -87.9674, -95.9282, -0.000320107, 4.70042E-05, -0.00244018, -0.000249745, -0.000249745, -0.000249745
5283, 1,0.0027821, -0.00173835, 0.00118206, 19.3028, -108.721, 0.0272344, -5.01671, 278.399, 0.783859, 0.0010627, 0.00339065, 0.00633297, 22.4807, 183.508, 0, 0.00106808, 0.00217878, 0.00399003, 16.2733, 114.413, 0, 0.00106928, -130.482, -159.02, -261.022, -80.8663, -108.608, -153.764, 0.000226483, 5.89547E-05, -0.00326193, 0.000172202, 0.000172202, 0.000172202
5284, 1,0.00295202, -0.00154159, 0.00104093, 21.8412, -97.0204, 0.0322675, -24.4386, 288.221, 0.986649, 0.00109693, 0.00348974, 0.00664792, 24.1047, 190.875, 0, 0.00110497, 0.00241544, 0.00457231, 19.6716, 128.432, 0, 0.00110609, -122.023, -176.293, -274.31, -77.0346, -131.114, -177.146, 0.000551518, -0.000138743, -0.00350894, 0.000501596, 0.000501596, 0.000501596
5285, 1,0.00381923, -0.00251485, 0.00169493, 23.5027, -149.134, 0.0205904, -4.20186, 181.638, 0.69128, 0.000991636, 0.00467873, 0.00839852, 26.0554, 198.467, 0.0384207, 0.000993132, 0.00296501, 0.0050381, 21.629, 102.249, 0.03582, 0.00099472, -179.667, -172.381, -243.354, -95.2832, -104.586, -106.879, -0.0004655, 2.96996E-05, -0.0028534, -0.000229211, -0.000229211, -0.000229211
5286, 1,0.00376538, -0.00218164, 0.00148309, 22.0298, -129.133, 0.024605, -1.40439, 261.589, 0.725551, 0.00102455, 0.0045384, 0.00813317, 26.3733, 184.093, 0.0414746, 0.00102874, 0.00299607, 0.00518119, 17.9009, 102.74, 0.0394341, 0.00103013, -170.267, -130.442, -251.571, -99.9844, -77.9455, -130.291, -0.00048608, 0.000850679, -0.003421, -0.000332916, -0.000332916, -0.000332916
5287, 1,0.00397109, -0.0019477, 0.00133045, 31.5244, -118.565, 0.0304538, -7.83323, 268.497, 0.924376, 0.00105887, 0.00465134, 0.00830387, 35.8196, 186.734, 0.0355412, 0.00106514, 0.00330163, 0.00568228, 27.4971, 112.289, 0.0355412, 0.00106646, -143.535, -127.656, -289.01, -86.256, -81.1136, -169.496, 0.000244553, 0.000983408, -0.00431794, 0.000262439, 0.000262439, 0.000262439
5288, 1,0.00365225, -0.00175856, 0.00119241, 18.6556, -108.711, 0.0340292, -11.8448, 316.386, 1, 0.00109269, 0.00425707, 0.00795598, 22.0934, 214.716, 0.0163786, 0.00110158, 0.00305168, 0.00560439, 15.3778, 145.725, 0.0163786, 0.00110282, -141.248, -153.081, -349.818, -91.3157, -110.3, -235.558, 0.000723538, 0.000796014, -0.00503455, 0.000685499, 0.000685499, 0.000685499
5289, 1,0.0059847, -0.00279605, 0.00189127, 25.3347, -158.427, 0.0256947, 4.38633, 190.596, 0.830036, 0.000988973, 0.00695831, 0.0116648, 30.7815, 210.371, 0.110591, 0.000991075, 0.00501713, 0.00791621, 20.2374, 108.93, 0.108188, 0.000992818, -207.465, -133.201, -290.447, -108.358, -78.3998, -140.03, -0.00085407, 0.00181169, -0.00459366, -0.000356147, -0.000356147, -0.000356147
5290, 1,0.00526223, -0.00243331, 0.00165048, 9.58589, -141.014, 0.0304902, 14.494, 246.262, 0.897985, 0.00102202, 0.00605164, 0.0107048, 12.0305, 206.062, 0.099477, 0.0010266, 0.00447289, 0.00748225, 7.16484, 115.752, 0.0980917, 0.0010282, -207.379, -107.104, -303.704, -120.323, -62.07, -164.865, -0.000952096, 0.00251325, -0.00509948, -0.000596078, -0.000596078, -0.000596078
5291, 1,0.00583322, -0.00221753, 0.00151208, 23.3049, -130.726, 0.034735, 16.1168, 279.296, 1, 0.00105582, 0.00654097, 0.0110651, 26.9987, 220.273, 0.0899829, 0.00106269, 0.00512638, 0.00814638, 19.6628, 137.208, 0.0899829, 0.0010642, -193.12, -102.459, -365.241, -122.033, -63.8327, -225.76, -0.000127677, 0.00291, -0.0065439, 4.04578E-05, 4.04578E-05, 4.04578E-05
5292, 1,0.00627975, -0.00206788, 0.00140871, 15.7113, -120.887, 0.0362706, 17.7143, 337.774, 1, 0.00108976, 0.00698256, 0.0119778, 19.0882, 222.037, 0.115157, 0.00109912, 0.00558411, 0.00922085, 12.486, 143.881, 0.115157, 0.00110061, -167.097, -110.547, -388.468, -106.144, -73.6732, -251.827, 0.000906286, 0.00301828, -0.00777341, 0.000992536, 0.000992536, 0.000992536
5293, 1,0.00846121, -0.00337367, 0.00229201, 13.9848, -167.16, 0.0302689, 1.15393, 201.118, 0.981718, 0.000986284, 0.00962682, 0.0160058, 17.3889, 223.383, 0.216519, 0.000989341, 0.00731187, 0.0115203, 10.9378, 114.517, 0.204925, 0.000991345, -210.546, -109.706, -349.898, -101.874, -64.8877, -176.789, -0.000388553, 0.00418355, -0.00791504, 0.0004937, 0.0004937, 0.0004937
5294, 1,0.00855449, -0.00283969, 0.00191074, 17.3722, -158.956, 0.0333786, -4.8428, 270.778, 1, 0.0010197, 0.00947454, 0.0149302, 22.9131, 241.497, 0.177625, 0.00102542, 0.00763664, 0.0111826, 11.9161, 137.126, 0.177625, 0.00102735, -254.483, -85.0978, -384.912, -144.186, -51.9915, -215.2, -0.00159917, 0.00536667, -0.00811474, -0.000851103, -0.000851103, -0.000851103
5295, 1,0.00834234, -0.00256107, 0.00171788, 13.8989, -145.464, 0.0352946, 2.05905, 318.435, 1, 0.00105409, 0.00916218, 0.0146901, 17.0307, 247.137, 0.169511, 0.00106177, 0.00752265, 0.0113176, 10.7836, 150.048, 0.169511, 0.00106362, -245.252, -83.1527, -413.008, -150.102, -51.2304, -248.812, -0.00101498, 0.00547997, -0.00889189, -0.000529518, -0.000529518, -0.000529518
5296, 1,0.00840362, -0.00245595, 0.00167724, 0.998291, -135.862, 0.03731, 0.393404, 391.552, 1, 0.00108669, 0.00916642, 0.0154382, 2.55301, 241.355, 0.19846, 0.00109758, 0.00764559, 0.012248, -0.446708, 152.219, 0.19846, 0.00109937, -193.447, -106.976, -423.643, -117.994, -75.3412, -263.323, 0.00105935, 0.0047657, -0.0102271, 0.00141934, 0.00141934, 0.00141934
5297, 1,0.0104874, -0.00417364, 0.00285309, -10.6, -181.85, 0.0315426, -16.9638, 240.249, 1, 0.000942161, 0.0120117, 0.0192339, -11.2568, 282.236, 0.273673, 0.000945385, 0.00896644, 0.0135556, -9.8576, 153.672, 0.241568, 0.000947772, -273.179, -113.277, -460.253, -146.554, -67.7386, -246.724, -0.000812716, 0.00710998, -0.0116984, 4.41078E-05, 4.41078E-05, 4.41078E-05
5298, 1,0.0118474, -0.00347555, 0.00232449, 0.908729, -183.572, 0.0359775, -1.83846, 320.991, 1, 0.000976522, 0.0129876, 0.0194088, 1.53048, 300.729, 0.260545, 0.000982473, 0.0107109, 0.0148228, 0.368531, 166.244, 0.255789, 0.000984994, -310.982, -97.0499, -494.154, -168.715, -56.3417, -273.674, -0.00192165, 0.00842806, -0.0122127, -0.000749964, -0.000749964, -0.000749964
5299, 1,0.0121625, -0.00308009, 0.00205713, -6.29137, -165.644, 0.0386258, 1.91736, 389.61, 1, 0.00100937, 0.0131778, 0.0198169, -4.42211, 304.186, 0.271323, 0.00101798, 0.0111521, 0.0157675, -8.04234, 184.692, 0.271323, 0.0010203, -324.914, -109.038, -478.605, -194.377, -74.6806, -285.018, -0.00246621, 0.00820953, -0.0115569, -0.00134941, -0.00134941, -0.00134941
5300, 1,0.0116811, -0.00290373, 0.00197029, -7.26534, -150.38, 0.038523, -25.2165, 459.023, 1, 0.00103853, 0.0126158, 0.0200365, -5.5999, 272.751, 0.29548, 0.0010506, 0.0107537, 0.0162789, -8.77619, 169.543, 0.29548, 0.00105271, -253.788, -95.5085, -468.957, -152.859, -69.8924, -285.878, -0.000149646, 0.00807698, -0.0132242, 0.000711764, 0.000711764, 0.000711764
5301, 1,0.00327086, -0.000243763, 0.000238704, 215.116, 12.2949, 0.00234268, 107.23, 5.23029, 0, 0.00105646, 0.00335281, 0.00250829, 220.117, -81.1675, 0, 0.00105794, 0.0032079, 0.00231754, 211.041, -77.919, 0, 0.00105788, 107.678, 17.4221, 118.403, 95.6464, 12.5365, 125.574, 0.00111322, -0.000884304, 0.00108883, 0.000908388, 0.000908388, 0.000908388
5302, 1,0.00868699, 0.000803703, 0.000633999, 368.84, 45.0544, 0.0125587, 376.046, -135.271, 0.138718, 0.00109377, 0.00938137, 0.00654886, 412.081, -168.869, 0.0683708, 0.00109428, 0.00801494, 0.00555748, 326.185, -137.329, 0.0683708, 0.0010937, 194.309, 60.5794, 251.718, 146.838, 52.7466, 212.404, 0.00170013, -0.00284499, 0.00399263, 0.00100801, 0.00100801, 0.00100801
5303, 1,0.0116472, 0.00119169, 0.0008331, 335.398, 67.436, 0.0227754, 285.832, -91.8411, 0.378655, 0.00112692, 0.0127703, 0.00937342, 402.384, -157.551, 0.139094, 0.00112792, 0.0105383, 0.00795648, 268.646, -107.461, 0.139094, 0.00112692, 215.035, 38.1591, 219.46, 141.944, 27.4051, 153.032, 0.00339591, -0.00497859, 0.00435166, 0.0024508, 0.0024508, 0.0024508
5304, 1,0.0113016, 0.00132523, 0.00092809, 345.989, 74.0216, 0.0317943, 334.228, -126.168, 0.538162, 0.00116137, 0.0125307, 0.00910479, 419.4, -176.469, 0.131042, 0.00116156, 0.0100947, 0.00748549, 272.942, -122.163, 0.131042, 0.00116046, 223.064, 69.2987, 237.043, 147.54, 56.33, 162.62, 0.00272121, -0.0041819, 0.00454724, 0.00178998, 0.00178998, 0.00178998
5305, 1,0.00255928, 0.000358286, 0.000330766, 163.363, 17.7831, 0.00244646, 87.9327, 37.9277, 0, 0.0010547, 0.00275705, 0.00185729, 173.328, -55.5866, 0, 0.0010563, 0.00241272, 0.00167091, 155.877, -53.4463, 0, 0.00105626, 73.4319, 7.03019, 86.2979, 64.4806, 3.15355, 92.7047, 0.000782138, -0.000685117, 0.000805682, 0.000624032, 0.000624032, 0.000624032
5306, 1,0.00481189, 0.00060281, 0.000487184, 310.954, 37.2334, 0.00858906, 442.981, -135.639, 0.027484, 0.00109135, 0.005337, 0.00394815, 344.588, -120.914, 0.000463704, 0.00109105, 0.00430822, 0.00311744, 278.293, -97.2823, 0.000463704, 0.00109064, 114.754, 71.479, 176.508, 79.2001, 60.5355, 152.111, 0.000425258, -0.00041366, 0.00195044, 4.92293E-05, 4.92293E-05, 4.92293E-05
5307, 1,0.00740415, 0.000963375, 0.000717359, 308.982, 56.3559, 0.0182036, 281.809, -99.3293, 0.284047, 0.00112464, 0.00829056, 0.00614701, 364.148, -132.418, 0.0574076, 0.00112498, 0.00653909, 0.00484261, 254.353, -93.4584, 0.0574076, 0.00112425, 151.205, 67.9539, 178.095, 96.7587, 51.7231, 131.893, 0.00106014, -0.00145595, 0.00261369, 0.000358079, 0.000358079, 0.000358079
5308, 1,0.00741353, 0.0011071, 0.000795297, 299.938, 66.4872, 0.0232712, 260.72, -58.0601, 0.379868, 0.00115744, 0.0084671, 0.00638907, 365.615, -119.84, 0.054202, 0.00115838, 0.0063777, 0.00489029, 234.692, -72.8176, 0.054202, 0.00115747, 162.087, 33.6791, 163.755, 93.5728, 18.5267, 106.354, 0.00151167, -0.00217577, 0.00266689, 0.000685147, 0.000685147, 0.000685147
5309, 1,0.00246592, 0.00037698, 0.000334373, 153.927, 19.363, 0.00241801, 128.977, -17.9729, 0, 0.00105148, 0.00271487, 0.0019182, 166.886, -49.5576, 0, 0.00105201, 0.00226697, 0.00163646, 143.429, -45.5349, 0, 0.00105195, 58.8607, 0.169452, 89.6426, 45.0173, 0.639825, 90.9475, 0.000524909, -0.000744432, 0.00102395, 0.000293899, 0.000293899, 0.000293899
5310, 1,0.00392891, 0.000468138, 0.000383602, 252.306, 28.6838, 0.0119292, 456.279, -146.086, 0.0914895, 0.00108853, 0.00433819, 0.00326721, 278.245, -92.8449, 0, 0.00108745, 0.00353544, 0.00261519, 227.078, -75.2971, 0, 0.00108714, 89.3014, 54.8204, 134.413, 61.2814, 46.4996, 118.11, 0.000316083, -0.000342646, 0.00153279, 7.20315E-06, 7.20315E-06, 7.20315E-06
5311, 1,0.0048226, 0.000767177, 0.000582859, 267.091, 46.8311, 0.0205187, 323.961, -107.579, 0.311498, 0.00112191, 0.00553562, 0.00418058, 312.099, -90.9138, 0.0104883, 0.00112121, 0.00412925, 0.00312576, 222.779, -59.5308, 0.0101243, 0.00112063, 107.546, 46.8273, 118.369, 59.6495, 32.3602, 86.5828, 0.000586359, -0.000621062, 0.00151718, 4.20729E-05, 4.20729E-05, 4.20729E-05
5312, 1,0.00596186, 0.00098271, 0.000699722, 300.747, 59.8426, 0.0282195, 295.025, -129.969, 0.488685, 0.00115691, 0.00690108, 0.00505396, 359.648, -133.882, 0.0289222, 0.00115611, 0.00504002, 0.00375262, 242.343, -91.1513, 0.0283463, 0.0011553, 170.509, 59.8085, 171.328, 107.349, 46.3827, 119.722, 0.00125928, -0.00141137, 0.00235809, 0.000522441, 0.000522441, 0.000522441
5313, 1,0.00233533, 0.000321725, 0.000280356, 143.341, 16.8487, 0.00398446, 238.604, -65.933, 0, 0.00104928, 0.0025641, 0.00177009, 155.526, -45.294, 0, 0.00104893, 0.00213701, 0.00145545, 132.68, -40.9827, 0, 0.00104886, 58.2467, -8.6626, 86.2979, 42.2979, -2.54601, 83.1961, 0.000542225, -0.000892318, 0.00108492, 0.000272774, 0.000272774, 0.000272774
5314, 1,0.00290002, 0.000374282, 0.000300874, 179.97, 22.2041, 0.0158108, 457.543, -147.123, 0.167631, 0.00108542, 0.00320801, 0.00245491, 199.014, -57.7924, 0, 0.00108358, 0.0026107, 0.00198689, 161.781, -45.8816, 0, 0.00108338, 46.1683, 40.5946, 86.6144, 24.4527, 39.108, 74.0841, -4.68319E-05, -0.000143257, 0.00112756, -0.000309551, -0.000309551, -0.000309551
5315, 1,0.00366158, 0.000610468, 0.000467747, 237.511, 37.2713, 0.0256474, 395.883, -144.63, 0.390426, 0.0011199, 0.00423208, 0.00310472, 273.343, -91.0492, 0, 0.00111819, 0.00310758, 0.00227824, 202.267, -68.5375, 0, 0.00111779, 98.6115, 61.8574, 112.679, 62.4825, 53.638, 89.4921, 0.000370411, -0.000262421, 0.00136848, -2.47939E-05, -2.47939E-05, -2.47939E-05
5316, 1,0.00448667, 0.000856278, 0.000606506, 275.091, 53.1742, 0.0352077, 392.897, -128.025, 0.567211, 0.00115421, 0.00532139, 0.00384055, 327.442, -107.805, 0.00175513, 0.00115273, 0.00366241, 0.00270212, 223.149, -71.511, 0.0011674, 0.00115205, 147.218, 41.1349, 135.061, 91.4013, 33.8311, 89.3006, 0.000994299, -0.00103114, 0.00178621, 0.000391141, 0.000391141, 0.000391141
5317, 1,0.00175448, 0.000259347, 0.000225901, 101.257, 13.6811, 0.00553865, 332.899, -94.3665, 0, 0.00104604, 0.00196804, 0.00153691, 112.589, -27.113, 0, 0.00104489, 0.00155676, 0.00118821, 90.7553, -23.3842, 0, 0.00104483, 51.0998, -28.5052, 58.7443, 37.2964, -19.967, 52.8231, 0.000660082, -0.00105193, 0.000831559, 0.000427827, 0.000427827, 0.000427827
5318, 1,0.0019832, 0.000327066, 0.000248701, 119.024, 19.7333, 0.0179007, 449.036, -133.993, 0.207746, 0.00108182, 0.00225287, 0.00169495, 135.859, -36.6352, 0, 0.0010798, 0.0017343, 0.0013254, 103.218, -25.5361, 0, 0.00107961, 28.1761, 22.4506, 59.2789, 7.77721, 23.0056, 45.8254, -6.33098E-05, -0.000247301, 0.00090482, -0.00031147, -0.00031147, -0.00031147
5319, 1,0.0027646, 0.000502736, 0.000375142, 177.008, 30.9515, 0.0284808, 432.436, -139.602, 0.424096, 0.001117, 0.00323849, 0.0023802, 206.85, -67.4112, 0, 0.00111491, 0.00230327, 0.00171635, 147.675, -48.6301, 0, 0.00111457, 71.8975, 47.6959, 82.6403, 41.9107, 42.8271, 61.1525, 0.000235691, -0.000255525, 0.00111299, -8.83601E-05, -8.83601E-05, -8.83601E-05
5320, 1,0.00353723, 0.000741815, 0.000520603, 226.182, 46.4667, 0.0394117, 434.057, -144.577, 0.628214, 0.00115246, 0.00426042, 0.00299623, 272.079, -99.6215, 0, 0.00115016, 0.00282347, 0.00201779, 180.629, -69.3314, 0, 0.00114959, 120.897, 50.9394, 127.028, 74.9289, 47.4719, 85.5932, 0.000619844, -0.000734506, 0.00172991, 0.000139612, 0.000139612, 0.000139612
5321, 1,0.00148095, 0.000221684, 0.000194505, 81.604, 11.7127, 0.00685336, 404.279, -107.125, 0, 0.00104369, 0.00167287, 0.00138365, 91.7933, -19.4973, 0, 0.0010422, 0.00129969, 0.00106227, 71.986, -16.2486, 0, 0.00104215, 42.2413, -33.0097, 49.2603, 30.3023, -24.1746, 42.6182, 0.000581838, -0.00104674, 0.000780958, 0.000381833, 0.000381833, 0.000381833
5322, 1,0.00142591, 0.000299242, 0.000215212, 82.1485, 18.3924, 0.0193627, 444.881, -125.533, 0.23523, 0.00107921, 0.00169668, 0.00120793, 99.1966, -27.4891, 0, 0.00107717, 0.00116872, 0.000852715, 65.7888, -16.573, 0, 0.00107697, 29.7847, 6.67727, 46.0053, 9.57423, 7.81544, 32.3292, 0.000143238, -0.000467976, 0.000770302, -0.00010511, -0.00010511, -0.00010511
5323, 1,0.00228201, 0.000457587, 0.000328846, 141.78, 28.4639, 0.0303791, 451.035, -139.168, 0.449212, 0.00111507, 0.00270248, 0.00194396, 168.771, -55.2629, 0, 0.00111271, 0.00187813, 0.00138863, 115.525, -37.8902, 0, 0.0011124, 51.6101, 35.8011, 78.3774, 23.2121, 33.6142, 56.8444, 7.02549E-05, -0.000372294, 0.00119792, -0.000243231, -0.000243231, -0.000243231
5324, 1,0.00293235, 0.000662837, 0.000459588, 175.353, 41.3301, 0.0405707, 434.581, -132.624, 0.643553, 0.00115063, 0.00357789, 0.00247981, 215.696, -66.8422, 0, 0.00114802, 0.00229633, 0.0016243, 135.628, -41.0572, 0, 0.00114753, 85.2772, 22.9405, 92.3088, 45.1164, 23.4153, 54.6398, 0.000488914, -0.000879964, 0.0014744, 6.10713E-05, 6.10713E-05, 6.10713E-05
5325, 1,0.00138826, 0.000194097, 0.00017387, 76.3613, 10.0472, 0.0100681, 448.028, -130.511, 0.0532777, 0.00104192, 0.00154904, 0.00127143, 84.7279, -19.1101, 0, 0.00103997, 0.00123851, 0.000996028, 68.5892, -16.8184, 0, 0.00103993, 38.7749, -28.6761, 47.2317, 28.3855, -19.3388, 41.4086, 0.000478721, -0.000969944, 0.000800767, 0.000298012, 0.000298012, 0.000298012
5326, 1,0.00121, 0.000274386, 0.000194192, 70.8982, 16.8726, 0.021517, 456.219, -135.256, 0.275101, 0.00107737, 0.00146096, 0.00100404, 86.7157, -27.7755, 0, 0.00107506, 0.000972197, 0.000677385, 55.7594, -17.9058, 0, 0.00107489, 32.3835, 7.22411, 43.719, 13.9806, 9.30673, 30.4302, 0.000208282, -0.000482468, 0.000724286, -1.93493E-05, -1.93493E-05, -1.93493E-05
5327, 1,0.0016412, 0.000419503, 0.000291963, 98.8591, 26.4041, 0.0314028, 464.494, -142.688, 0.461502, 0.00111335, 0.00203888, 0.00140937, 124.512, -41.016, 0, 0.00111062, 0.00125694, 0.000892675, 73.7745, -24.6833, 0, 0.00111033, 45.6775, 22.939, 54.4315, 19.3143, 21.2601, 33.4755, 0.000242752, -0.000458526, 0.000880389, -4.6194E-05, -4.6194E-05, -4.6194E-05
5328, 1,0.00236844, 0.000610617, 0.000421373, 140.65, 38.2465, 0.0400191, 429.69, -131.758, 0.635682, 0.00114904, 0.00296191, 0.00201326, 177.888, -57.0212, 0, 0.0011463, 0.00178599, 0.00124378, 104.2, -33.497, 0, 0.00114586, 69.6196, 22.9071, 78.5369, 32.6865, 23.8976, 43.9068, 0.000422384, -0.00078073, 0.00128223, 2.68041E-05, 2.68041E-05, 2.68041E-05
5329, 1,0.00134327, 0.000169607, 0.000157505, 70.7373, 8.50052, 0.0128127, 457.741, -142.073, 0.107403, 0.00103995, 0.00148293, 0.00128543, 77.7747, -15.3594, 0, 0.00103766, 0.00121231, 0.00103242, 64.1629, -14.1172, 0, 0.00103764, 37.3511, -34.2846, 43.0116, 28.7915, -24.8805, 38.4407, 0.000474213, -0.00105103, 0.000825343, 0.000318147, 0.000318147, 0.000318147
5330, 1,0.00102036, 0.000244595, 0.0001732, 50.8079, 15.0825, 0.0231668, 461.793, -141.036, 0.305949, 0.00107557, 0.00125598, 0.000986482, 65.5008, -14.1122, 0, 0.00107286, 0.000790714, 0.000668533, 36.4272, -5.40623, 0, 0.0010727, 27.0236, -9.34371, 24.6567, 10.7682, -6.48198, 11.9324, 0.000323432, -0.000657447, 0.000562345, 0.000122936, 0.000122936, 0.000122936
5331, 1,0.00134027, 0.000397846, 0.000274739, 79.1055, 25.1912, 0.0314169, 468.541, -143.533, 0.459817, 0.00111154, 0.00171561, 0.00115685, 103.523, -35.8086, 0, 0.00110871, 0.000981866, 0.000694387, 55.4837, -20.1721, 0, 0.00110842, 39.4057, 19.1123, 48.9079, 14.7396, 17.9473, 27.8295, 0.000241745, -0.000471417, 0.000809981, -2.40912E-05, -2.40912E-05, -2.40912E-05
5332, 1,0.0019228, 0.000578022, 0.000397084, 113.506, 36.4217, 0.0383893, 427.835, -132.702, 0.607379, 0.00114734, 0.00248493, 0.00168517, 149.333, -51.4106, 0, 0.00114457, 0.00137366, 0.000928349, 78.3045, -28.9084, 0, 0.00114415, 63.8109, 19.693, 70.728, 28.8255, 20.3132, 37.5865, 0.000470203, -0.000763062, 0.00112588, 9.83599E-05, 9.83599E-05, 9.83599E-05
5333, 1,0.00119859, 0.000150955, 0.000146846, 62.6541, 7.29227, 0.0116797, 454.265, -136.912, 0.0846514, 0.00103766, 0.0013207, 0.00118335, 68.4649, -12.5956, 2.1684E-19, 0.00103546, 0.00108512, 0.000952734, 57.3234, -12.2798, 2.1684E-19, 0.00103545, 34.3357, -34.2873, 37.7383, 27.3089, -24.4978, 34.0283, 0.00046559, -0.00100492, 0.000743136, 0.000327945, 0.000327945, 0.000327945
5334, 1,0.00124872, 0.00022481, 0.000162181, 64.6553, 13.7136, 0.0212862, 482.152, -172.485, 0.271539, 0.00107421, 0.00146323, 0.00114229, 78.1078, -20.3538, 0, 0.00107102, 0.00103902, 0.000846461, 51.3517, -12.6702, 0, 0.00107089, 34.183, -10.8971, 37.7753, 19.0656, -7.35628, 26.3011, 0.000383331, -0.000788944, 0.000735218, 0.00019079, 0.00019079, 0.00019079
5335, 1,0.00130404, 0.000373328, 0.00025747, 68.3319, 23.6663, 0.030279, 480.125, -163.227, 0.440192, 0.0011101, 0.00165693, 0.00122327, 91.6853, -27.5116, 0, 0.00110671, 0.000965849, 0.00076808, 45.3204, -12.8888, 0, 0.00110644, 37.3194, 1.75974, 43.4556, 14.0494, 1.38034, 23.2366, 0.000348233, -0.000719267, 0.000816738, 9.45987E-05, 9.45987E-05, 9.45987E-05
5336, 1,0.00159094, 0.000555158, 0.000383064, 86.9935, 34.9337, 0.0363299, 429.442, -136.813, 0.570912, 0.00114564, 0.00212895, 0.00151485, 121.446, -36.5883, 0, 0.00114259, 0.00106998, 0.000783395, 53.1574, -15.3166, 0, 0.0011422, 48.2132, 6.11461, 55.4371, 15.0693, 7.26727, 23.6133, 0.000415815, -0.000803435, 0.000980453, 6.25456E-05, 6.25456E-05, 6.25456E-05
5337, 1,0.00103444, -0.000147401, 0.000143793, 50.8607, -7.2967, 0.00872609, 439.093, -115.424, 0.0254744, 0.00103508, 0.00114078, 0.0010761, 55.5026, -4.90947, 0, 0.0010332, 0.000938461, 0.000863758, 46.811, -5.47677, 0, 0.00103321, 26.4206, -40.572, 28.8799, 20.4926, -30.0855, 26.0233, 0.00043686, -0.000988192, 0.000630617, 0.000307903, 0.000307903, 0.000307903
5338, 1,0.00111969, 0.000207122, 0.000152513, 54.4904, 12.4273, 0.0140013, 461.722, -146.479, 0.130337, 0.00107147, 0.00131866, 0.00107472, 66.7299, -11.5883, 0, 0.00106893, 0.000924577, 0.00079126, 42.3496, -4.85062, 0, 0.00106881, 26.8358, -22.1573, 30.0864, 12.9098, -18.1535, 19.7956, 0.000365676, -0.000819246, 0.000641074, 0.00018234, 0.00018234, 0.00018234
5339, 1,0.00128559, 0.000355757, 0.000247163, 68.5939, 22.346, 0.0233312, 509.061, -215.405, 0.313166, 0.00110913, 0.00161565, 0.00118279, 90.4874, -30.2188, 0, 0.00110499, 0.000972568, 0.000764324, 47.1461, -16.514, 0, 0.00110474, 36.9903, 4.00454, 49.6615, 14.9877, 3.96336, 30.5909, 0.000308038, -0.000678112, 0.000859718, 6.48671E-05, 6.48671E-05, 6.48671E-05
5340, 1,0.00147201, 0.00053439, 0.000369784, 78.3168, 33.5682, 0.0311073, 454.477, -175.87, 0.474916, 0.00114474, 0.00199088, 0.00144388, 111.777, -34.8864, 0, 0.00114095, 0.000969098, 0.00074428, 45.0215, -14.4652, 0, 0.00114058, 49.6986, 2.65999, 52.3006, 17.895, 3.90074, 21.5999, 0.000502969, -0.000830852, 0.000893238, 0.000162249, 0.000162249, 0.000162249
5341, 1,0.00106566, -0.000155629, 0.000144621, 54.0108, -8.01726, 0.00660871, 379.949, -89.8139, 0, 0.00103268, 0.00116162, 0.00108819, 57.8324, -6.15709, 0, 0.00103128, 0.000980487, 0.000881869, 50.789, -7.64749, 0, 0.00103131, 27.9304, -40.3055, 30.8464, 23.0078, -29.4345, 29.3691, 0.000452213, -0.000978576, 0.000626018, 0.000329355, 0.000329355, 0.000329355
5342, 1,0.000854015, 0.000195371, 0.000149005, 42.9128, 11.4754, 0.00731765, 410.071, -85.5544, 0, 0.00106843, 0.00103789, 0.000853044, 53.9499, -9.20107, 0, 0.00106711, 0.000677364, 0.000585469, 32.1752, -3.44275, 0, 0.00106701, 19.5687, -19.3121, 27.3466, 6.97812, -14.2579, 17.6081, 0.00025517, -0.000642072, 0.000535933, 8.29032E-05, 8.29032E-05, 8.29032E-05
5343, 1,0.00110621, 0.000342569, 0.00024064, 57.0477, 21.1434, 0.0113398, 439.843, -112.462, 0.0759297, 0.00110491, 0.00143464, 0.00108275, 77.8857, -18.995, 0, 0.00110315, 0.000789481, 0.000640664, 36.5156, -6.22706, 0, 0.00110292, 28.6669, -9.58753, 37.9055, 7.54038, -8.71813, 19.8589, 0.000298446, -0.000655237, 0.000664597, 5.67517E-05, 5.67517E-05, 5.67517E-05
5344, 1,0.00139518, 0.000524226, 0.000367141, 77.6703, 32.447, 0.0180693, 434.536, -157.733, 0.226289, 0.00114211, 0.0019085, 0.0013836, 110.007, -35.2472, 0, 0.00113942, 0.00089421, 0.000680468, 45.5066, -15.7386, 0, 0.00113906, 49.0938, 0.325813, 56.3218, 18.4643, 2.20892, 26.5425, 0.000482175, -0.000762877, 0.000852081, 0.000147684, 0.000147684, 0.000147684
5345, 1,0.000927346, -0.000162367, 0.000143669, 50.5865, -8.68796, 0.00525123, 301.68, -70.9932, 0, 0.00103035, 0.00101146, 0.000919291, 53.4251, -8.99366, 0, 0.00102931, 0.00085712, 0.000724918, 48.5288, -11.4242, 0, 0.00102935, 27.2366, -30.1441, 29.8885, 23.3265, -18.2944, 29.2406, 0.000395756, -0.000796314, 0.000546269, 0.000279272, 0.000279272, 0.000279272
5346, 1,0.000803807, 0.000177032, 0.000138747, 44.103, 10.2246, 0.00497057, 292.31, -76.527, 0, 0.00106639, 0.000972682, 0.000775162, 54.0243, -12.2825, 0, 0.00106528, 0.000639875, 0.000523061, 34.3809, -7.53121, 0, 0.0010652, 23.227, -14.9327, 28.5533, 11.7234, -9.26163, 20.1319, 0.000279192, -0.000566865, 0.000486752, 0.00011394, 0.00011394, 0.00011394
5347, 1,0.000937949, 0.000329095, 0.000235207, 52.653, 20.0465, 0.00568782, 322.255, -71.2155, 0, 0.00110239, 0.00124828, 0.000930808, 72.061, -19.8778, 0, 0.00110147, 0.000647016, 0.000508299, 33.9877, -8.13675, 0, 0.00110126, 25.7514, -6.00544, 39.8874, 5.92788, -4.19913, 22.6815, 0.000220687, -0.000520133, 0.000621687, -1.04509E-05, -1.04509E-05, -1.04509E-05
5348, 1,0.00120307, 0.000513555, 0.000364569, 67.8064, 31.3386, 0.00701438, 370.963, -93.1728, 0.0128487, 0.00113893, 0.00171256, 0.00123805, 99.0605, -27.1395, 0, 0.0011377, 0.000699354, 0.000517862, 36.6844, -8.61975, 0, 0.00113736, 40.7453, -5.31279, 45.986, 11.1161, -2.51517, 17.2583, 0.000416911, -0.000632646, 0.000655657, 8.57771E-05, 8.57771E-05, 8.57771E-05
5349, 1,0.000869863, -0.000175547, 0.000148896, 46.4834, -9.66381, 0.00392579, 217.415, -41.9025, 0, 0.00102794, 0.000942233, 0.000870909, 48.3719, -5.98249, 0, 0.00102734, 0.00081557, 0.000688873, 45.5724, -9.39992, 0, 0.0010274, 23.3621, -31.6428, 26.2282, 20.4104, -18.7823, 26.5717, 0.000367747, -0.000772184, 0.000501324, 0.000255305, 0.000255305, 0.000255305
5350, 1,0.000774152, 0.000164057, 0.000134053, 43.6395, 9.21416, 0.00331086, 190.788, -45.6172, 0, 0.00106407, 0.000926578, 0.000744722, 52.3605, -12.2932, 0, 0.00106349, 0.000628478, 0.000507127, 35.2212, -8.57934, 0, 0.00106343, 22.1365, -15.3321, 30.0752, 11.5969, -8.64459, 22.7857, 0.000256108, -0.000556115, 0.000499297, 9.46183E-05, 9.46183E-05, 9.46183E-05
5351, 1,0.00087098, 0.000305112, 0.000219231, 49.9126, 18.5051, 0.00372091, 221.668, -61.253, 0, 0.00110057, 0.00116524, 0.000862227, 68.1041, -18.7929, 0, 0.00109982, 0.000587413, 0.000457808, 32.0608, -8.09542, 0, 0.00109963, 27.9833, -7.42028, 35.8157, 9.25671, -5.07629, 20.1058, 0.000285136, -0.000508061, 0.000527589, 6.0345E-05, 6.0345E-05, 6.0345E-05
5352, 1,0.00102334, 0.000496641, 0.000355771, 62.8639, 30.132, 0.00465165, 291.512, -96.2747, 0, 0.00113749, 0.00151437, 0.00108628, 92.8764, -30.219, 0, 0.00113627, 0.000543064, 0.000392971, 33.1123, -12.714, 0, 0.00113595, 41.889, -0.309663, 49.0775, 13.8042, 3.13193, 21.2059, 0.000395924, -0.000547815, 0.00064178, 8.10775E-05, 8.10775E-05, 8.10775E-05
5353, 1,0.000817674, -0.000190014, 0.000155208, 41.6409, -10.707, 0.00312131, 172.031, -32.0363, 0, 0.0010258, 0.000882981, 0.000848989, 42.8253, -2.33306, 0, 0.0010253, 0.000773656, 0.000668184, 41.5821, -6.77245, 0, 0.00102538, 19.0135, -34.7175, 22.7032, 17.1517, -21.0196, 24.1852, 0.000341004, -0.000775758, 0.000472467, 0.000234776, 0.000234776, 0.000234776
5354, 1,0.000728272, 0.000151812, 0.000130241, 40.7544, 8.24055, 0.00240745, 135.392, -28.5455, 0, 0.00106193, 0.000865602, 0.00070901, 48.3226, -10.2363, 0, 0.00106161, 0.00059907, 0.000483987, 33.5793, -7.58235, 0, 0.00106157, 19.4895, -17.126, 28.3455, 9.89036, -9.36284, 22.2195, 0.00023525, -0.000549047, 0.000479733, 7.67284E-05, 7.67284E-05, 7.67284E-05
5355, 1,0.000820461, 0.000286895, 0.000209521, 47.7356, 17.2377, 0.00262423, 151.969, -37.5443, 0, 0.00109841, 0.00109638, 0.000829147, 64.6194, -17.7163, 0, 0.00109806, 0.00055587, 0.000443328, 31.2464, -8.08094, 0, 0.00109789, 27.1489, -9.31688, 35.317, 9.50597, -5.93215, 20.669, 0.000283206, -0.000515535, 0.000519539, 6.44797E-05, 6.44797E-05, 6.44797E-05
5356, 1,0.00097747, 0.000478665, 0.00034603, 57.1848, 28.878, 0.00323502, 195.507, -57.4686, 0, 0.00113519, 0.00145199, 0.00106589, 85.9785, -24.459, 0, 0.00113459, 0.000510716, 0.000385912, 28.5645, -7.98168, 0, 0.00113428, 36.971, -6.9002, 43.3061, 9.91819, -2.47029, 16.4972, 0.00038445, -0.000581169, 0.000593172, 7.47868E-05, 7.47868E-05, 7.47868E-05
5357, 1,0.000806936, -0.000208805, 0.000165513, 40.5276, -11.9812, 0.00299133, 168.713, -35.8417, 0, 0.00102398, 0.000864394, 0.000855579, 40.9262, -0.943984, 0, 0.0010234, 0.000775291, 0.000678109, 41.4704, -6.44668, 0, 0.00102349, 18.009, -36.9734, 21.7963, 17.1288, -22.22, 24.4313, 0.000342596, -0.000799746, 0.000472341, 0.000240135, 0.000240135, 0.000240135
5358, 1,0.000681765, 0.000140023, 0.000127135, 37.6017, 7.28472, 0.00225035, 129.432, -30.5084, 0, 0.00106019, 0.000804638, 0.000682504, 44.0571, -8.20526, 0, 0.00105981, 0.000568464, 0.00047007, 31.627, -6.63982, 0, 0.00105978, 17.4173, -19.3743, 26.5728, 8.83938, -10.5434, 21.6235, 0.000223549, -0.000558154, 0.000467593, 6.95058E-05, 6.95058E-05, 6.95058E-05
5359, 1,0.000760386, 0.000267437, 0.000198592, 43.7484, 15.9164, 0.00208565, 118.725, -27.2223, 0, 0.00109657, 0.00101687, 0.00078153, 59.302, -15.0976, 0, 0.00109635, 0.000515044, 0.000417056, 28.5888, -6.54129, 0, 0.0010962, 24.5828, -11.7232, 32.4332, 8.01071, -7.37634, 18.9895, 0.000269311, -0.000514774, 0.000490188, 5.63297E-05, 5.63297E-05, 5.63297E-05
5360, 1,0.000861118, 0.000460346, 0.000336163, 50.1199, 27.6058, 0.00202922, 117.275, -29.1959, 0, 0.00113315, 0.00131841, 0.000987332, 77.678, -21.271, 0, 0.001133, 0.000410621, 0.000326169, 22.6803, -5.83093, 0, 0.00113272, 34.47, -9.60333, 38.9463, 8.67345, -4.26799, 13.0873, 0.000382563, -0.000574676, 0.000536854, 8.28065E-05, 8.28065E-05, 8.28065E-05
5361, 1,0.000781389, -0.000228961, 0.000176863, 38.2691, -13.3388, 0.00298874, 170.508, -38.3779, 0, 0.00102206, 0.000832868, 0.000853421, 37.9485, 0.992996, 0, 0.00102141, 0.000760918, 0.000675509, 40.1885, -5.61474, 0, 0.00102152, 16.1794, -39.1771, 20.0187, 16.3083, -23.3074, 23.8434, 0.000332885, -0.00081511, 0.000465993, 0.000234323, 0.000234323, 0.000234323
5362, 1,0.00062956, 0.000129581, 0.000125609, 33.5646, 6.37512, 0.0022157, 128.203, -31.0822, 0, 0.00105838, 0.000740332, 0.000658336, 39.0111, -5.55737, 0, 0.00105794, 0.000529575, 0.00045425, 28.6725, -5.10902, 0, 0.00105793, 15.2682, -22.152, 23.5559, 7.73843, -12.2397, 19.8284, 0.0002193, -0.000571764, 0.000442493, 6.97925E-05, 6.97925E-05, 6.97925E-05
5363, 1,0.000680712, 0.000247821, 0.000187718, 38.3572, 14.5839, 0.00184804, 105.434, -24.5419, 0, 0.00109478, 0.000916421, 0.000728572, 52.5332, -12.1865, 0, 0.00109456, 0.000457768, 0.000388064, 24.6435, -4.7278, 0, 0.00109442, 21.6764, -14.6284, 29.5114, 6.26372, -9.32439, 17.2441, 0.000254339, -0.000524049, 0.000467209, 4.85609E-05, 4.85609E-05, 4.85609E-05
5364, 1,0.000775343, 0.000440557, 0.000324741, 44.3818, 26.2731, 0.00141373, 80.1556, -18.7187, 0, 0.00113127, 0.00121137, 0.000923947, 70.5722, -18.1794, 0, 0.00113126, 0.000349863, 0.000292431, 18.4016, -3.78916, 0, 0.00113099, 31.263, -12.677, 35.9522, 6.72015, -6.48907, 11.1364, 0.000364861, -0.000581571, 0.000511298, 7.49549E-05, 7.49549E-05, 7.49549E-05
5365, 1,0.000752879, -0.000250869, 0.00018959, 35.7523, -14.7964, 0.00299677, 172.199, -40.0949, 0, 0.00102024, 0.000801208, 0.000853939, 34.8327, 3.02879, 0, 0.00101952, 0.000741135, 0.000669601, 38.5526, -4.73041, 0, 0.00101965, 14.3349, -41.3803, 17.959, 15.5075, -24.3614, 23.0452, 0.000324707, -0.000829433, 0.000455466, 0.000230073, 0.000230073, 0.000230073
5366, 1,0.000587141, -0.000131578, 0.00012642, 30.0809, -6.56248, 0.00216459, 124.708, -29.6307, 0, 0.00105664, 0.000687588, 0.000644534, 34.5974, -3.11133, 0, 0.00105619, 0.000498907, 0.00044422, 26.2002, -3.80872, 0, 0.0010562, 13.1462, -24.8973, 21.085, 6.681, -13.8891, 18.6343, 0.000212849, -0.000588901, 0.000426398, 6.77399E-05, 6.77399E-05, 6.77399E-05
5367, 1,0.000608801, 0.00022793, 0.000176731, 33.1435, 13.2287, 0.00167468, 93.4112, -19.4649, 0, 0.0010931, 0.00082419, 0.000683645, 45.9536, -9.18112, 0, 0.00109291, 0.000406726, 0.000367314, 20.8164, -2.839, 0, 0.0010928, 19.1424, -17.7309, 26.1318, 4.91547, -11.4755, 15.0771, 0.000249292, -0.000538014, 0.000437467, 5.08762E-05, 5.08762E-05, 5.08762E-05
5368, 1,0.000688726, 0.000420373, 0.00031305, 38.398, 24.9199, 0.00107868, 57.018, -9.2031, 0, 0.00112949, 0.00110156, 0.000866027, 63.1338, -14.9662, 0, 0.0011296, 0.00029441, 0.000271217, 14.1546, -1.64128, 0, 0.00112935, 28.0755, -16.2078, 33.0309, 4.81894, -9.13629, 9.2412, 0.000350386, -0.000598739, 0.000490818, 7.07269E-05, 7.07269E-05, 7.07269E-05
5369, 1,0.000727866, -0.000274797, 0.000203973, 33.3669, -16.3684, 0.00303723, 175.497, -41.9103, 0, 0.0010184, 0.000775642, 0.000861384, 31.9555, 5.0985, 0, 0.00101763, 0.000722657, 0.000665047, 36.9672, -3.85931, 0, 0.00101777, 12.4478, -43.6842, 15.9409, 14.6827, -25.4606, 22.3558, 0.000316174, -0.000845273, 0.000446258, 0.000225137, 0.000225137, 0.000225137
5370, 1,0.000547489, -0.00014431, 0.00012979, 26.6511, -7.59726, 0.00210262, 120.189, -27.4779, 0, 0.00105487, 0.000640296, 0.000637823, 30.3552, -0.56051, 0, 0.00105441, 0.000468451, 0.000435616, 23.6719, -2.43343, 0, 0.00105444, 11.0052, -27.7625, 18.4388, 5.62081, -15.6212, 17.3007, 0.000207733, -0.000606984, 0.000408214, 6.68866E-05, 6.68866E-05, 6.68866E-05
5371, 1,0.00054936, 0.000208595, 0.000166447, 28.5568, 11.8915, 0.00150638, 80.7329, -13.1705, 0, 0.00109141, 0.000744185, 0.000650557, 39.9836, -6.27674, 0, 0.00109128, 0.000368832, 0.000358015, 17.6589, -1.06987, 0, 0.00109119, 16.593, -20.9636, 23.2009, 3.55924, -13.7335, 13.3838, 0.000242342, -0.000556421, 0.00041571, 5.1116E-05, 5.1116E-05, 5.1116E-05
5372, 1,0.000613248, 0.000399537, 0.000300867, 32.8875, 23.5282, 0.000861828, 38.6786, 1.4453, 0, 0.00112762, 0.0010002, 0.000816436, 56.0347, -11.7408, 0, 0.00112786, 0.000256643, 0.00026799, 10.7392, 0.500547, 0, 0.00112764, 25.1366, -19.8827, 29.9684, 3.19155, -11.9203, 7.22709, 0.000341543, -0.00061962, 0.000468222, 7.23041E-05, 7.23041E-05, 7.23041E-05
5373, 1,0.000704827, -0.00030066, 0.000219907, 30.9989, -18.0511, 0.00308722, 179.114, -43.5484, 0, 0.00101658, 0.000754755, 0.000875165, 29.2098, 7.28114, 0, 0.00101574, 0.000703759, 0.000660956, 35.3064, -2.92374, 0, 0.00101591, 10.4851, -46.1401, 13.8116, 13.7983, -26.6485, 21.6215, 0.000307938, -0.000862363, 0.000436173, 0.000220071, 0.000220071, 0.000220071
5374, 1,0.000514714, -0.000159954, 0.000135844, 23.5333, -8.78123, 0.0020281, 114.762, -24.8905, 0, 0.00105307, 0.000602672, 0.000641454, 26.5488, 2.01843, 0, 0.00105261, 0.000442146, 0.000431227, 21.3356, -1.06081, 0, 0.00105266, 8.83006, -30.7239, 15.8385, 4.5437, -17.4167, 16.0554, 0.000202375, -0.000626412, 0.000391161, 6.56543E-05, 6.56543E-05, 6.56543E-05
5375, 1,0.000499694, 0.000190112, 0.000157172, 24.3979, 10.5869, 0.00135413, 68.4785, -6.41804, 0, 0.00108964, 0.000674707, 0.000628414, 34.4648, -3.31622, 0, 0.00108959, 0.000339682, 0.000357585, 14.9001, 0.735616, 0, 0.00108952, 14.0061, -24.3053, 20.2478, 2.17678, -16.0755, 11.6919, 0.000235438, -0.000575982, 0.000394149, 5.13017E-05, 5.13017E-05, 5.13017E-05
5376, 1,0.000547678, 0.000378372, 0.000288465, 27.7946, 22.1157, 0.000773837, 26.4151, 12.2896, 0, 0.00112571, 0.000905672, 0.000774745, 49.2044, -8.42745, 0, 0.00112608, 0.000234893, 0.000281523, 8.07911, 2.71728, 0, 0.00112588, 22.1608, -23.6874, 26.8089, 1.54393, -14.8313, 5.13557, 0.00033298, -0.000641611, 0.000445031, 7.42919E-05, 7.42919E-05, 7.42919E-05
5377, 1,0.000685124, -0.000328415, 0.000237344, 28.7317, -19.8431, 0.00313864, 182.735, -45.1006, 0, 0.00101484, 0.000739965, 0.000896635, 26.6834, 9.56051, 0, 0.00101394, 0.00068547, 0.000658283, 33.6349, -1.94133, 0, 0.00101413, 8.48199, -48.7588, 11.5952, 12.888, -27.9366, 20.8725, 0.0003005, -0.00088113, 0.000425396, 0.000215314, 0.000215314, 0.000215314
5378, 1,0.000489033, -0.000178419, 0.000144485, 20.7178, -10.1113, 0.00194686, 108.894, -22.1287, 0, 0.00105135, 0.00057504, 0.000655954, 23.1735, 4.66766, 0, 0.0010509, 0.000419937, 0.000431294, 19.1685, 0.350092, 0, 0.00105097, 6.59817, -33.7887, 13.1876, 3.42777, -19.2843, 14.8062, 0.000196963, -0.000646649, 0.000373831, 6.42249E-05, 6.42249E-05, 6.42249E-05
5379, 1,0.000461075, 0.000172809, 0.000149232, 20.7472, 9.3308, 0.00123083, 57.4407, 0.551047, 0, 0.00108794, 0.000617612, 0.000619208, 29.505, -0.314734, 0, 0.00108796, 0.000319732, 0.000366549, 12.5808, 2.56198, 0, 0.00108791, 11.4084, -27.7234, 17.2592, 0.796418, -18.4775, 9.99514, 0.000228843, -0.000596189, 0.000372261, 5.17353E-05, 5.17353E-05, 5.17353E-05
5380, 1,0.00049503, 0.000356917, 0.00027587, 23.3098, 20.6851, 0.00078646, 18.8762, 23.2993, 0, 0.00112384, 0.000820756, 0.000743144, 42.8231, -5.09035, 0, 0.00112436, 0.000228827, 0.000310995, 6.19384, 4.94656, 0, 0.00112418, 19.1936, -27.5167, 23.5942, -0.075324, -17.7817, 3.01738, 0.000324697, -0.000663427, 0.000420998, 7.67874E-05, 7.67874E-05, 7.67874E-05
5381, 1,0.000669479, -0.000357978, 0.000256197, 26.5986, -21.74, 0.00318648, 186.061, -46.4843, 0, 0.00101308, 0.000731865, 0.000926387, 24.405, 11.9436, 0, 0.00101212, 0.000668316, 0.000657549, 31.9733, -0.904544, 0, 0.00101233, 6.43781, -51.5447, 9.27601, 11.9486, -29.3325, 20.0975, 0.000293994, -0.000901568, 0.000413675, 0.00021094, 0.00021094, 0.00021094
5382, 1,0.000471162, -0.000199512, 0.000155517, 18.2451, -11.579, 0.0018628, 102.719, -19.1301, 0, 0.00104957, 0.000557995, 0.00068195, 20.2639, 7.38337, 0, 0.00104912, 0.000402465, 0.000436506, 17.2059, 1.79493, 0, 0.00104922, 4.32864, -36.9438, 10.465, 2.29284, -21.2159, 13.5383, 0.000191829, -0.000667519, 0.000355778, 6.29383E-05, 6.29383E-05, 6.29383E-05
5383, 1,0.0004342, 0.000157089, 0.00014303, 17.633, 8.14277, 0.00114392, 48.0204, 7.67563, 0, 0.00108613, 0.000574323, 0.000624468, 25.1668, 2.73457, 0, 0.00108622, 0.000308838, 0.00038489, 10.6862, 4.41594, 0, 0.00108619, 8.78645, -31.1952, 14.2051, -0.593313, -20.923, 8.26846, 0.00022238, -0.000616524, 0.000349594, 5.22822E-05, 5.22822E-05, 5.22822E-05
5384, 1,0.000456546, 0.000335249, 0.000263162, 19.4763, 19.24, 0.00086448, 14.4148, 34.3625, 0, 0.00112187, 0.000747388, 0.000723743, 36.9666, -1.71266, 0, 0.00112253, 0.000235059, 0.000353181, 4.88427, 7.20378, 0, 0.00112237, 16.211, -31.3503, 20.2773, -1.68752, -20.7588, 0.835027, 0.000316455, -0.000684402, 0.000395424, 7.95886E-05, 7.95886E-05, 7.95886E-05
5385, 1,0.000658518, -0.000389257, 0.000276382, 24.6371, -23.7368, 0.0032263, 188.837, -47.6404, 0, 0.0010114, 0.000730845, 0.000964772, 22.4011, 14.4268, 0, 0.00101038, 0.000652817, 0.000659258, 30.3504, 0.183859, 0, 0.00101061, 4.36585, -54.4899, 6.8437, 10.9916, -30.8336, 19.2904, 0.000288682, -0.000923561, 0.000400692, 0.000207186, 0.000207186, 0.000207186
5386, 1,0.000461229, -0.000222982, 0.000168693, 16.118, -13.1722, 0.00177644, 96.2701, -15.9067, 0, 0.00104784, 0.000551339, 0.000719279, 17.8068, 10.1702, 0, 0.00104739, 0.000390052, 0.000447239, 15.4595, 3.27863, 0, 0.00104751, 2.01771, -40.1748, 7.64636, 1.13511, -23.203, 12.232, 0.000186945, -0.000688686, 0.000336616, 6.17652E-05, 6.17652E-05, 6.17652E-05
5387, 1,0.000419239, 0.000143394, 0.000138998, 15.0601, 7.04399, 0.00109307, 39.9935, 15.2372, 0, 0.00108442, 0.000545712, 0.000645057, 21.4901, 5.83156, 0, 0.00108459, 0.000306527, 0.000412152, 9.18587, 6.29732, 0, 0.00108458, 6.14003, -34.6981, 11.0634, -1.99195, -23.3946, 6.49464, 0.000215981, -0.000636603, 0.000325833, 5.28946E-05, 5.28946E-05, 5.28946E-05
5388, 1,0.000432662, 0.00031349, 0.000250448, 16.3083, 17.7875, 0.000983329, 11.9404, 45.3411, 0, 0.00111999, 0.000687597, 0.000718553, 31.7259, 1.70233, 0, 0.00112079, 0.000250518, 0.000405017, 3.98645, 9.48884, 0, 0.00112064, 13.2081, -35.1561, 16.8409, -3.30153, -23.7393, -1.42569, 0.000308174, -0.000703937, 0.000367844, 8.25796E-05, 8.25796E-05, 8.25796E-05
5389, 1,0.000652703, -0.000422211, 0.000297851, 22.8756, -25.832, 0.00325187, 190.709, -48.4886, 0, 0.00100968, 0.000737061, 0.00101193, 20.6845, 17.0087, 0, 0.00100861, 0.000639454, 0.000663861, 28.7933, 1.32173, 0, 0.00100886, 2.26877, -57.5852, 4.29024, 10.0195, -32.4335, 18.4488, 0.000284658, -0.000946929, 0.000386193, 0.000204121, 0.000204121, 0.000204121
5390, 1,0.000459367, -0.000248587, 0.00018378, 14.3502, -14.8792, 0.00168426, 89.3705, -12.4448, 0, 0.00104601, 0.000554815, 0.000767578, 15.7959, 13.0195, 0, 0.00104558, 0.000383172, 0.000463868, 13.9592, 4.79321, 0, 0.00104572, -0.327285, -43.4606, 4.72929, -0.0391592, -25.2311, 10.8906, 0.000182338, -0.000709866, 0.000316179, 6.07208E-05, 6.07208E-05, 6.07208E-05
5391, 1,0.000415351, -0.00014295, 0.000137538, 12.976, -7.14194, 0.00106542, 32.7588, 23.2206, 0, 0.00108256, 0.000531402, 0.000680562, 18.4458, 8.98138, 0, 0.00108281, 0.000311694, 0.000447221, 8.01303, 8.21187, 0, 0.00108282, 3.46371, -38.2078, 7.79998, -3.40748, -25.8728, 4.64468, 0.000209531, -0.000655899, 0.000300483, 5.34137E-05, 5.34137E-05, 5.34137E-05
5392, 1,0.000422573, 0.000291776, 0.000237866, 13.7636, 16.333, 0.00113896, 10.9157, 56.68, 0, 0.00111812, 0.0006427, 0.000728897, 27.1582, 5.16028, 0, 0.00111906, 0.000272846, 0.000464118, 3.37959, 11.803, 0, 0.00111894, 10.1712, -38.912, 13.26, -4.92648, -26.7034, -3.77912, 0.000299542, -0.000721481, 0.000337928, 8.54913E-05, 8.54913E-05, 8.54913E-05
5393, 1,0.000652748, -0.000456813, 0.000320576, 21.3539, -28.024, 0.00325292, 191.037, -48.822, 0, 0.00100809, 0.000750935, 0.00106823, 19.2796, 19.6868, 0, 0.00100697, 0.000628965, 0.000672026, 27.3401, 2.5066, 0, 0.00100725, 0.136371, -60.8191, 1.62234, 9.02231, -34.1283, 17.5862, 0.000281749, -0.00097147, 0.000370193, 0.000201572, 0.000201572, 0.000201572
5394, 1,0.000464454, -0.000276107, 0.000200547, 12.8706, -16.6893, 0.00157862, 81.5798, -8.63988, 0, 0.00104428, 0.000566968, 0.000825604, 14.1428, 15.9584, 0, 0.00104387, 0.000381051, 0.000485866, 12.6521, 6.3649, 0, 0.00104403, -2.72762, -46.7868, 1.63918, -1.25007, -27.2904, 9.44573, 0.000178058, -0.000730422, 0.000293338, 5.98604E-05, 5.98604E-05, 5.98604E-05
5395, 1,0.000421619, -0.000154304, 0.000138951, 11.3448, -8.14802, 0.00105689, 26.4082, 31.2384, 0, 0.00108083, 0.000530577, 0.000729962, 16.0034, 12.1709, 0, 0.00108116, 0.000323554, 0.000489102, 7.13781, 10.1469, 0, 0.0010812, 0.7595, -41.694, 4.42192, -4.83927, -28.3328, 2.73131, 0.000202891, -0.000673991, 0.000273475, 5.36753E-05, 5.36753E-05, 5.36753E-05
5396, 1,0.000424804, 0.000270212, 0.000225515, 11.7521, 14.8851, 0.00131041, 10.1174, 68.7329, 0, 0.00111611, 0.000613187, 0.000755137, 23.2644, 8.65203, 0, 0.0011172, 0.000300502, 0.000528836, 2.97623, 14.1449, 0, 0.0011171, 7.11261, -42.5668, 9.49812, -6.56297, -29.6155, -6.25617, 0.000290478, -0.000736206, 0.000305079, 8.80922E-05, 8.80922E-05, 8.80922E-05
5397, 1,0.000658692, -0.000493025, 0.000344498, 20.0653, -30.3104, 0.00322532, 189.331, -48.2465, 0, 0.0010064, 0.000772476, 0.00113391, 18.1794, 22.4726, 0, 0.00100525, 0.000621115, 0.000683779, 25.9658, 3.74887, 0, 0.00100555, -1.99284, -64.1304, -1.29454, 8.04426, -35.8701, 16.5792, 0.000281085, -0.000996044, 0.000350234, 0.000200771, 0.000200771, 0.000200771
5398, 1,0.000476797, -0.000305417, 0.000218871, 11.733, -18.5963, 0.00146188, 73.1467, -4.67955, 0, 0.00104246, 0.000587739, 0.000892792, 12.8824, 18.9344, 0, 0.00104206, 0.000384513, 0.000513547, 11.6187, 7.94132, 0, 0.00104225, -5.14131, -50.1077, -1.55415, -2.45535, -29.3408, 7.97217, 0.000174207, -0.000750351, 0.000268839, 5.93012E-05, 5.93012E-05, 5.93012E-05
5399, 1,0.000436633, -0.000168768, 0.00014334, 10.0962, -9.30864, 0.00106823, 21.0887, 39.1413, 0, 0.00107894, 0.000541591, 0.000791709, 14.0823, 15.4054, 0, 0.00107936, 0.000341108, 0.000536887, 6.50916, 12.108, 0, 0.00107941, -1.99001, -45.1288, 0.902599, -6.30394, -30.7542, 0.734187, 0.000195907, -0.000690277, 0.000244276, 5.35477E-05, 5.35477E-05, 5.35477E-05
5400, 1,0.00043751, 0.000248993, 0.00021359, 10.1735, 13.4519, 0.00147909, 9.10646, 80.929, 0, 0.00111415, 0.000598525, 0.000796799, 19.9995, 12.1817, 0, 0.0011154, 0.000332478, 0.000598178, 2.72456, 16.5137, 0, 0.00111532, 4.01722, -46.0909, 5.52851, -8.22192, -32.4466, -8.87271, 0.000280902, -0.000747553, 0.000268747, 9.0316E-05, 9.0316E-05, 9.0316E-05
5401, 1,0.000665357, -0.000530661, 0.000369421, 18.646, -32.6816, 0.003214, 188.15, -47.3446, 0, 0.0010048, 0.000796263, 0.00120502, 17.0058, 25.4832, 0, 0.00100361, 0.000611164, 0.000695851, 24.3353, 5.16425, 0, 0.00100394, -4.22864, -67.487, -4.73391, 6.97812, -37.6144, 15.1435, 0.000282097, -0.00101881, 0.000323138, 0.000201215, 0.000201215, 0.000201215
5402, 1,0.000497806, -0.000336336, 0.000238573, 11.0136, -20.5916, 0.0013412, 64.4103, -0.568908, 0, 0.00104074, 0.000618351, 0.000970425, 12.0819, 21.9331, 0, 0.00104036, 0.000395129, 0.000548615, 10.9433, 9.50804, 0, 0.00104057, -7.59774, -53.3887, -4.81281, -3.6745, -31.3685, 6.51892, 0.000170047, -0.000769191, 0.000243194, 5.85114E-05, 5.85114E-05, 5.85114E-05
5403, 1,0.000458921, -0.000186284, 0.000150648, 9.17762, -10.6213, 0.0011007, 16.9614, 46.805, 0, 0.00107713, 0.000562555, 0.000864281, 12.6103, 18.6677, 0, 0.00107763, 0.000363486, 0.000589921, 6.10319, 14.0769, 0, 0.00107771, -4.7501, -48.4821, -2.77093, -7.765, -33.1141, -1.3516, 0.000189184, -0.000704373, 0.000212176, 5.36583E-05, 5.36583E-05, 5.36583E-05
5404, 1,0.000458577, 0.00022836, 0.000202331, 8.93141, 12.0468, 0.00165439, 8.84532, 92.5509, 0, 0.00111227, 0.000597064, 0.000852347, 17.2905, 15.7474, 0, 0.00111366, 0.000367865, 0.000671297, 2.58252, 18.9104, 0, 0.0011136, 0.879212, -49.437, 1.31547, -9.91677, -35.1555, -11.659, 0.000270823, -0.000754489, 0.000227923, 9.20639E-05, 9.20639E-05, 9.20639E-05
5405, 1,0.000683376, -0.000569963, 0.000395658, 17.887, -35.1503, 0.00328601, 192.18, -48.1437, 0, 0.00100316, 0.000831584, 0.00128632, 16.4715, 28.2701, 0, 0.00100192, 0.000611471, 0.000715942, 23.3483, 6.30673, 0, 0.00100228, -6.48547, -70.723, -7.60179, 5.90772, -39.2023, 14.3744, 0.000278809, -0.0010423, 0.000304705, 0.000196989, 0.000196989, 0.000196989
5406, 1,0.000523237, -0.000368537, 0.000259314, 10.4392, -22.6593, 0.00122586, 55.941, 3.51858, 0, 0.00103895, 0.00065456, 0.00105732, 11.4724, 25.0481, 0, 0.00103858, 0.000408512, 0.000589607, 10.3406, 11.1597, 0, 0.00103882, -10.0794, -56.6201, -8.44484, -4.879, -33.382, 4.78204, 0.000167634, -0.000785214, 0.000211097, 5.97881E-05, 5.97881E-05, 5.97881E-05
5407, 1,0.000488982, -0.000206656, 0.000160676, 8.66297, -12.076, 0.00114914, 13.7728, 54.2459, 0, 0.00107525, 0.00059365, 0.000947921, 11.6436, 21.9096, 0, 0.00107582, 0.000391445, 0.000649093, 6.00779, 16.0057, 0, 0.00107592, -7.44117, -51.7157, -6.57196, -9.13817, -35.3909, -3.48799, 0.000183891, -0.000716251, 0.00017676, 5.5265E-05, 5.5265E-05, 5.5265E-05
5408, 1,0.000486377, 0.000208511, 0.000191979, 7.97368, 10.6777, 0.0018316, 9.05691, 103.651, 0, 0.00111027, 0.000607357, 0.000920334, 15.0865, 19.3171, 0, 0.00111179, 0.000405357, 0.00074712, 2.52293, 21.2976, 0, 0.00111176, -2.15393, -52.5528, -3.24451, -11.5012, -37.6918, -14.6998, 0.000263042, -0.000756459, 0.000179771, 9.60288E-05, 9.60288E-05, 9.60288E-05
5409, 1,0.000708231, -0.000610456, 0.000422748, 17.2982, -37.6947, 0.00338734, 197.968, -49.4275, 0, 0.00100159, 0.000875203, 0.00137788, 16.155, 31.2429, 0, 0.00100028, 0.000614594, 0.00073982, 22.3588, 7.58856, 0, 0.00100067, -9.33262, -73.9074, -10.4888, 4.27133, -40.7514, 13.7144, 0.000266135, -0.00106059, 0.000287441, 0.000183131, 0.000183131, 0.000183131
5410, 1,0.000546329, -0.000401812, 0.000280869, 9.63704, -24.789, 0.0011349, 49.1107, 6.95826, 0, 0.00103727, 0.00068946, 0.00114822, 10.6755, 28.3372, 0, 0.00103691, 0.000418335, 0.000631954, 9.4596, 12.9531, 0, 0.00103717, -12.6174, -59.7378, -12.6566, -6.09317, -35.3022, 2.53603, 0.000167207, -0.000796215, 0.000169167, 6.35027E-05, 6.35027E-05, 6.35027E-05
5411, 1,0.000523741, -0.000229418, 0.000172939, 8.20884, -13.6501, 0.00119583, 10.7959, 61.287, 0, 0.00107343, 0.000631729, 0.00104269, 10.8343, 25.398, 0, 0.00107406, 0.000421744, 0.000714938, 5.86742, 18.1608, 0, 0.00107419, -10.1745, -54.9482, -11.0715, -10.5208, -37.7291, -6.23244, 0.000182236, -0.00072453, 0.000130104, 6.08564E-05, 6.08564E-05, 6.08564E-05
5412, 1,0.000514688, 0.000190193, 0.000183282, 6.98226, 9.3787, 0.0020111, 10.5117, 113.179, 0, 0.00110843, 0.000622485, 0.000993037, 13.0402, 22.9518, 0, 0.00111006, 0.000441561, 0.000820133, 2.36399, 23.7363, 0, 0.00111004, -5.27417, -55.3681, -8.21308, -13.1923, -39.9559, -18.0607, 0.000255109, -0.000751432, 0.000123721, 9.92225E-05, 9.92225E-05, 9.92225E-05
5413, 1,0.000738983, -0.000652468, 0.000450878, 16.9248, -40.3213, 0.00357185, 206.359, -48.9543, 0, 0.000999947, 0.000926176, 0.00147281, 16.1217, 34.3494, 0, 0.000998597, 0.000621567, 0.000763132, 21.4544, 8.956, 0, 0.000999008, -12.059, -76.5047, -14.4845, 2.76426, -41.699, 12.0667, 0.000260202, -0.00106701, 0.000249404, 0.000175412, 0.000175412, 0.000175412
5414, 1,0.000573779, -0.000436616, 0.000303755, 8.65569, -26.9996, 0.00108223, 44.3455, 10.0618, 0, 0.00103558, 0.000727819, 0.00124575, 9.63182, 32.1377, 0, 0.0010352, 0.000434343, 0.000681662, 8.52247, 15.229, 0, 0.00103549, -16.0132, -63.438, -16.9619, -8.13924, -37.8207, 0.272974, 0.000157663, -0.000812006, 0.000132853, 5.81651E-05, 5.81651E-05, 5.81651E-05
5415, 1,0.000548978, -0.000254957, 0.000187787, 6.97793, -15.3622, 0.00126873, 10.9921, 65.7369, 0, 0.00107162, 0.000663166, 0.00113725, 9.37341, 29.38, 0, 0.00107226, 0.00044024, 0.000775345, 4.85076, 20.7896, 0, 0.00107241, -12.856, -58.8149, -16.469, -11.8428, -40.7083, -9.8175, 0.000189796, -0.000738533, 7.19528E-05, 7.55523E-05, 7.55523E-05, 7.55523E-05
5416, 1,0.000544729, -0.000179182, 0.000176318, 6.53714, -8.72091, 0.00229944, 19.4426, 119.582, 0, 0.00110659, 0.000639214, 0.00105801, 11.5494, 25.78, 0, 0.00110827, 0.000480677, 0.000886445, 2.83753, 25.3555, 0, 0.00110828, -8.05121, -55.9386, -13.3503, -14.5668, -39.9889, -21.5107, 0.000242193, -0.000710189, 4.95254E-05, 9.67666E-05, 9.67666E-05, 9.67666E-05
5417, 1,0.000777327, -0.000695248, 0.000479472, 17.0234, -42.9959, 0.00422982, 243.303, -56.7489, 0, 0.000998455, 0.000986188, 0.00157291, 16.6204, 36.81, 0, 0.000996941, 0.000632301, 0.000785367, 20.8411, 9.62329, 0, 0.000997381, -15.2959, -77.486, -17.6481, 0.795573, -40.9805, 11.315, 0.000232334, -0.00105301, 0.000223377, 0.000146343, 0.000146343, 0.000146343
5418, 1,0.000614764, -0.000473397, 0.00032823, 9.11872, -29.3139, 0.000965437, 37.6164, 11.7652, 0, 0.00103383, 0.000783564, 0.00135167, 10.2047, 35.0661, 0, 0.00103344, 0.000458875, 0.000733718, 8.77915, 16.598, 0, 0.00103375, -17.9091, -65.9962, -21.293, -8.65626, -39.2661, -1.87165, 0.000166465, -0.000818397, 8.29498E-05, 7.12168E-05, 7.12168E-05, 7.12168E-05
5419, 1,0.000591268, -0.000282597, 0.000204589, 6.9994, -17.182, 0.00152376, 19.5401, 70.5492, 0, 0.00106975, 0.000713081, 0.00124347, 9.21517, 32.9133, 0, 0.00107041, 0.00047364, 0.000844316, 5.00716, 22.9531, 0, 0.00107058, -15.6034, -62.0431, -21.0934, -13.1857, -43.1555, -12.518, 0.000188664, -0.000744602, 2.18416E-05, 8.22165E-05, 8.22165E-05, 8.22165E-05
5420, 1,0.000594033, -0.000181643, 0.000168793, 6.00024, -9.32229, 0.00285414, 30.72, 139.701, 0, 0.00110442, 0.000678907, 0.00116571, 10.1141, 29.6821, 0, 0.00110639, 0.000531042, 0.000989538, 2.77534, 28.0375, 0, 0.00110642, -10.7044, -57.2335, -21.1085, -15.6851, -41.0109, -27.4166, 0.000249435, -0.000661385, -6.98137E-05, 0.000117139, 0.000117139, 0.000117139
5421, 1,0.000810925, -0.000740915, 0.000510717, 15.5452, -45.8287, 0.00563349, 325.672, -78.2202, 0, 0.000997312, 0.00103827, 0.00168247, 15.3675, 40.8912, 0, 0.000995386, 0.00064632, 0.000827586, 19.0496, 11.8587, 0, 0.000995855, -20.0109, -81.5643, -21.0983, -2.58947, -43.2845, 10.2977, 0.000190634, -0.00107837, 0.000224231, 0.000104111, 0.000104111, 0.000104111
5422, 1,0.000664163, -0.000509112, 0.000351312, 9.1188, -31.5869, 0.00083268, 27.6414, 16.9595, 0, 0.00103214, 0.000849065, 0.00147008, 10.3966, 39.0857, 0, 0.00103177, 0.000486926, 0.00079131, 8.28496, 19.0281, 0, 0.00103211, -21.5556, -66.5708, -29.1308, -10.8562, -38.8562, -7.37181, 0.00015156, -0.000767626, -1.81295E-05, 6.15572E-05, 6.15572E-05, 6.15572E-05
5423, 1,0.000620714, -0.000310851, 0.000221766, 7.32824, -19.0338, 0.0017309, 17.8962, 86.0625, 0, 0.0010678, 0.000753015, 0.0013387, 9.50454, 35.4556, 0, 0.00106867, 0.000488867, 0.000898057, 5.17128, 24.1095, 0, 0.00106887, -16.3888, -63.1179, -26.86, -12.4381, -43.5325, -16.358, 0.000216645, -0.000721327, -7.06451E-05, 0.000120155, 0.000120155, 0.000120155
5424, 1,0.00067232, -0.000186303, 0.00016355, 6.1857, -10.0319, 0.0034503, 29.2382, 179.612, 0, 0.00110202, 0.000748928, 0.00131985, 9.46154, 34.6232, 0, 0.00110461, 0.000614974, 0.00113132, 3.9135, 31.7509, 0, 0.00110466, -15.3973, -61.1781, -27.2942, -18.7932, -44.9288, -31.5307, 0.000232963, -0.000650473, -0.000144407, 0.000114442, 0.000114442, 0.000114442
5425, 1,0.000967376, -0.000794676, 0.000549657, 21.0121, -49.0859, 0.00799508, 443.912, -124.068, 0.0116765, 0.000996446, 0.00120454, 0.00189028, 20.5633, 43.2822, 0, 0.000993731, 0.000799348, 0.00099056, 25.0823, 12.3215, 0, 0.00099423, -22.3713, -89.1789, -18.2964, -3.61302, -49.2511, 15.8996, 0.000164443, -0.00120145, 0.000334744, 7.67472E-05, 7.67472E-05, 7.67472E-05
5426, 1,0.000735545, -0.000550017, 0.000379046, 7.69995, -34.1146, 0.00148894, 69.7906, 1.93846, 0, 0.00103067, 0.000937052, 0.00162786, 9.15595, 46.1869, 0, 0.00102993, 0.000539673, 0.000888959, 6.5668, 24.5208, 0, 0.00103029, -25.2638, -72.6883, -40.6085, -13.1246, -44.1127, -16.3251, 0.000180595, -0.000784877, -0.000145123, 9.58487E-05, 9.58487E-05, 9.58487E-05
5427, 1,0.000704299, -0.00034338, 0.000243089, 9.00951, -21.0892, 0.00194993, 8.91687, 111.387, 0, 0.00106552, 0.000846096, 0.00150426, 11.0953, 39.3748, 0, 0.00106677, 0.000563538, 0.00102079, 6.98106, 26.643, 0, 0.00106699, -17.5811, -68.6832, -31.8603, -12.0937, -48.7197, -19.1155, 0.000258874, -0.000770195, -0.000127591, 0.00017245, 0.00017245, 0.00017245
5428, 1,0.000779532, -0.000200266, 0.000167601, 10.9957, -11.1882, 0.00409557, 20.1379, 217.414, 0.00938217, 0.0010995, 0.000881194, 0.00150977, 14.8518, 36.1674, 0, 0.00110276, 0.000690171, 0.00124734, 7.77114, 32.0524, 0, 0.00110283, -13.8435, -69.545, -25.1137, -15.6712, -53.4101, -27.0757, 0.000296562, -0.000788996, -9.4526E-05, 0.000191231, 0.000191231, 0.000191231
5429, 1,0.000968081, -0.000846638, 0.000585272, 12.5192, -52.3027, 0.009539, 466.999, -158.355, 0.0437454, 0.000995515, 0.00123856, 0.00205545, 12.8739, 54.9313, 0, 0.000992011, 0.000755458, 0.00104796, 15.3353, 21.9893, 0, 0.000992542, -30.5149, -99.9654, -34.3137, -10.2525, -58.4484, 2.73307, 0.000169229, -0.00123577, 0.000175237, 8.31068E-05, 8.31068E-05, 8.31068E-05
5430, 1,0.000750686, -0.000594814, 0.00041113, 11.9608, -36.8443, 0.00192514, 106.423, -19.5183, 0, 0.00102934, 0.000967461, 0.00165222, 13.4991, 42.2055, 0, 0.00102831, 0.000544232, 0.00086231, 11.0193, 18.9133, 0, 0.0010287, -21.8942, -70.7127, -34.0096, -8.4754, -40.7249, -7.53958, 0.000189414, -0.000800183, -7.40314E-05, 0.000106221, 0.000106221, 0.000106221
5431, 1,0.000748115, -0.000374132, 0.000263169, 2.27471, -23.0564, 0.0024273, 15.6488, 132.427, 0, 0.00106334, 0.00089847, 0.00169513, 4.22643, 51.7857, 0, 0.00106473, 0.000600369, 0.0011741, 0.542619, 37.6869, 0, 0.00106498, -31.8, -80.3, -43.2571, -24.7037, -60.1578, -28.1992, 0.000155414, -0.000812925, -0.000182794, 8.13021E-05, 8.13021E-05, 8.13021E-05
5432, 1,0.000833791, -0.000216175, 0.000172859, 8.37216, -12.4331, 0.0049062, -2.81267, 243.91, 0.0429578, 0.00109727, 0.000944987, 0.00166405, 12.1424, 43.2838, 0, 0.00110095, 0.000726876, 0.00136088, 4.8418, 37.9357, 0, 0.00110105, -14.4252, -77.4315, -37.9948, -14.9573, -61.2296, -37.6204, 0.000394535, -0.000826395, -0.000270575, 0.00029714, 0.00029714, 0.00029714
5433, 1,0.000958438, -0.00090619, 0.000626741, 15.2429, -55.962, 0.00708808, 418.887, -109.322, 0, 0.000993188, 0.00125592, 0.00209129, 15.9989, 54.1624, 0, 0.000990556, 0.000723114, 0.000999698, 17.932, 19.029, 0, 0.000991121, -26.9935, -98.8758, -36.6179, -5.29888, -55.0936, 3.30554, 0.000243472, -0.00121018, 8.7863E-05, 0.00015104, 0.00015104, 0.00015104
5434, 1,0.000746544, -0.000636364, 0.00043878, 5.75304, -39.473, 0.000797551, 28.5863, 13.041, 0, 0.00102726, 0.000978754, 0.00179303, 7.39663, 51.8111, 0, 0.00102662, 0.000522133, 0.000937719, 4.57626, 26.7434, 0, 0.00102704, -31.176, -77.5202, -46.7371, -15.9164, -46.7481, -17.5656, 0.000153345, -0.000789707, -0.000204299, 8.00303E-05, 8.00303E-05, 8.00303E-05
5435, 1,0.000755902, -0.000405565, 0.000283244, 5.40155, -25.0765, 0.00232888, 6.05642, 139.467, 0, 0.00106181, 0.000915942, 0.00171275, 7.24158, 49.6481, 0, 0.00106336, 0.000597333, 0.00115428, 3.76009, 34.0822, 0, 0.00106363, -34.647, -74.4193, -39.8781, -26.2322, -53.4646, -22.5498, 6.54332E-05, -0.000725527, -0.000145507, -4.45346E-06, -4.45346E-06, -4.45346E-06
5436, 1,0.000811858, -0.000231535, 0.000177769, 5.35212, -13.5809, 0.00504487, 15.8036, 224.904, 0.0440073, 0.00109641, 0.000918341, 0.00170437, 8.24191, 47.6166, 0, 0.00109967, 0.000710705, 0.00139404, 3.03657, 41.0305, 0, 0.00109979, -14.8666, -75.4457, -52.5375, -14.7099, -58.4991, -49.8824, 0.000453928, -0.000723216, -0.000503458, 0.000350856, 0.000350856, 0.000350856
5437, 1,0.00111827, -0.000979527, 0.000681733, 19.8214, -60.2911, 0.00525077, 308.971, -78.4577, 0, 0.000991815, 0.00143356, 0.00234408, 20.4763, 60.6227, 0, 0.000989579, 0.0008787, 0.00119281, 23.2609, 23.191, 0, 0.000990181, -32.2646, -113.41, -36.1934, -8.67467, -68.046, 7.14774, 0.000246576, -0.00140603, 0.000175849, 0.000156359, 0.000156359, 0.000156359
5438, 1,0.000784383, -0.000683694, 0.000470981, 6.97878, -42.3636, 0.000927401, 3.96649, 53.8478, 0, 0.00102566, 0.00103556, 0.00189738, 8.83373, 53.9215, 0, 0.00102565, 0.000539936, 0.000976093, 5.5691, 27.1028, 0, 0.0010261, -32.0643, -78.2833, -51.4167, -15.0321, -46.9813, -19.2951, 0.000178963, -0.000766934, -0.00028688, 0.000114927, 0.000114927, 0.000114927
5439, 1,0.000760436, -0.000437219, 0.000301691, 5.56979, -27.0685, 0.00265249, 3.30989, 164.216, 0, 0.00106041, 0.000925515, 0.00175741, 7.18462, 50.393, 0, 0.00106237, 0.000599701, 0.00116559, 4.11667, 33.4701, 0, 0.00106266, -35.3962, -73.9741, -41.8087, -26.2975, -52.292, -21.821, 6.67408E-05, -0.000704765, -0.000179622, -1.0323E-05, -1.0323E-05, -1.0323E-05
5440, 1,0.000976482, -0.000258149, 0.00019903, 15.8229, -15.0293, 0.00512044, 14.2192, 229.57, 0.0453635, 0.00109542, 0.00111096, 0.00192057, 19.7631, 45.6424, 0, 0.0010988, 0.000843305, 0.00154051, 11.9241, 38.4591, 0, 0.00109893, -5.48745, -83.8808, -47.5589, -5.81115, -66.434, -43.1321, 0.000621494, -0.000942869, -0.000419311, 0.0004985, 0.0004985, 0.0004985
5441, 1,0.00139422, -0.00106262, 0.000745153, 38.0861, -65.1056, 0.00362983, 203.393, -38.948, 0, 0.000990471, 0.00173265, 0.00261191, 38.8208, 55.8696, 0, 0.000988948, 0.00114719, 0.0013907, 42.2433, 16.1013, 0, 0.000989587, -29.5083, -114.698, -23.403, -3.93835, -67.8748, 23.5091, 0.000238107, -0.00149136, 0.00034685, 0.000152259, 0.000152259, 0.000152259
5442, 1,0.000913047, -0.000732733, 0.000503136, 14.3575, -45.364, 0.00155094, 10.0337, 84.8646, 0, 0.00102412, 0.00117978, 0.00202333, 16.258, 52.9838, 0, 0.00102465, 0.000652439, 0.00103695, 12.9147, 24.3707, 0, 0.00102512, -33.1912, -72.9414, -52.819, -14.5845, -41.4612, -17.0663, 0.000144226, -0.000653455, -0.000350377, 8.51964E-05, 8.51964E-05, 8.51964E-05
5443, 1,0.00083273, -0.000466184, 0.000322099, 4.5451, -28.843, 0.00350154, 13.4177, 204.534, 0, 0.00105857, 0.000997345, 0.00193426, 5.47652, 57.0005, 0, 0.00106111, 0.000690588, 0.00132217, 4.73073, 39.0162, 0, 0.00106142, -41.5381, -79.2586, -50.2048, -32.1214, -57.5739, -27.3533, 4.20441E-05, -0.000700594, -0.000266299, -4.49219E-05, -4.49219E-05, -4.49219E-05
5444, 1,0.0013, -0.000300539, 0.000241696, 35.7162, -17.0331, 0.0064661, 15.1391, 239.945, 0.0866901, 0.00109429, 0.00148117, 0.00217689, 41.7742, 40.669, 0, 0.00109805, 0.00111966, 0.00170322, 29.6917, 33.4823, 0, 0.00109818, 12.1334, -93.425, -40.7153, 10.3346, -75.153, -35.6286, 0.000914968, -0.0012135, -0.000361461, 0.000760346, 0.000760346, 0.000760346
5445, 1,0.00178572, -0.00116888, 0.000825957, 53.286, -71.2501, 0.0024391, 112.459, 7.44852, 0, 0.000988694, 0.00218129, 0.00312454, 55.6465, 63.1157, 0, 0.000987801, 0.00147053, 0.00172657, 55.1775, 20.3612, 0, 0.000988486, -40.9498, -120.567, -27.8298, -12.3255, -73.3932, 24.6351, 0.000118948, -0.00148941, 0.00034653, 4.96305E-05, 4.96305E-05, 4.96305E-05
5446, 1,0.00119375, -0.000791, 0.000545265, 26.3867, -48.8165, 0.00210531, 1.88131, 131.125, 0, 0.00102215, 0.00148439, 0.00237206, 28.7534, 55.6484, 0, 0.00102341, 0.00090766, 0.0012993, 24.3732, 25.1778, 0, 0.00102391, -41.8639, -66.2123, -58.8689, -21.2124, -36.2412, -18.0798, 6.63588E-06, -0.000458789, -0.000450613, -3.87969E-05, -3.87969E-05, -3.87969E-05
5447, 1,0.00101176, -0.000493234, 0.000349068, 20.9463, -30.321, 0.00504615, 40.6228, 213.836, 0.0294876, 0.00105698, 0.00119973, 0.00203263, 23.0933, 45.7531, 0, 0.00105993, 0.00083105, 0.00136131, 19.2107, 27.2436, 0, 0.00106024, -36.9282, -50.3723, -49.9586, -27.3393, -29.9628, -24.4286, -3.62634E-05, -0.000257433, -0.00044859, -0.000128117, -0.000128117, -0.000128117
5448, 1,0.00153336, -0.000318231, 0.000263834, 45.0952, -17.6526, 0.00982467, 3.28549, 262.002, 0.201571, 0.00109215, 0.00173488, 0.00250025, 52.3594, 42.4209, 0, 0.00109664, 0.00133435, 0.00200701, 37.9442, 35.8001, 0, 0.00109676, 15.975, -73.2795, -69.9581, 13.852, -56.9258, -64.3265, 0.00103903, -0.000746662, -0.000980771, 0.000885241, 0.000885241, 0.000885241
5449, 1,0.00218528, -0.00131455, 0.000942319, 69.6606, -79.3764, 0.00197259, 62.6051, 43.8188, 0, 0.000986846, 0.00269645, 0.00378592, 76.3685, 68.6692, 0, 0.000986448, 0.00172397, 0.00206362, 65.6833, 22.5786, 0, 0.000987186, -52.4226, -106.423, -47.162, -19.3022, -63.2487, 14.8153, -2.08365E-05, -0.00109389, 8.51263E-07, -4.87152E-05, -4.87152E-05, -4.87152E-05
5450, 1,0.00149412, -0.00087239, 0.000613947, 33.0929, -53.3747, 0.00316098, 39.0316, 148.748, 0, 0.00102003, 0.00183234, 0.00278616, 37.0433, 66.7372, 0, 0.00102139, 0.00116121, 0.00158451, 29.5166, 34.365, 0, 0.00102193, -67.2271, -58.0873, -74.8971, -44.1316, -31.7174, -27.246, -0.000347684, -0.000102957, -0.000631902, -0.000371919, -0.000371919, -0.000371919
5451, 1,0.00130069, -0.000543536, 0.000397258, 17.3365, -32.9634, 0.00823817, 11.9797, 243.587, 0.151964, 0.0010542, 0.00152911, 0.00263824, 21.3693, 68.6334, 0, 0.00105759, 0.00108494, 0.00187791, 13.8719, 49.4733, 0, 0.00105792, -58.5377, -50.7532, -96.6094, -46.5463, -35.1656, -66.7081, -0.000120031, 0.000118556, -0.00111198, -0.000172244, -0.000172244, -0.000172244
5452, 1,0.00198268, -0.000368418, 0.000316278, 57.456, -19.8876, 0.0128623, 0.998622, 246.157, 0.339254, 0.00109079, 0.00224617, 0.00322986, 67.8254, 56.2347, 0, 0.00109518, 0.00171951, 0.00260602, 47.0938, 50.0541, 0, 0.00109529, -3.43596, -80.1248, -85.1435, -4.0433, -70.7281, -75.3908, 0.000861492, -0.000655306, -0.00111869, 0.000745576, 0.000745576, 0.000745576
5453, 1,0.00247912, -0.00153437, 0.00110941, 55.7925, -92.1931, 0.00395426, 47.5793, 88.0801, 0.0530248, 0.000985944, 0.00311238, 0.00468479, 65.8368, 110.211, 0, 0.000985638, 0.0018876, 0.00260575, 48.1164, 57.6327, 0, 0.000986479, -98.0042, -123.824, -108.805, -54.8474, -87.9141, -30.1365, -0.000305621, -0.000784091, -0.000697899, -0.000224383, -0.000224383, -0.000224383
5454, 1,0.00188548, -0.000995248, 0.000712279, 36.2807, -60.929, 0.00649683, 0.49127, 218.218, 0.120736, 0.00101962, 0.00229912, 0.00365721, 42.2088, 89.4783, 0, 0.00102201, 0.00147842, 0.00225715, 30.7499, 52.5054, 0, 0.00102262, -93.8467, -54.4072, -120.181, -63.6524, -33.317, -60.5469, -0.000538072, 0.000367725, -0.00128101, -0.00048548, -0.00048548, -0.00048548
5455, 1,0.00184655, -0.0006376, 0.000475274, 30.2061, -38.8773, 0.0119123, 1.91004, 244.564, 0.303641, 0.00105526, 0.0021458, 0.00340022, 36.1879, 87.6233, 0, 0.00105881, 0.00155313, 0.00246867, 24.4345, 64.6091, 0, 0.0010592, -80.5631, -40.8608, -141.446, -61.4768, -30.5363, -101.814, -0.000268406, 0.000663262, -0.00181633, -0.00023204, -0.00023204, -0.00023204
5456, 1,0.00223341, -0.0004559, 0.000380659, 33.7321, -25.5005, 0.0170097, 17.7288, 234.214, 0.47302, 0.00109054, 0.00253868, 0.00415353, 44.6184, 105.421, 0, 0.00109431, 0.00192825, 0.00339696, 22.8542, 95.3119, 0, 0.00109449, -49.8817, -98.1931, -168.187, -43.3009, -94.9896, -147.645, 0.000682041, -0.000239445, -0.0021531, 0.000655134, 0.000655134, 0.000655134
5457, 1,0.0031175, -0.00185284, 0.00131654, 50.8096, -108.924, 0.00895892, -5.83305, 147.659, 0.256237, 0.000985236, 0.00387326, 0.0063242, 59.5812, 156.015, 0.00614755, 0.000985488, 0.00237895, 0.0037594, 43.0607, 89.3569, 0.00333541, 0.00098656, -137.896, -129.711, -200.438, -78.3337, -93.4273, -96.3097, -0.000367967, -0.000134359, -0.00203673, -0.00016731, -0.00016731, -0.00016731
5458, 1,0.00199448, -0.00117622, 0.000846823, 18.5995, -72.3758, 0.0109807, -8.761, 251.391, 0.266958, 0.00101958, 0.00250747, 0.00421233, 26.2491, 125.148, 0, 0.0010224, 0.00148438, 0.0025265, 11.1778, 80.3807, 0, 0.00102314, -120.022, -78.591, -176.832, -79.5975, -58.3677, -103.177, -0.000492019, 0.000438567, -0.00197644, -0.000346184, -0.000346184, -0.000346184
5459, 1,0.00227632, -0.000757155, 0.000568229, 42.9877, -46.5083, 0.0152193, -4.20121, 272.952, 0.390188, 0.00105511, 0.00264676, 0.00409422, 50.1359, 101.077, 0, 0.00105936, 0.00190999, 0.0029687, 36.0401, 72.6442, 0, 0.00105985, -98.9445, -44.356, -159.932, -71.4739, -35.9354, -110.523, -0.00041301, 0.000810223, -0.00203688, -0.00028475, -0.00028475, -0.00028475
5460, 1,0.00302555, -0.000538519, 0.0004267, 55.5088, -31.4353, 0.0208246, 4.19566, 258.75, 0.591063, 0.00108953, 0.00333318, 0.00536054, 64.5016, 126.054, 0, 0.00109414, 0.00272122, 0.00451641, 46.6632, 110.394, 0, 0.00109442, -99.4134, -45.6486, -233.1, -83.533, -49.0182, -198.629, 2.36626E-05, 0.00120316, -0.00327192, 0.000105422, 0.000105422, 0.000105422
5461, 1,0.0031171, -0.00202696, 0.00138887, 58.8884, -122.803, 0.00820847, -27.9612, 183.865, 0.234782, 0.000973191, 0.00386774, 0.00638154, 61.8119, 152.992, 0.00506095, 0.00097411, 0.00236651, 0.00360412, 55.9701, 70.7262, 0.00209851, 0.000975416, -125.647, -72.2114, -261.117, -57.9273, -23.886, -130.365, -0.000113577, 0.00104596, -0.00342019, 9.11473E-06, 9.11473E-06, 9.11473E-06
5462, 1,0.00274152, -0.00136595, 0.000957525, 51.5247, -85.5985, 0.0113898, -26.8912, 254.767, 0.31037, 0.00100915, 0.00328377, 0.0052098, 56.1248, 133.721, 7.66495E-08, 0.00101201, 0.00220322, 0.00331251, 47.1829, 77.3281, 7.66495E-08, 0.00101294, -115.386, -72.6863, -213.091, -63.5275, -45.7769, -122.68, -0.000223134, 0.000686854, -0.00263239, -1.77318E-05, -1.77318E-05, -1.77318E-05
5463, 1,0.00258859, -0.000903566, 0.00065948, 32.5037, -56.7582, 0.0153676, -14.1918, 281.392, 0.403121, 0.00104457, 0.00299686, 0.00491229, 37.9604, 138.28, 0, 0.00104839, 0.00218365, 0.00360461, 27.1967, 100.677, 0, 0.00104903, -134.479, -57.9665, -222.393, -93.8468, -47.3993, -160.785, -0.000537547, 0.0010831, -0.0027886, -0.000274256, -0.000274256, -0.000274256
5464, 1,0.00305131, -0.000670356, 0.000501278, 27.2979, -41.371, 0.0183061, -26.7744, 291.98, 0.518815, 0.00107837, 0.00337324, 0.00572562, 32.8927, 167.04, 0, 0.00108265, 0.00273248, 0.00474522, 21.8831, 141.165, 0, 0.0010831, -166.487, -30.0997, -304.533, -133.431, -36.3528, -253.711, -0.000699952, 0.00212707, -0.00413683, -0.000413396, -0.000413396, -0.000413396
5465, 1,0.00639717, -0.00204506, 0.00138509, 2.49467, -116.306, 0.0265039, -40.1193, 311.131, 0.791082, 0.000938979, 0.00711836, 0.0116104, 6.10086, 220.055, 0.123874, 0.000943877, 0.00567744, 0.00890336, -1.0209, 142.678, 0.123312, 0.000945152, -266.859, -67.6016, -325.705, -162.64, -52.7247, -212.669, -0.00233015, 0.00452746, -0.00603039, -0.00108059, -0.00108059, -0.00108059
5466, 1,0.00473399, -0.00159521, 0.00111949, 16.2042, -94.4944, 0.0211858, -33.7282, 295.264, 0.633645, 0.000972865, 0.00536251, 0.00860936, 21.1434, 201.055, 0.0588743, 0.000976802, 0.00411174, 0.00642278, 11.5202, 137.703, 0.0580427, 0.000977842, -254.578, -68.8028, -279.785, -165.54, -56.842, -190.727, -0.00223432, 0.0028746, -0.0040114, -0.00123804, -0.00123804, -0.00123804
5467, 1,0.00328734, -0.00131985, 0.000927773, 37.6991, -82.4452, 0.0164092, -15.1426, 265.322, 0.473271, 0.001006, 0.00382148, 0.00633959, 42.2736, 167.902, 0.00935274, 0.00100913, 0.00275397, 0.00449704, 33.1769, 112.518, 0.00935274, 0.00101004, -223.357, -29.6828, -250.664, -143.996, -19.2463, -174.311, -0.00190981, 0.00229322, -0.00312131, -0.00108909, -0.00108909, -0.00108909
5468, 1,0.00282878, -0.00123826, 0.000864942, 21.8677, -77.6113, 0.0112692, -11.1169, 252.661, 0.277738, 0.00103701, 0.00331648, 0.00584726, 25.9238, 174.919, -8.67362E-19, 0.0010391, 0.00234294, 0.00412968, 17.8962, 123.647, -8.67362E-19, 0.00103997, -225.268, -45.2192, -254.271, -151.077, -33.569, -186.295, -0.00196433, 0.00185331, -0.00272727, -0.00120243, -0.00120243, -0.00120243
5469, 1,0.00493028, -0.00192626, 0.00135362, 31.2496, -108.51, 0.0287294, 45.0806, 221.066, 0.802086, 0.000938263, 0.00567745, 0.00933357, 39.4352, 170.829, 0.0783913, 0.000941643, 0.00419634, 0.00675354, 23.5665, 104.627, 0.077387, 0.000942702, -180.983, -63.4623, -268.04, -95.0851, -51.132, -167.663, -0.000754652, 0.00269611, -0.00483782, 0.000279323, 0.000279323, 0.000279323
5470, 1,0.00343663, -0.00148013, 0.00103927, 21.4426, -86.93, 0.0228997, 21.7339, 241.712, 0.647554, 0.000970456, 0.00403151, 0.00698561, 27.7389, 163.598, 0.0316606, 0.000973799, 0.00284618, 0.004982, 15.4827, 109.127, 0.0306211, 0.000974676, -173.376, -52.129, -265.288, -96.5526, -43.0234, -187.804, -0.000756553, 0.00215565, -0.00409955, 0.000130385, 0.000130385, 0.000130385
5471, 1,0.00267171, -0.0012269, 0.000873924, 25.0844, -75.5943, 0.018212, 5.36585, 250.602, 0.511799, 0.00100256, 0.00318946, 0.00559417, 32.0451, 159.267, 0, 0.00100568, 0.00215646, 0.00386244, 18.2832, 111.736, 0, 0.00100645, -210.181, -41.8454, -225.774, -138.55, -35.0774, -161.58, -0.00169569, 0.00176004, -0.00264779, -0.000933859, -0.000933859, -0.000933859
5472, 1,0.00290047, -0.00121465, 0.000884693, 37.0605, -73.1759, 0.0170849, 7.3734, 252.534, 0.453935, 0.00103446, 0.00345433, 0.00580648, 47.7698, 156.116, 0, 0.00103752, 0.00234695, 0.00404751, 26.3581, 113.945, 0, 0.00103823, -209.312, -41.2717, -217.763, -143.697, -35.0318, -163.106, -0.00190226, 0.00169219, -0.0023231, -0.00118017, -0.00118017, -0.00118017
5473, 1,0.0033597, -0.00164516, 0.00116889, 50.2812, -95.2191, 0.0252427, 35.8609, 218.794, 0.727294, 0.000938813, 0.00402324, 0.00666122, 59.3055, 138.12, 0.0218844, 0.000942299, 0.00271489, 0.00444322, 42.1484, 82.1832, 0.0204217, 0.000943167, -121.364, -75.5064, -217.489, -51.5654, -58.8275, -136.157, 3.18165E-05, 0.00108852, -0.00338749, 0.00070023, 0.00070023, 0.00070023
5474, 1,0.00251978, -0.00126015, 0.000881329, 42.0056, -75.4416, 0.01997, 29.4363, 225.855, 0.561729, 0.000971332, 0.00300349, 0.00520155, 47.8691, 123.864, 0.000908979, 0.000974569, 0.0020523, 0.00351787, 36.9959, 79.3505, 0.000343684, 0.000975274, -126.337, -39.0828, -206.171, -62.9779, -27.0803, -147.993, -0.000448811, 0.00136486, -0.00292558, 0.000182635, 0.000182635, 0.000182635
5475, 1,0.00208269, -0.00106404, 0.000760835, 21.3907, -64.1828, 0.0156693, 1.46448, 247.26, 0.438127, 0.00100313, 0.00252944, 0.00457523, 28.9231, 122.213, 0, 0.00100647, 0.00166078, 0.00309636, 15.0112, 85.072, 0, 0.00100708, -139.603, -56.8169, -170.219, -84.0108, -47.6176, -123.588, -0.000881144, 0.000885922, -0.00198721, -0.000294716, -0.000294716, -0.000294716
5476, 1,0.00279328, -0.0010333, 0.000771245, 57.1205, -61.1652, 0.0146519, 26.3902, 227.311, 0.372337, 0.00103515, 0.00329869, 0.0051479, 69.1715, 118.862, 0, 0.00103798, 0.00228979, 0.00361657, 45.1133, 86.1747, 0, 0.00103853, -160.626, -48.4141, -147.545, -111.998, -36.3819, -110.145, -0.00150299, 0.000970832, -0.00139667, -0.000991471, -0.000991471, -0.000991471
5477, 1,0.00223506, -0.00139478, 0.000978737, 35.5336, -84.7243, 0.0210299, 10.5464, 234.705, 0.626252, 0.000938878, 0.00277142, 0.0048095, 42.1076, 120.927, 0, 0.00094254, 0.00172066, 0.00295058, 30.1783, 70.9055, 0, 0.000943305, -91.2759, -108.655, -162.851, -34.7153, -81.6035, -96.3977, 0.000213074, -3.40141E-05, -0.00214004, 0.000609113, 0.000609113, 0.000609113
5478, 1,0.00194334, -0.00110408, 0.000758065, 29.3352, -67.4649, 0.0166896, 14.4234, 234.226, 0.469718, 0.000970897, 0.0023416, 0.0040914, 33.0898, 103.901, 0, 0.000974267, 0.0015571, 0.00264162, 26.2135, 63.2563, 0, 0.00097491, -88.5662, -69.4267, -153.71, -37.44, -48.12, -104.209, -7.57859E-05, 0.000410701, -0.00202, 0.000358589, 0.000358589, 0.000358589
5479, 1,0.00180991, -0.000921174, 0.000647917, 20.9588, -56.1405, 0.013048, 7.05668, 242.204, 0.337058, 0.00100314, 0.00216683, 0.00390452, 26.0214, 102.346, 0, 0.00100633, 0.00147321, 0.00265735, 16.5889, 68.9335, 0, 0.00100688, -106.076, -71.2521, -129.711, -59.882, -53.1809, -93.7377, -0.000556942, 0.000271147, -0.00137461, -0.000109188, -0.000109188, -0.000109188
5480, 1,0.0022183, -0.000855528, 0.000636606, 48.1019, -50.7906, 0.00828413, -11.977, 250.46, 0.179872, 0.00103616, 0.00262861, 0.00413455, 57.6141, 91.9038, -2.1684E-19, 0.0010393, 0.00181176, 0.00287466, 38.7149, 64.5385, -2.1684E-19, 0.00103976, -116.695, -70.9319, -88.0841, -81.3184, -49.1024, -63.1946, -0.00102551, 5.30577E-05, -0.000519032, -0.000710211, -0.000710211, -0.000710211
5481, 1,0.0017307, -0.00122753, 0.000851924, 22.0428, -75.5585, 0.0185196, -4.78253, 243.889, 0.556981, 0.000938297, 0.00218707, 0.00387916, 26.1199, 105.525, 0, 0.000942086, 0.00128742, 0.00224796, 19.2064, 59.3645, 0, 0.000942792, -77.7405, -116.138, -122.698, -29.7529, -82.5286, -65.812, 0.000146785, -0.000412639, -0.00144549, 0.000425656, 0.000425656, 0.000425656
5482, 1,0.00144257, -0.00100059, 0.000683674, 16.886, -61.6562, 0.0149587, 9.47361, 243.943, 0.400632, 0.000970344, 0.00175249, 0.00327318, 18.3229, 85.1858, 0, 0.000973956, 0.00114608, 0.00200093, 15.9993, 47.3211, 0, 0.000974555, -69.2279, -82.8238, -103.506, -25.6581, -56.4896, -59.8157, -2.38502E-05, -0.000159476, -0.00119832, 0.000295913, 0.000295913, 0.000295913
5483, 1,0.00143485, -0.000818709, 0.000569415, 21.6666, -50.3789, 0.010629, 28.963, 237.072, 0.218427, 0.00100329, 0.00174932, 0.00309031, 25.4525, 77.3251, 5.42101E-20, 0.00100644, 0.00112528, 0.00196821, 17.9819, 46.4789, 5.42101E-20, 0.00100694, -84.0377, -64.1574, -83.7801, -45.1453, -40.8809, -53.4105, -0.000516241, 1.51084E-05, -0.000753419, -0.000181654, -0.000181654, -0.000181654
5484, 1,0.00185248, -0.000737544, 0.000539161, 47.289, -44.1577, 0.00436567, 31.552, 207.989, 0.0157966, 0.00103707, 0.00219257, 0.00326935, 54.3492, 67.5598, 0, 0.00103947, 0.0015127, 0.00219292, 40.2334, 42.9319, 0, 0.00103989, -74.4813, -73.0248, -55.1733, -47.563, -45.9145, -35.3183, -0.000529982, -0.000406079, -0.000160438, -0.000349718, -0.000349718, -0.000349718
5485, 1,0.00152431, -0.00111045, 0.000768316, 25.1644, -68.6951, 0.0170345, -13.2291, 241.259, 0.518996, 0.000939176, 0.00192786, 0.00336645, 28.0352, 86.8358, 0, 0.000943037, 0.00113881, 0.00190626, 23.9496, 44.6195, 0, 0.000943683, -56.0123, -113.801, -90.6939, -13.7494, -78.6688, -41.4403, 0.000233707, -0.000640002, -0.00100206, 0.000456349, 0.000456349, 0.000456349
5486, 1,0.00129831, -0.000901458, 0.000613515, 14.6134, -55.9073, 0.012636, 6.73672, 252.167, 0.308745, 0.00097145, 0.00158485, 0.00296204, 15.4013, 78.8014, 0, 0.000975017, 0.00101707, 0.00178788, 13.8759, 43.947, 0, 0.000975569, -71.0929, -81.2847, -84.0267, -32.9392, -52.8513, -46.0504, -0.000192702, -0.000237483, -0.00084799, 6.06145E-05, 6.06145E-05, 6.06145E-05
5487, 1,0.00116288, -0.000741542, 0.000506457, 11.8215, -45.8661, 0.00732724, 8.30287, 260.438, 0.106848, 0.00100421, 0.00143068, 0.00261355, 14.2572, 72.558, 0, 0.00100754, 0.000896875, 0.00161519, 9.39274, 44.0146, 0, 0.00100801, -73.743, -65.5172, -78.4137, -40.9456, -39.7544, -51.3438, -0.000376785, -0.000110944, -0.000689509, -0.000134612, -0.000134612, -0.000134612
5488, 1,0.00150698, -0.000665839, 0.000478108, 37.466, -40.2319, 0.0027057, 2.00781, 168.781, 0, 0.00103894, 0.00179482, 0.00272034, 42.486, 57.6514, 0, 0.00104081, 0.00122005, 0.0017719, 32.5171, 34.4216, 0, 0.0010412, -47.9036, -86.1636, -38.8871, -25.8011, -56.7046, -20.759, -0.000129414, -0.000858445, 5.20794E-05, -2.81023E-05, -2.81023E-05, -2.81023E-05
5489, 1,0.00137593, -0.00101738, 0.000700328, 19.2158, -63.2702, 0.0147587, -17.1965, 235.651, 0.438621, 0.000939638, 0.00173169, 0.0030793, 21.1048, 82.7689, 0, 0.00094314, 0.0010423, 0.00175361, 18.8983, 43.4891, 0, 0.000943741, -49.8219, -120.019, -78.4661, -11.0997, -84.2015, -35.1661, 0.000252705, -0.000848814, -0.000746444, 0.000449136, 0.000449136, 0.000449136
5490, 1,0.00117547, -0.000829411, 0.000566271, 15.7469, -51.5439, 0.00942814, 7.15131, 249.125, 0.193901, 0.00097255, 0.00147243, 0.00265716, 17.8976, 69.9989, 0, 0.00097586, 0.000883848, 0.00154479, 13.9627, 37.6858, 0, 0.000976371, -56.7203, -81.9769, -71.2995, -23.0937, -52.4832, -37.4806, -4.50972E-05, -0.000425615, -0.000664777, 0.000153668, 0.000153668, 0.000153668
5491, 1,0.00108266, -0.000683198, 0.000464319, 12.168, -42.3249, 0.00461109, 20.3821, 236.007, 0.0161971, 0.00100558, 0.00131875, 0.00237169, 13.8317, 65.5806, 0, 0.0010084, 0.000850414, 0.00146497, 10.5836, 39.0732, 0, 0.00100883, -59.5616, -71.961, -65.2193, -31.475, -45.1333, -40.6113, -0.00019378, -0.000383211, -0.00048708, -1.87533E-05, -1.87533E-05, -1.87533E-05
5492, 1,0.00115469, -0.000598277, 0.00042395, 16.5788, -36.3915, 0.00182132, -1.12636, 116.418, 0, 0.00104029, 0.00140283, 0.00236265, 20.3686, 61.3769, 0, 0.00104122, 0.000907169, 0.00151917, 12.8208, 39.8133, 0, 0.00104159, -47.9685, -89.857, -46.305, -28.7972, -60.4387, -30.2039, -6.20987E-05, -0.000892699, -4.1448E-05, 3.88665E-06, 3.88665E-06, 3.88665E-06
5493, 1,0.00120156, -0.000936577, 0.000640832, 16.8118, -58.4953, 0.0113781, -2.76006, 205.113, 0.320592, 0.000940783, 0.00153092, 0.00271906, 18.3911, 72.4356, 0, 0.000943495, 0.000886221, 0.00148418, 16.5617, 35.6353, 0, 0.000944058, -46.7484, -106.096, -64.4619, -11.426, -69.907, -25.5728, 0.000136002, -0.000773304, -0.000537699, 0.000301602, 0.000301602, 0.000301602
5494, 1,0.00101194, -0.000769432, 0.000525388, 12.1684, -47.9195, 0.00615987, -11.5631, 242.937, 0.099507, 0.000973353, 0.00128642, 0.00238222, 13.8934, 64.9418, 0, 0.000976394, 0.000743271, 0.0013551, 10.9073, 34.7035, 0, 0.000976874, -49.3731, -85.6488, -59.8035, -19.1429, -55.549, -29.4188, 1.56937E-05, -0.00061527, -0.000453883, 0.000176107, 0.000176107, 0.000176107
5495, 1,0.000984671, -0.000634092, 0.000434282, 6.582, -39.2589, 0.00316444, -4.60987, 206.703, 0, 0.00100655, 0.00119854, 0.00220159, 7.88478, 65.7449, 0, 0.00100886, 0.000775008, 0.00136802, 5.42062, 41.2138, 0, 0.00100926, -53.0925, -85.897, -58.245, -28.4863, -58.9827, -36.1723, -6.57204E-05, -0.000692988, -0.000308037, 6.72085E-05, 6.72085E-05, 6.72085E-05
5496, 1,0.00100823, -0.000540184, 0.000382838, 9.48502, -32.8422, 0.00112703, -5.90878, 78.9277, 0, 0.00104141, 0.00123368, 0.00216788, 12.9637, 60.0174, 0, 0.00104173, 0.000782806, 0.00140422, 6.00701, 40.5302, 0, 0.00104206, -44.6796, -87.9498, -47.4227, -28.4768, -59.3599, -33.7541, 1.82684E-06, -0.000888302, -8.76608E-05, 3.77953E-05, 3.77953E-05, 3.77953E-05
5497, 1,0.00103814, -0.000868909, 0.000592485, 6.50855, -54.3456, 0.00856758, 9.73474, 194.286, 0.203077, 0.000941463, 0.00134292, 0.00247848, 7.88203, 73.3459, 0, 0.000943692, 0.000743133, 0.0013288, 6.24552, 38.9022, 0, 0.00094422, -51.371, -104.297, -64.3702, -19.0261, -68.6772, -29.0033, 4.70697E-05, -0.0007829, -0.000454005, 0.000188194, 0.000188194, 0.000188194
5498, 1,0.00085426, -0.000706564, 0.000479694, 0.827541, -44.1508, 0.00459136, 7.8877, 225.949, 0.03143, 0.000974064, 0.00109308, 0.00217715, 2.09077, 68.1405, 0, 0.000976626, 0.00063458, 0.00125289, -0.139344, 39.9714, 0, 0.000977072, -52.7965, -85.7006, -65.9245, -25.3776, -55.6081, -38.9284, -2.2237E-05, -0.000595862, -0.000487307, 0.000112022, 0.000112022, 0.000112022
5499, 1,0.000864187, -0.000578052, 0.00039629, 6.59443, -35.7982, 0.00247026, 5.6251, 149.309, 0, 0.00100796, 0.00107708, 0.00203319, 8.45102, 58.1082, 0, 0.00100946, 0.00065215, 0.00125167, 4.81495, 35.7228, 0, 0.00100982, -43.386, -79.5597, -51.379, -21.5222, -53.2685, -32.3778, 1.59448E-05, -0.000694072, -0.000264627, 0.000124779, 0.000124779, 0.000124779
5500, 1,0.000895115, -0.000481333, 0.000343164, 7.41488, -29.1686, 0.00107459, 12.0102, 51.1208, 0, 0.0010425, 0.00109877, 0.00193535, 10.7671, 54.0082, 0, 0.00104245, 0.0006923, 0.00125429, 4.08591, 36.8936, 0, 0.00104274, -39.6227, -79.9436, -42.4582, -26.8121, -52.011, -31.8579, 2.45676E-05, -0.00081942, -8.16353E-05, 2.61543E-05, 2.61543E-05, 2.61543E-05
5501, 1,0.00101749, -0.000814127, 0.000555214, 8.96926, -50.8505, 0.00589472, 20.8601, 188.984, 0.0932822, 0.000942367, 0.00129842, 0.00232878, 10.0345, 67.2093, 0, 0.000944389, 0.000750393, 0.0012651, 9.04389, 34.9412, 0, 0.000944884, -42.0267, -98.9522, -60.649, -12.3399, -64.2744, -28.2094, 0.00015115, -0.000829445, -0.000412001, 0.000270987, 0.000270987, 0.000270987
5502, 1,0.000848073, -0.000651037, 0.000440912, 7.53734, -40.7124, 0.00356267, 29.621, 185.63, 0, 0.000975429, 0.00107389, 0.00199212, 8.65942, 56.5042, 0, 0.000977475, 0.000626413, 0.00112496, 6.6892, 30.4395, 0, 0.000977889, -41.249, -74.4791, -53.7844, -16.4343, -44.9234, -29.9608, 2.67993E-05, -0.000565381, -0.000378049, 0.000139789, 0.000139789, 0.000139789
5503, 1,0.000787508, -0.000522652, 0.000358302, 4.01609, -32.3828, 0.00225342, 15.8247, 121.535, 0, 0.00100916, 0.000981085, 0.00187224, 5.7571, 54.9822, 0, 0.00101025, 0.000594085, 0.00116524, 2.34723, 34.7234, 0, 0.00101058, -39.0333, -76.6035, -49.3097, -19.9935, -50.9862, -33.1904, 5.44008E-05, -0.000686354, -0.000260071, 0.000137214, 0.000137214, 0.000137214
5504, 1,0.000857186, -0.00042811, 0.000308074, 4.36608, -25.8398, 0.00203124, 61.3582, 45.9075, 0, 0.00104342, 0.00104262, 0.00182839, 7.74769, 53.8089, 0, 0.00104329, 0.00067302, 0.0012221, 1.03009, 38.9681, 0, 0.00104354, -36.9471, -81.2775, -43.2022, -27.0663, -54.5095, -35.3286, 7.89203E-05, -0.000837882, -0.000114214, 5.48793E-05, 5.48793E-05, 5.48793E-05
5505, 1,0.000961491, -0.00075961, 0.000517521, 11.5596, -47.3988, 0.00404594, 70.1756, 146.269, 0.00906285, 0.000943897, 0.00122385, 0.00212707, 12.5937, 58.8389, 0, 0.000945249, 0.000710857, 0.0011343, 11.4571, 28.63, 0, 0.000945712, -35.6083, -86.1676, -54.7409, -8.55849, -52.3191, -25.0123, 0.000160776, -0.000754564, -0.000360761, 0.000257004, 0.000257004, 0.000257004
5506, 1,0.0007947, -0.000605664, 0.000412298, 5.9291, -37.7659, 0.00276582, 22.3218, 144.854, 0, 0.000976927, 0.00100243, 0.00188461, 6.92591, 54.3788, 0, 0.000978363, 0.000596153, 0.00108759, 5.42409, 30.3673, 0, 0.000978744, -35.2616, -79.9752, -47.8995, -12.9349, -51.5834, -26.5837, 0.000117311, -0.000736372, -0.000263129, 0.00021016, 0.00021016, 0.00021016
5507, 1,0.000767409, -0.00047257, 0.000325757, 7.15332, -29.2174, 0.00198813, 11.8341, 110.005, 0, 0.00101049, 0.000945857, 0.00172899, 8.95072, 48.3665, 0, 0.0010115, 0.000589295, 0.00108664, 5.4248, 30.2367, 0, 0.0010118, -31.9318, -72.7296, -40.438, -15.6082, -48.1263, -26.9755, 9.5591E-05, -0.000714784, -0.000165504, 0.000154495, 0.000154495, 0.000154495
5508, 1,0.000805475, -0.000374043, 0.000272734, 3.12426, -22.4576, 0.00249409, 76.5548, 55.2155, 0, 0.00104453, 0.000968127, 0.00169273, 6.37183, 50.3058, 0, 0.00104462, 0.000647119, 0.00117169, 0.0383514, 37.7727, 0, 0.00104483, -35.2594, -75.9196, -39.7382, -28.1313, -50.3159, -34.8709, 5.3464E-05, -0.000771296, -9.84941E-05, 7.85759E-06, 7.85759E-06, 7.85759E-06
5509, 1,0.000861958, -0.000716566, 0.000490676, 9.8099, -44.5818, 0.00333484, 76.8561, 108.751, 0, 0.00094508, 0.00110358, 0.00195283, 10.4868, 54.044, 0, 0.000945919, 0.000640871, 0.00104228, 10.5765, 25.8094, 0, 0.000946353, -29.6009, -89.534, -42.997, -5.12882, -56.6189, -15.6805, 0.000207943, -0.000930513, -0.000154214, 0.000281035, 0.000281035, 0.000281035
5510, 1,0.000731483, -0.00055806, 0.000381118, 7.51938, -34.7291, 0.00219572, 33.7767, 93.7351, 0, 0.000978482, 0.000927211, 0.00170642, 8.60747, 47.4144, 0, 0.000979218, 0.000544394, 0.000971598, 6.93864, 25.4207, 0, 0.000979567, -27.5423, -74.7221, -39.9789, -7.83318, -47.2653, -21.1636, 0.000167333, -0.000754617, -0.000181933, 0.000236811, 0.000236811, 0.000236811
5511, 1,0.000698467, -0.000422066, 0.000292483, 7.0252, -26.0326, 0.00167631, 16.5574, 83.9217, 0, 0.00101191, 0.000861193, 0.00156174, 8.87683, 43.1097, 0, 0.00101258, 0.000535889, 0.000984551, 5.21895, 27.102, 0, 0.00101284, -26.8788, -68.8141, -33.6362, -13.1231, -45.2833, -22.8996, 0.000117183, -0.000722215, -9.44097E-05, 0.000155339, 0.000155339, 0.000155339
5512, 1,0.000715503, -0.000330009, 0.000246929, 7.36144, -19.5327, 0.00189462, 46.4578, 57.6118, 0, 0.00104567, 0.000865653, 0.00148218, 10.8977, 38.7471, 0, 0.00104599, 0.000572288, 0.00102563, 4.08184, 28.4912, 0, 0.00104616, -22.0259, -66.5064, -27.7091, -17.7837, -41.8901, -25.7998, 0.000146205, -0.000756047, -1.89438E-05, 7.50459E-05, 7.50459E-05, 7.50459E-05
5513, 1,0.000807919, -0.000669922, 0.000459609, 11.3085, -41.6235, 0.00262436, 69.8363, 73.2913, 0, 0.000946307, 0.00103051, 0.00179832, 11.8015, 48.1074, 0, 0.000946694, 0.00060982, 0.000959629, 12.4061, 21.8089, 0, 0.000947098, -24.0978, -85.0655, -35.1588, -1.89702, -53.2771, -10.2525, 0.000230086, -0.000953344, -5.72467E-05, 0.000285484, 0.000285484, 0.000285484
5514, 1,0.000670156, -0.000510087, 0.000349157, 7.12705, -31.694, 0.00167532, 31.4646, 63.9924, 0, 0.00097982, 0.000851453, 0.00155046, 8.23541, 42.8925, 0, 0.000980155, 0.000496174, 0.000878957, 6.49529, 22.8854, 0, 0.000980474, -22.8123, -70.2535, -35.6118, -5.54167, -43.8983, -19.2162, 0.00019297, -0.000747415, -0.000141438, 0.000242434, 0.000242434, 0.000242434
5515, 1,0.000613629, -0.000373239, 0.00026055, 6.20052, -22.9415, 0.00150447, 25.7875, 60.6407, 0, 0.00101334, 0.000761343, 0.00137714, 8.15015, 37.3827, 0, 0.00101373, 0.000466198, 0.000863937, 4.25922, 23.4651, 0, 0.00101395, -21.4051, -63.7227, -27.0201, -10.184, -41.2697, -18.9416, 0.000139311, -0.0007095, -3.63639E-05, 0.000157127, 0.000157127, 0.000157127
5516, 1,0.000608186, -0.000291795, 0.000227061, 6.84884, -16.895, 0.00170963, 38.614, 56.255, 0, 0.00104694, 0.000752172, 0.00128283, 10.9638, 32.1774, 0, 0.00104735, 0.000473061, 0.00087676, 3.14607, 24.1801, 0, 0.00104749, -14.9142, -62.7695, -18.8485, -13.3823, -39.2482, -19.9096, 0.00018877, -0.000777999, 6.69959E-05, 9.58325E-05, 9.58325E-05, 9.58325E-05
5517, 1,0.000734131, -0.000624661, 0.000429418, 10.9575, -38.7659, 0.00198587, 46.7984, 63.7329, 0, 0.000947047, 0.000937594, 0.00163568, 11.229, 43.3408, 0, 0.000947361, 0.000560046, 0.000869766, 12.4914, 18.9159, 0, 0.000947736, -19.4085, -81.601, -29.0129, 0.550316, -50.9096, -6.38852, 0.000256597, -0.000970776, 1.09836E-05, 0.00029419, 0.00029419, 0.00029419
5518, 1,0.000601806, -0.000464183, 0.000319025, 6.67219, -28.7875, 0.00126598, 15.0049, 60.0653, 0, 0.00098067, 0.000768745, 0.00138821, 7.81481, 38.1513, 0, 0.000981019, 0.000442081, 0.000777521, 6.02171, 20.0961, 0, 0.000981306, -18.674, -66.8002, -28.9796, -3.72721, -41.5835, -14.9775, 0.000203182, -0.000757697, -6.44779E-05, 0.00023464, 0.00023464, 0.00023464
5519, 1,0.000564001, -0.000328128, 0.000231973, 6.66519, -20.0334, 0.00134668, 19.9437, 58.4714, 0, 0.00101434, 0.000699573, 0.00123256, 8.7758, 32.6051, 0, 0.00101476, 0.00042875, 0.000776687, 4.61623, 20.7615, 0, 0.00101496, -16.0304, -60.4114, -21.3734, -7.15998, -39.3234, -15.8011, 0.000174646, -0.000719333, 1.56202E-05, 0.000175641, 0.000175641, 0.000175641
5520, 1,0.000562852, -0.000257635, 0.000210905, 7.26316, -14.4399, 0.00150663, 26.8835, 59.0177, 0, 0.00104806, 0.000703055, 0.0011523, 12.0924, 27.9466, 0, 0.00104859, 0.000435382, 0.000793343, 2.91946, 22.1892, 0, 0.00104868, -10.5798, -59.7377, -13.5224, -11.6066, -37.7252, -17.2358, 0.000213419, -0.000782495, 0.000115455, 0.000101542, 0.000101542, 0.000101542
5521, 1,0.000682278, -0.00058073, 0.000400199, 11.3361, -35.9964, 0.00171786, 43.1129, 51.747, 0, 0.000947899, 0.000866716, 0.00149064, 11.3691, 38.9048, 0, 0.000948097, 0.000532241, 0.000796686, 13.3391, 16.3126, 0, 0.000948444, -15.2966, -77.829, -23.5886, 2.52605, -48.3542, -3.10981, 0.000274155, -0.000970253, 6.48707E-05, 0.00029565, 0.00029565, 0.00029565
5522, 1,0.000550255, -0.000419327, 0.000289612, 7.16359, -25.9497, 0.0010906, 11.1832, 54.2887, 0, 0.000981607, 0.000702969, 0.00124202, 8.33956, 33.3126, 0, 0.000981941, 0.000404824, 0.000690947, 6.49324, 17.1782, 0, 0.000982199, -14.5085, -62.5898, -22.8396, -1.7546, -38.6462, -11.1338, 0.000212722, -0.000749526, -3.70343E-06, 0.000228383, 0.000228383, 0.000228383
5523, 1,0.000512061, -0.000284641, 0.000204815, 6.84792, -17.2134, 0.0011491, 11.2952, 57.4995, 0, 0.00101539, 0.000636344, 0.00109323, 9.1896, 28.1797, 0, 0.00101587, 0.000388475, 0.000693084, 4.58414, 18.3855, 0, 0.00101603, -11.5052, -56.5542, -16.4798, -4.89146, -36.9316, -13.3336, 0.000198823, -0.00071101, 5.48965E-05, 0.000184549, 0.000184549, 0.000184549
5524, 1,0.000505279, -0.000229585, 0.000200605, 7.58841, -12.2703, 0.00122348, 12.1241, 60.7566, 0, 0.00104927, 0.000644924, 0.0010203, 13.2161, 23.235, 0, 0.00104991, 0.000382319, 0.000702309, 2.6704, 19.6907, 0, 0.00104997, -5.80656, -55.644, -8.25448, -9.20759, -35.1962, -14.6682, 0.000241486, -0.000775103, 0.000156422, 0.000114081, 0.000114081, 0.000114081
5525, 1,0.000645332, -0.000538497, 0.000372335, 12.6972, -33.3221, 0.00162398, 50.445, 36.117, 0, 0.000948753, 0.000809995, 0.00135627, 12.4311, 34.0107, 0, 0.000948785, 0.000521295, 0.00073657, 15.2912, 13.2076, 0, 0.000949106, -10.6669, -73.4372, -17.9279, 5.08985, -45.2248, 0.511995, 0.000293222, -0.000963403, 0.000118346, 0.000299465, 0.000299465, 0.000299465
5526, 1,0.000501902, -0.000375991, 0.000261374, 7.58241, -23.1914, 0.0010488, 17.5632, 43.2485, 0, 0.000982584, 0.000640443, 0.00110566, 8.77215, 28.7926, 0, 0.000982814, 0.000371985, 0.000613734, 6.96412, 14.5477, 0, 0.000983041, -10.3289, -58.4661, -17.5827, 0.341873, -35.8717, -8.11334, 0.000228187, -0.000739479, 4.41069E-05, 0.000229857, 0.000229857, 0.000229857
5527, 1,0.000466769, -0.000243975, 0.000180375, 7.45105, -14.5353, 0.00103535, 10.4842, 51.4207, 0, 0.00101645, 0.000582122, 0.000964468, 10.1359, 23.5767, 0, 0.00101691, 0.000352522, 0.000614698, 4.85427, 15.8057, 0, 0.00101704, -7.31798, -52.2215, -11.1905, -2.84327, -34.1446, -10.4294, 0.000213925, -0.000695761, 9.92137E-05, 0.000186515, 0.000186515, 0.000186515
5528, 1,0.000461356, -0.000207995, 0.000196561, 8.27035, -10.4182, 0.00109453, 6.02259, 60.6851, 0, 0.00105038, 0.000604978, 0.000908393, 14.9311, 18.7861, 0, 0.00105109, 0.000340838, 0.000624049, 2.62293, 17.4303, 0, 0.00105111, -1.5511, -51.3856, -3.42154, -7.21262, -32.6235, -12.455, 0.000262082, -0.000757813, 0.000190701, 0.000121313, 0.000121313, 0.000121313
5529, 1,0.000613853, -0.000497355, 0.000345199, 14.163, -30.7131, 0.00161088, 60.7941, 21.5781, 0, 0.000949666, 0.000758341, 0.00122792, 13.5636, 29.2218, 0, 0.000949548, 0.000516559, 0.000682924, 17.3929, 10.1644, 0, 0.000949842, -6.36752, -68.5835, -12.7144, 7.40919, -41.6539, 3.75143, 0.000306489, -0.000945536, 0.000164892, 0.000298682, 0.000298682, 0.000298682
5530, 1,0.000462716, -0.000334136, 0.000234357, 8.45976, -20.5121, 0.000996162, 22.8701, 32.8894, 0, 0.000983659, 0.000588022, 0.000979956, 9.69584, 24.2157, 0, 0.000983797, 0.000347181, 0.000544916, 7.85174, 11.8276, 0, 0.000983995, -6.24278, -53.8014, -12.603, 2.43339, -32.6235, -5.29268, 0.000241164, -0.000720068, 8.59625E-05, 0.000230192, 0.000230192, 0.000230192
5531, 1,0.000426715, -0.000207049, 0.000159506, 8.10368, -12.0408, 0.000987101, 13.1545, 44.8175, 0, 0.00101766, 0.000536002, 0.000847789, 11.2584, 19.186, 0, 0.00101809, 0.000319255, 0.000542594, 5.06346, 13.4124, 0, 0.00101818, -3.50322, -47.7375, -6.31726, -1.06485, -31.2753, -7.89721, 0.000225058, -0.000675158, 0.000138703, 0.00018628, 0.00018628, 0.00018628
5532, 1,0.000431082, 0.000205023, 0.000199079, 9.4796, 10.0767, 0.00107525, 7.43851, 57.6403, 0, 0.0010516, 0.000586344, 0.000818477, 17.5333, 14.3124, 0, 0.00105234, 0.000307259, 0.000553848, 2.79896, 15.1158, 0, 0.00105233, 2.44484, -47.0395, 1.65762, -5.36157, -30.0348, -9.95097, 0.000276715, -0.000739303, 0.000230129, 0.000124701, 0.000124701, 0.000124701
5533, 1,0.000594355, -0.000457653, 0.000319135, 16.1292, -28.1886, 0.00170707, 75.9731, 7.4508, 0, 0.00095058, 0.000717982, 0.00111188, 15.1468, 24.4866, 0, 0.000950317, 0.000524503, 0.000642304, 20.0361, 7.12836, 0, 0.000950585, -2.28885, -63.5054, -7.66564, 9.59694, -37.882, 6.89997, 0.000316006, -0.000921982, 0.000208631, 0.000295323, 0.000295323, 0.000295323
5534, 1,0.000432733, -0.000294199, 0.000209038, 9.76002, -17.9353, 0.00096842, 29.0123, 22.984, 0, 0.000984704, 0.000545993, 0.000865517, 11.0847, 19.6764, 0, 0.000984756, 0.000330447, 0.000484786, 9.12438, 9.11274, 0, 0.000984925, -2.34441, -48.9967, -7.68807, 4.41463, -29.2775, -2.4753, 0.000250961, -0.00069722, 0.000126952, 0.000228466, 0.000228466, 0.000228466
5535, 1,0.000398951, -0.000175245, 0.000143581, 9.35848, -9.79663, 0.000937203, 15.332, 38.7066, 0, 0.00101886, 0.000506372, 0.000748024, 13.1734, 14.7881, 0, 0.00101926, 0.000294378, 0.000479048, 5.69598, 10.9862, 0, 0.00101932, 0.251894, -43.0745, -1.54163, 0.742365, -28.289, -5.41194, 0.000235096, -0.000651322, 0.000176173, 0.000186392, 0.000186392, 0.000186392
5536, 1,0.000410239, 0.000230496, 0.000207398, 10.94, 12.0639, 0.00104899, 8.24209, 54.8871, 0, 0.00105275, 0.000585363, 0.000748954, 20.7548, 10.0389, 0, 0.00105351, 0.000276794, 0.00048905, 2.94438, 12.972, 0, 0.00105346, 6.10203, -42.6619, 6.44316, -3.72709, -27.4743, -7.71462, 0.000287652, -0.000717899, 0.000267112, 0.000126533, 0.000126533, 0.000126533
5537, 1,0.000588852, -0.000419553, 0.00029431, 18.6994, -25.7566, 0.00192308, 96.6981, -6.58873, 0, 0.000951512, 0.000690698, 0.00101005, 17.2727, 19.818, 0, 0.000951104, 0.000546712, 0.000616394, 23.3019, 4.11306, 0, 0.000951347, 1.58776, -58.3531, -2.68864, 11.6628, -34.0378, 10.0358, 0.000322402, -0.000895702, 0.000251683, 0.000289823, 0.000289823, 0.000289823
5538, 1,0.000414533, -0.000256485, 0.000185719, 11.5919, -15.4765, 0.000991173, 37.5176, 13.1076, 0, 0.000985735, 0.000517131, 0.000765155, 13.0568, 15.1934, 0, 0.000985702, 0.000324171, 0.000435642, 10.8793, 6.42185, 0, 0.000985842, 1.38439, -44.0856, -2.87896, 6.3005, -25.852, 0.285892, 0.000258172, -0.000671182, 0.000166425, 0.000225201, 0.000225201, 0.000225201
5539, 1,0.000382823, -0.000149825, 0.000133897, 11.1471, -7.86301, 0.000892776, 17.6592, 32.7258, 0, 0.00102004, 0.000494146, 0.000666459, 15.8874, 10.4507, 0, 0.00102041, 0.00027569, 0.000422306, 6.60838, 8.5962, 0, 0.00102044, 3.81722, -38.3491, 3.17984, 2.43691, -25.275, -2.95048, 0.000242133, -0.000625194, 0.000213369, 0.000184732, 0.000184732, 0.000184732
5540, 1,0.000402716, 0.000260463, 0.000220417, 13.0017, 14.257, 0.0010168, 8.42499, 52.5416, 0, 0.00105382, 0.000606814, 0.000703009, 24.9838, 5.82457, 0, 0.00105462, 0.000251428, 0.000430122, 3.30988, 10.8624, 0, 0.00105454, 9.61094, -38.1929, 11.1082, -2.12774, -24.8826, -5.57676, 0.00029637, -0.000693735, 0.000302596, 0.000128133, 0.000128133, 0.000128133
5541, 1,0.000599796, -0.000383161, 0.000270832, 21.9844, -23.4226, 0.00224832, 122.445, -20.516, 0, 0.000952528, 0.000679201, 0.000925318, 20.0665, 15.2344, 0, 0.000951976, 0.000584035, 0.000606197, 27.2222, 1.13733, 0, 0.000952194, 5.27677, -53.202, 2.22221, 13.6174, -30.1828, 13.1534, 0.000326316, -0.000868018, 0.000294437, 0.000282732, 0.000282732, 0.000282732
5542, 1,0.000411973, -0.000221487, 0.000164903, 14.134, -13.1596, 0.00108268, 49.2204, 3.2856, 0, 0.000986857, 0.000505797, 0.000683261, 15.8157, 10.7735, 0, 0.000986737, 0.000331497, 0.000400657, 13.257, 3.76196, 0, 0.000986849, 4.94525, -39.1401, 1.87419, 8.08739, -22.4057, 3.03241, 0.000262902, -0.000643352, 0.000205561, 0.000220394, 0.000220394, 0.000220394
5543, 1,0.000381905, -0.000131654, 0.000131308, 13.642, 6.31048, 0.000859431, 20.5022, 26.7509, 0, 0.00102127, 0.000504276, 0.000608037, 19.6339, 6.16983, 0, 0.00102161, 0.000265348, 0.000374418, 7.91023, 6.23896, 0, 0.00102161, 7.22812, -33.5749, 7.83732, 4.05016, -22.2352, -0.531809, 0.000246786, -0.000597072, 0.000250039, 0.000181843, 0.000181843, 0.000181843
5544, 1,0.000409379, 0.000293932, 0.000237094, 15.7003, 16.6108, 0.000988651, 8.7591, 50.239, 0, 0.00105495, 0.00065128, 0.000681162, 30.2384, 1.68666, 0, 0.00105578, 0.000230333, 0.00037625, 3.84534, 8.80996, 0, 0.00105566, 12.9047, -33.6574, 15.6926, -0.642213, -22.2735, -3.51414, 0.000301571, -0.000666845, 0.000337631, 0.000128048, 0.000128048, 0.000128048
5545, 1,0.000629566, -0.000348634, 0.000248852, 26.1009, -21.1947, 0.00266075, 152.173, -34.3098, 0, 0.000953487, 0.000686822, 0.000861071, 23.6922, 10.7371, 0, 0.000952791, 0.000636529, 0.00061181, 31.8042, -1.79812, 0, 0.000952984, 8.79824, -48.1129, 7.10323, 15.4769, -26.3639, 16.2813, 0.000328197, -0.000840171, 0.000337656, 0.000274398, 0.000274398, 0.000274398
5546, 1,0.0004293, -0.000189846, 0.000147224, 17.5831, -11.0161, 0.00125455, 64.6104, -6.42473, 0, 0.000987906, 0.000517153, 0.00062502, 19.6047, 6.42003, 0, 0.0009877, 0.000355294, 0.000382657, 16.3821, 1.13594, 0, 0.000987785, 8.35404, -34.1957, 6.58156, 9.78746, -18.9626, 5.76733, 0.000265492, -0.000614425, 0.000244664, 0.000214303, 0.000214303, 0.000214303
5547, 1,0.000400172, 0.000150879, 0.000135792, 17.0261, 7.95121, 0.000843142, 24.041, 20.9239, 0, 0.00102242, 0.000541675, 0.000577707, 24.6337, 1.94598, 0, 0.00102274, 0.000265891, 0.000337973, 9.72434, 3.91506, 0, 0.0010227, 10.4917, -28.7918, 12.4621, 5.58451, -19.1974, 1.86772, 0.000249139, -0.000567778, 0.000286911, 0.000177721, 0.000177721, 0.000177721
5548, 1,0.000432716, 0.000329931, 0.000256457, 19.1647, 19.0792, 0.000964757, 9.35005, 47.8625, 0, 0.0010559, 0.000719254, 0.000683737, 36.5491, -2.3986, 0, 0.00105676, 0.000214668, 0.000328422, 4.63144, 6.79139, 0, 0.0010566, 16.0203, -29.0696, 20.2451, 0.761493, -19.6504, -1.48527, 0.000303646, -0.000637886, 0.00037287, 0.00012657, 0.00012657, 0.00012657
5549, 1,0.000679287, -0.000316158, 0.000228548, 31.1077, -19.0828, 0.00313183, 184.504, -47.9031, 0, 0.000954513, 0.000716476, 0.000820214, 28.2972, 6.32628, 0, 0.000953674, 0.000702963, 0.000631966, 36.9979, -4.69428, 0, 0.000953844, 12.1683, -43.1305, 11.9833, 17.2543, -22.6123, 19.4408, 0.000328397, -0.000813046, 0.000381878, 0.00026508, 0.00026508, 0.00026508
5550, 1,0.000470008, -0.000162379, 0.000133497, 22.1008, -9.0857, 0.00150151, 83.369, -15.9355, 0, 0.000989038, 0.000556209, 0.000595399, 24.6629, 2.12869, 0, 0.000988748, 0.000397082, 0.000383099, 20.3171, -1.46061, 0, 0.000988806, 11.6317, -29.2876, 11.2698, 11.4177, -15.5476, 8.51172, 0.000266268, -0.000585172, 0.000284246, 0.000207163, 0.000207163, 0.000207163
5551, 1,0.000440618, 0.000176687, 0.000146324, 21.4266, 9.86437, 0.000850134, 28.5507, 15.2795, 0, 0.00102359, 0.000608763, 0.000577867, 30.9822, -2.22161, 0, 0.00102388, 0.000280119, 0.000315699, 12.1809, 1.6239, 0, 0.00102381, 13.6179, -24.0255, 17.0725, 7.04504, -16.1774, 4.26063, 0.000249248, -0.000537866, 0.000324497, 0.000172327, 0.000172327, 0.000172327
5552, 1,0.000473708, 0.000367721, 0.000277748, 23.4338, 21.625, 0.000954049, 10.217, 45.9293, 0, 0.00105713, 0.000808525, 0.000708589, 43.8092, -6.41907, 0, 0.00105802, 0.000205785, 0.000288087, 5.74278, 4.81387, 0, 0.00105783, 18.951, -24.4681, 24.7744, 2.08274, -17.0376, 0.513214, 0.00030248, -0.000607439, 0.000408811, 0.000123655, 0.000123655, 0.000123655
5553, 1,0.000748391, -0.000285983, 0.000210153, 36.9807, -17.1003, 0.00363322, 217.996, -61.138, 0, 0.000955506, 0.000769849, 0.000804468, 33.9681, 2.00655, 0, 0.000954527, 0.000781281, 0.000664601, 42.7126, -7.54856, 0, 0.000954675, 15.4018, -38.3052, 16.8838, 18.9618, -18.9643, 22.6482, 0.000327324, -0.000787511, 0.000427484, 0.000255092, 0.000255092, 0.000255092
5554, 1,0.000534679, -0.000139974, 0.000124591, 27.6946, -7.41124, 0.00180313, 104.444, -25.1177, 0, 0.00099009, 0.000625182, 0.000596647, 31.0789, -2.0897, 0, 0.000989721, 0.00045586, 0.000400963, 24.9957, -4.01796, 0, 0.000989752, 14.7796, -24.4607, 15.9502, 12.9748, -12.1932, 11.2723, 0.000265415, -0.000556314, 0.000324669, 0.000199039, 0.000199039, 0.000199039
5555, 1,0.000503744, 0.000206895, 0.000161418, 26.8508, 11.9791, 0.000888771, 34.5791, 9.62552, 0, 0.00102473, 0.000704021, 0.00060685, 38.5931, -6.33969, 0, 0.001025, 0.0003102, 0.000309609, 15.3733, -0.642529, 0, 0.0010249, 16.6219, -19.2988, 21.6959, 8.44446, -13.1864, 6.6695, 0.000247188, -0.000507879, 0.000363373, 0.000165661, 0.000165661, 0.000165661
5556, 1,0.000531841, 0.000406659, 0.000300309, 28.4708, 24.2222, 0.000954373, 10.7529, 45.1879, 0, 0.00105808, 0.000915493, 0.000751873, 51.8516, -10.396, 0, 0.00105903, 0.000205915, 0.000257256, 7.29316, 2.86985, 0, 0.00105881, 21.7253, -19.8443, 29.307, 3.32974, -14.4351, 2.49582, 0.000298034, -0.000575701, 0.000446035, 0.000119052, 0.000119052, 0.000119052
5557, 1,0.000835249, -0.000258445, 0.000193984, 43.6559, -15.2644, 0.00413592, 251.077, -73.7359, 0, 0.000956603, 0.000847222, 0.000813947, 40.7344, -2.23882, 0, 0.000955494, 0.000869628, 0.000707662, 48.877, -10.3795, 0, 0.00095562, 18.5206, -33.6767, 21.8726, 20.619, -15.4482, 25.9678, 0.000325251, -0.000764513, 0.000475422, 0.000244619, 0.000244619, 0.000244619
5558, 1,0.00062116, -0.000123255, 0.00012111, 34.273, -6.02254, 0.00213811, 126.879, -34.0222, 0, 0.000991219, 0.000722723, 0.000627173, 38.798, -6.2694, 0, 0.000990773, 0.000529224, 0.000433616, 30.3205, -6.57201, 0, 0.000990777, 17.8432, -19.7216, 20.6866, 14.5008, -8.89915, 14.1144, 0.000263338, -0.000528459, 0.000366691, 0.00019023, 0.00019023, 0.00019023
5559, 1,0.000586711, 0.000240113, 0.000179683, 33.1368, 14.2311, 0.000961378, 42.1136, 4.1423, 0, 0.0010259, 0.000822305, 0.000659435, 47.2048, -10.3992, 0, 0.00102615, 0.00035612, 0.000319589, 19.2652, -2.87069, 0, 0.00102602, 19.5086, -14.6369, 26.326, 9.77602, -10.2429, 9.07899, 0.000243206, -0.000478218, 0.000403546, 0.000157795, 0.000157795, 0.000157795
5560, 1,0.000605185, 0.000446353, 0.000323766, 34.1585, 26.8479, 0.000954085, 11.3293, 44.4083, 0, 0.00105913, 0.00103645, 0.000809682, 60.4821, -14.3265, 0, 0.00106014, 0.000217704, 0.000238335, 9.3998, 0.95107, 0, 0.00105988, 24.3341, -15.2278, 33.8731, 4.50093, -11.8509, 4.49676, 0.000290292, -0.000543267, 0.000485107, 0.000112718, 0.000112718, 0.000112718
5561, 1,0.000937549, -0.00023392, 0.000180402, 51.006, -13.5942, 0.00460342, 281.482, -84.9678, 0, 0.000957665, 0.000947261, 0.000847152, 48.5149, -6.41118, 0, 0.000956445, 0.000966323, 0.000759324, 55.3974, -13.1916, 0, 0.00095655, 21.4989, -29.3082, 27.0429, 22.1974, -12.1219, 29.4993, 0.000321822, -0.000745343, 0.000527359, 0.000233178, 0.000233178, 0.000233178
5562, 1,0.000722856, 0.000133928, 0.00012312, 41.4276, 6.8796, 0.00248808, 149.594, -42.351, 0, 0.000992239, 0.000841477, 0.000680212, 47.3688, -10.2874, 0, 0.000991723, 0.000612032, 0.000476279, 35.9616, -8.99972, 0, 0.000991703, 20.7614, -15.1527, 25.2535, 15.9294, -5.73193, 16.8017, 0.000260691, -0.000501471, 0.000407526, 0.000181285, 0.000181285, 0.000181285
5563, 1,0.000686186, 0.000275194, 0.000199976, 40.1583, 16.5645, 0.00107606, 51.6732, -1.34311, 0, 0.00102698, 0.000958583, 0.000730079, 56.6175, -14.4469, 0, 0.0010272, 0.000417001, 0.000344329, 23.8305, -5.11059, 0, 0.00102704, 22.29, -10.0395, 31.0903, 11.0514, -7.33728, 11.6177, 0.000236881, -0.000449687, 0.000447002, 0.00014825, 0.00014825, 0.00014825
5564, 1,0.000689682, 0.000486584, 0.00034783, 40.3209, 29.4978, 0.000954657, 12.8578, 42.3995, 0, 0.00106018, 0.00116683, 0.000877727, 69.5144, -18.215, 0, 0.00106123, 0.000242104, 0.000232702, 12.0937, -0.931255, 0, 0.00106093, 26.7953, -10.6318, 38.4816, 5.59341, -9.30591, 6.50626, 0.000279757, -0.00051056, 0.000526019, 0.000104971, 0.000104971, 0.000104971
5565, 1,0.00104598, -0.000212436, 0.000169362, 58.4612, -12.0884, 0.00502322, 307.947, -93.9292, 0, 0.000958783, 0.00106036, 0.00089533, 56.7224, -10.381, 0, 0.000957484, 0.0010634, 0.000812123, 61.7695, -15.8561, 0, 0.00095757, 24.5744, -25.1457, 31.7143, 23.955, -8.94704, 32.5604, 0.000324503, -0.000727629, 0.000571352, 0.000228622, 0.000228622, 0.000228622
5566, 1,0.000843104, 0.000153487, 0.000129973, 49.5017, 8.3892, 0.0028541, 172.943, -50.5087, 0, 0.000993389, 0.000983659, 0.000754605, 57.0812, -14.4269, 0, 0.000992808, 0.000708797, 0.000530656, 42.3153, -11.5842, 0, 0.000992762, 23.6437, -10.6528, 30.2897, 17.3602, -2.59044, 19.9829, 0.000255308, -0.00047772, 0.000456307, 0.000169827, 0.000169827, 0.000169827
5567, 1,0.000794957, 0.000311399, 0.000221538, 47.5897, 18.9447, 0.0012429, 64.1438, -7.39448, 0, 0.00102813, 0.00110479, 0.000812182, 66.4685, -18.4799, 0, 0.00102832, 0.000486947, 0.000379301, 28.7941, -7.35699, 0, 0.00102813, 24.9657, -5.55936, 36.0333, 12.2689, -4.51728, 14.3194, 0.000228268, -0.000423349, 0.000494698, 0.000137098, 0.000137098, 0.000137098
5568, 1,0.000781119, 0.000527018, 0.000372207, 46.7592, 32.1534, 0.000959522, 15.372, 39.3476, 0, 0.00106129, 0.00130241, 0.000952089, 78.7478, -22.0442, 0, 0.00106235, 0.000278153, 0.000239683, 15.298, -2.76781, 0, 0.00106201, 29.1157, -6.07309, 43.0898, 6.61015, -6.80219, 8.49546, 0.000266748, -0.000477837, 0.00056842, 9.59447E-05, 9.59447E-05, 9.59447E-05
5569, 1,0.001146, -0.000194113, 0.000161039, 65.0288, -10.7525, 0.00554726, 340.038, -103.817, 0, 0.000959817, 0.0011692, 0.00094688, 64.2039, -13.7459, 0, 0.000958416, 0.00114961, 0.000860962, 67.1809, -17.9693, 0, 0.000958481, 26.9766, -21.3233, 35.5843, 25.0853, -5.98814, 34.8108, 0.000322785, -0.000709089, 0.000609104, 0.000219795, 0.000219795, 0.000219795
5570, 1,0.000973677, 0.000176487, 0.000140514, 58.1803, 10.0476, 0.00322156, 196.389, -58.6905, 0, 0.000994437, 0.00113942, 0.000843837, 67.5422, -18.8047, 0, 0.000993793, 0.000812952, 0.000592528, 49.144, -14.4427, 0, 0.000993723, 26.7442, -6.35443, 36.0244, 19.0707, 0.397793, 23.8597, 0.000251312, -0.000462021, 0.000515622, 0.000160434, 0.000160434, 0.000160434
5571, 1,0.000908507, 0.000348044, 0.000243752, 55.0806, 21.3379, 0.00145181, 78.6198, -13.4365, 0, 0.00102922, 0.00125566, 0.000901061, 76.3705, -22.316, 0, 0.00102937, 0.000562383, 0.000421565, 33.8514, -9.42771, 0, 0.00102915, 27.5606, -1.38101, 40.7682, 13.4436, -1.9698, 16.8093, 0.000220812, -0.000400191, 0.000541223, 0.00012756, 0.00012756, 0.00012756
5572, 1,0.000877457, 0.000567546, 0.000396799, 53.3857, 34.8084, 0.000989438, 20.3586, 34.551, 0, 0.0010623, 0.00144173, 0.00103153, 88.1164, -25.8038, 0, 0.00106334, 0.000323489, 0.000257329, 18.8959, -4.54976, 0, 0.00106297, 31.2334, -1.58783, 47.7659, 7.47464, -4.35262, 10.5273, 0.000249981, -0.000445556, 0.000613898, 8.40227E-05, 8.40227E-05, 8.40227E-05
5573, 1,0.00127715, -0.000180026, 0.000156654, 74.6247, -9.64246, 0.00631429, 390.972, -123.563, 0, 0.000961078, 0.00131411, 0.00102219, 74.9194, -19.2928, 0, 0.000959454, 0.00126303, 0.000924394, 75.4702, -22.3151, 0, 0.000959501, 30.9521, -16.0839, 43.0102, 27.8146, -1.51996, 40.6508, 0.00031851, -0.000694878, 0.000689158, 0.000208281, 0.000208281, 0.000208281
5574, 1,0.00108874, 0.000200453, 0.000152482, 65.1547, 11.7369, 0.00368901, 222.96, -64.6796, 0, 0.000995545, 0.00128116, 0.000930687, 76.3536, -22.0193, 0, 0.000994856, 0.000900069, 0.000647498, 54.2135, -16.1715, 0, 0.000994761, 29.798, -3.61257, 39.8725, 20.8205, 1.78189, 25.9122, 0.000265066, -0.000461906, 0.000553893, 0.000170019, 0.000170019, 0.000170019
5575, 1,0.00103566, 0.000384612, 0.000265957, 63.3553, 23.7176, 0.00169949, 95.3784, -20.0862, 0, 0.00103037, 0.00141986, 0.0010009, 87.0484, -26.4655, 0, 0.00103048, 0.000651915, 0.000475755, 39.6921, -11.8338, 0, 0.00103023, 29.9857, 2.70024, 46.7105, 14.4893, 0.507158, 20.5049, 0.000204946, -0.000384474, 0.000608683, 0.000110061, 0.000110061, 0.000110061
5576, 1,0.000969012, 0.000608015, 0.000421494, 59.9699, 37.4545, 0.00105619, 28.0893, 28.4083, 0, 0.00106352, 0.00157529, 0.00110675, 97.3934, -29.7823, 0, 0.00106453, 0.000368134, 0.000275779, 22.6401, -6.56594, 0, 0.00106412, 33.7211, 3.32585, 52.2998, 8.78064, -1.47671, 12.3939, 0.000237581, -0.000407525, 0.000652806, 7.77112E-05, 7.77112E-05, 7.77112E-05
5577, 1,0.00143562, -0.000171379, 0.000157444, 82.7329, -8.80905, 0.00732326, 444.121, -130.886, 0, 0.000962146, 0.00148687, 0.00113299, 84.1507, -21.2994, 0, 0.000960437, 0.00140463, 0.00102199, 82.3329, -23.1682, 0, 0.000960466, 30.3568, -14.7986, 48.34, 26.0283, -0.709802, 44.1862, 0.00027275, -0.000710954, 0.000783523, 0.000155735, 0.000155735, 0.000155735
5578, 1,0.00118776, 0.00022703, 0.000167339, 70.6153, 13.5387, 0.00458317, 274.059, -76.5122, 0, 0.000996708, 0.00140769, 0.00101305, 83.6507, -24.2694, 0, 0.000995863, 0.000971215, 0.000697806, 57.83, -16.9705, 0, 0.000995745, 31.8064, -1.02792, 42.0296, 21.5097, 3.1644, 26.2374, 0.000270383, -0.000452977, 0.000576127, 0.000170354, 0.000170354, 0.000170354
5579, 1,0.00114681, 0.000421118, 0.000288326, 70.3003, 26.0866, 0.00211631, 121.569, -28.6438, 0, 0.00103152, 0.00156769, 0.00109197, 96.3714, -30.0123, 0, 0.00103154, 0.0007262, 0.000519138, 44.248, -13.6609, 0, 0.00103127, 32.3515, 6.16544, 51.5199, 15.5832, 2.39091, 23.0086, 0.000197715, -0.000374846, 0.000663811, 0.000103013, 0.000103013, 0.000103013
5580, 1,0.00105261, 0.000647985, 0.000445768, 65.4966, 40.0793, 0.00121091, 37.2585, 25.8381, 0, 0.00106451, 0.00169958, 0.00117629, 105.567, -32.8133, 0, 0.00106553, 0.000408868, 0.000296658, 25.4528, -7.64546, 0, 0.00106509, 34.5393, 7.70033, 56.2002, 8.46621, 0.839593, 13.6306, 0.000204971, -0.000367181, 0.000694238, 5.20794E-05, 5.20794E-05, 5.20794E-05
5581, 1,0.00166309, -0.000167224, 0.000162374, 94.7202, -8.20817, 0.00958305, 458.643, -145.216, 0.0434249, 0.000963331, 0.00173748, 0.00131327, 97.6324, -24.8856, 0, 0.000961396, 0.00160596, 0.00117084, 92.6976, -25.6377, 0, 0.000961407, 33.4452, -15.5938, 56.8054, 27.9196, -2.05517, 51.0486, 0.000280624, -0.000810811, 0.00093372, 0.000156812, 0.000156812, 0.000156812
5582, 1,0.00138054, 0.000255571, 0.000184047, 82.5957, 15.4292, 0.00609783, 363.577, -100.624, 0, 0.000998033, 0.00162962, 0.0011623, 97.5647, -29.7827, 0, 0.000996886, 0.00113437, 0.000810432, 67.8437, -21.0639, 0, 0.000996745, 36.0842, 2.29398, 50.97, 24.5082, 5.50092, 33.1827, 0.000272074, -0.000484708, 0.000695608, 0.000167491, 0.000167491, 0.000167491
5583, 1,0.0012438, 0.00045638, 0.000309944, 74.775, 28.3966, 0.0031313, 180.956, -43.8785, 0, 0.00103275, 0.00169977, 0.00118409, 103.136, -31.2597, 0, 0.00103254, 0.000788281, 0.000567495, 46.4557, -13.2133, 0, 0.00103223, 33.8967, 7.0567, 52.8256, 15.8664, 1.73552, 22.038, 0.000208419, -0.000388014, 0.000686482, 0.000113829, 0.000113829, 0.000113829
5584, 1,0.00115521, 0.00068688, 0.000469087, 73.0061, 42.6631, 0.00177119, 74.304, 11.3579, 0, 0.00106576, 0.00184109, 0.00126143, 115.668, -37.3232, 0, 0.0010666, 0.000472318, 0.000331237, 30.3466, -10.2279, 0, 0.00106614, 37.3211, 12.1386, 62.5099, 10.2073, 3.29027, 17.186, 0.000191549, -0.000354336, 0.000767973, 4.73323E-05, 4.73323E-05, 4.73323E-05
5585, 1,0.00176166, 0.000169518, 0.000165475, 99.2641, 8.1445, 0.0134528, 452.546, -130.694, 0.118134, 0.000964179, 0.00185853, 0.00138474, 103.576, -26.7422, -2.1684E-19, 0.00096241, 0.00168038, 0.00121352, 95.7951, -26.4235, -2.1684E-19, 0.000962405, 32.6935, -13.2737, 60.8068, 26.1933, -0.225779, 53.3029, 0.000225761, -0.000823593, 0.00103146, 9.96871E-05, 9.96871E-05, 9.96871E-05
5586, 1,0.00151245, 0.000280151, 0.000197418, 87.5461, 17.1263, 0.00857448, 429.828, -102.461, 0.0221581, 0.000999091, 0.00178898, 0.00129437, 104.344, -30.0258, 0, 0.000997896, 0.00123749, 0.000908203, 70.9014, -19.9256, 0, 0.000997733, 39.1986, -1.13004, 52.009, 26.5037, 0.870192, 32.4028, 0.000333129, -0.00058577, 0.000739513, 0.000226991, 0.000226991, 0.000226991
5587, 1,0.00142082, 0.00049087, 0.000330683, 86.4149, 30.6674, 0.0050048, 298.166, -82.41, 0, 0.0010344, 0.00191119, 0.00131556, 117.064, -37.4983, 0, 0.00103364, 0.000930958, 0.000655697, 55.7868, -17.7972, 0, 0.00103331, 39.2453, 11.7493, 61.5005, 20.0858, 5.01133, 28.2945, 0.000223185, -0.000407782, 0.00079267, 0.000130836, 0.000130836, 0.000130836
5588, 1,0.00125297, 0.000721993, 0.00048912, 78.05, 45.0613, 0.0027528, 144.776, -21.1314, 0, 0.00106736, 0.00197225, 0.00134637, 123.088, -39.1761, 0, 0.00106767, 0.00054073, 0.000381477, 33.0745, -10.1827, 0, 0.00106717, 39.6246, 12.5178, 65.3857, 11.5344, 1.57991, 17.4339, 0.000210083, -0.00038924, 0.000814364, 7.54478E-05, 7.54478E-05, 7.54478E-05
5589, 1,0.00194312, 0.000186178, 0.000173656, 111.974, 9.37553, 0.0243014, 478.077, -163.178, 0.327944, 0.000966004, 0.00206546, 0.00148553, 117.708, -34.5223, 0, 0.000963418, 0.00183503, 0.00128149, 107.079, -33.111, 0, 0.000963396, 44.1589, -4.28935, 63.6974, 36.2632, 8.60673, 54.4631, 0.000305023, -0.000814351, 0.00106922, 0.000169768, 0.000169768, 0.000169768
5590, 1,0.00168638, 0.000306421, 0.0002123, 91.8422, 18.9622, 0.0159043, 457.633, -136.496, 0.165784, 0.00100078, 0.0019894, 0.00144667, 110.637, -29.5181, 0, 0.000998819, 0.00138487, 0.00103021, 73.126, -18.0525, 0, 0.000998633, 30.7505, -4.4349, 62.2388, 17.2258, -3.6846, 40.6163, 0.000154059, -0.000716625, 0.00104111, 5.34463E-05, 5.34463E-05, 5.34463E-05
5591, 1,0.00125241, 0.000526754, 0.000353739, 68.6318, 33.0055, 0.00829063, 421.56, -88.4894, 0.0153647, 0.0010354, 0.00177865, 0.00127111, 101.546, -26.5559, 0, 0.00103435, 0.000726825, 0.000565187, 35.8574, -5.2954, 0, 0.00103399, 27.6956, 5.33186, 46.6403, 7.86995, -3.12513, 11.1414, 0.00015889, -0.000414048, 0.000685588, 7.66722E-05, 7.66722E-05, 7.66722E-05
5592, 1,0.00133648, 0.000763456, 0.000516014, 84.0724, 47.737, 0.00401124, 199.301, -27.4823, 0.00425735, 0.00106841, 0.00209966, 0.00141979, 131.752, -43.344, 3.29358E-08, 0.00106868, 0.000574061, 0.000389364, 36.5476, -12.5608, 3.29358E-08, 0.00106815, 40.2382, 21.0132, 68.7804, 11.2908, 8.46678, 17.9248, 0.000161169, -0.00030481, 0.000846407, 3.6514E-05, 3.6514E-05, 3.6514E-05
5593, 1,0.00206845, 0.000207271, 0.000186007, 114.989, 10.9383, 0.0376679, 501.376, -193.64, 0.577652, 0.000968342, 0.00222166, 0.0016665, 122.339, -32.0251, 0, 0.000964364, 0.0019274, 0.00141414, 108.481, -29.5344, 0, 0.000964325, 43.1246, -12.3307, 65.2813, 33.8773, 0.684778, 54.0413, 0.000328577, -0.00104039, 0.00123111, 0.000185749, 0.000185749, 0.000185749
5594, 1,0.00192753, 0.000337253, 0.000233156, 107.539, 21.2029, 0.0285006, 508.411, -211.366, 0.410712, 0.00100379, 0.00225953, 0.00159938, 128.422, -40.353, 0, 0.000999987, 0.0015978, 0.00114695, 86.8111, -27.441, 0, 0.000999778, 36.5036, 9.12338, 75.4321, 21.7445, 9.22706, 51.3513, 0.000126866, -0.000733487, 0.00126093, 2.48812E-05, 2.48812E-05, 2.48812E-05
5595, 1,0.0016861, 0.000556517, 0.000372414, 97.6018, 35.2667, 0.0198683, 492.824, -192.124, 0.246066, 0.0010387, 0.00223941, 0.00155876, 132.611, -43.3975, 0, 0.00103568, 0.00113574, 0.000826629, 62.8922, -20.5639, 0, 0.0010353, 46.2298, 20.6009, 63.3618, 25.1246, 11.1661, 25.401, 0.000319536, -0.000503806, 0.000887912, 0.000235858, 0.000235858, 0.000235858
5596, 1,0.00144223, 0.000791701, 0.000529959, 81.5154, 49.9752, 0.0134848, 236.604, -80.9717, 0.201444, 0.00107065, 0.00222329, 0.00155421, 131.461, -38.3958, 0, 0.00106972, 0.000682893, 0.000535392, 31.6485, -5.89728, 0, 0.00106916, 33.337, 12.2917, 69.5588, 3.90187, -2.36549, 16.1555, 0.000116968, -0.000535633, 0.00104106, 1.00478E-05, 1.00478E-05, 1.00478E-05
5597, 1,0.00234764, 0.000236779, 0.000206554, 133.887, 12.8632, 0.0429518, 478.515, -154.238, 0.670185, 0.000968698, 0.00253148, 0.00191626, 143.008, -40.9337, 0, 0.000965474, 0.0021756, 0.00162022, 125.637, -37.3121, 0, 0.000965418, 53.7388, -12.4583, 81.5207, 43.27, 1.01034, 67.6559, 0.000449879, -0.00123181, 0.00144558, 0.000298993, 0.000298993, 0.000298993
5598, 1,0.00189249, 0.000367146, 0.000252315, 104.546, 23.4087, 0.0353392, 480.958, -162.991, 0.534852, 0.00100411, 0.00225566, 0.00158488, 127.469, -38.1266, 0, 0.00100095, 0.00153122, 0.00109008, 81.8935, -23.7174, 0, 0.00100071, 31.4094, 13.8051, 69.1652, 15.5492, 12.9661, 42.6369, 8.45242E-05, -0.0006824, 0.00121597, -1.53733E-05, -1.53733E-05, -1.53733E-05
5599, 1,0.00193695, 0.000587505, 0.000396601, 109.461, 37.6612, 0.0303081, 464.527, -171.843, 0.453368, 0.00103988, 0.00251455, 0.00174617, 147.017, -47.005, 0, 0.0010368, 0.00136691, 0.0010036, 72.0159, -22.3726, 0, 0.00103638, 48.2996, 19.9356, 72.7798, 26.423, 8.78759, 31.9072, 0.000323323, -0.000679248, 0.00111806, 0.00025502, 0.00025502, 0.00025502
5600, 1,0.00185131, 0.00082749, 0.000553407, 103.986, 52.6367, 0.024654, 250.421, -100.831, 0.431635, 0.0010725, 0.00265659, 0.00183466, 156.576, -47.0455, 0, 0.001071, 0.00107614, 0.000810711, 51.4804, -12.5513, 0, 0.0010704, 40.0747, 16.8063, 84.2556, 9.49853, 0.124679, 28.0306, 0.00014287, -0.000678173, 0.00129802, 4.60871E-05, 4.60871E-05, 4.60871E-05
5601, 1,0.00247328, 0.000271198, 0.000231041, 147.256, 14.9732, 0.0452406, 478.505, -152.73, 0.709503, 0.000969899, 0.00268464, 0.00191768, 157.755, -48.6564, 0, 0.000966691, 0.00227712, 0.0015914, 137.884, -43.8582, 0, 0.000966616, 55.9861, 2.25568, 87.7275, 44.2555, 16.5044, 70.8146, 0.000363184, -0.00102967, 0.0014554, 0.000203306, 0.000203306, 0.000203306
5602, 1,0.00216914, 0.000406151, 0.000280061, 132.743, 25.6571, 0.0378551, 473.793, -149.302, 0.578928, 0.00100515, 0.0025698, 0.00176343, 157.275, -51.893, 0, 0.0010024, 0.00177099, 0.00121699, 108.766, -36.4282, 0, 0.00100215, 41.7871, 32.4092, 81.4826, 25.1089, 31.6796, 52.4961, 6.68362E-05, -0.000486113, 0.00126069, -3.26164E-05, -3.26164E-05, -3.26164E-05
5603, 1,0.0021304, 0.00063355, 0.000428599, 123.69, 40.2635, 0.0330775, 410.13, -123.968, 0.515564, 0.00104024, 0.00275961, 0.00189366, 163.727, -48.2394, 0, 0.00103812, 0.00150468, 0.00104291, 83.856, -22.4543, 0, 0.00103769, 44.2975, 27.7559, 72.6647, 21.6984, 15.8709, 29.7935, 0.000194425, -0.000517288, 0.00110498, 0.000131245, 0.000131245, 0.000131245
5604, 1,0.00214442, 0.000898735, 0.000601582, 131.575, 56.7613, 0.0277374, 234.768, -73.4875, 0.49072, 0.00107333, 0.00303396, 0.00208865, 188.233, -61.909, 0, 0.00107264, 0.00126694, 0.000920014, 75.085, -25.3241, 0, 0.00107201, 52.6048, 34.0165, 99.1058, 20.7044, 16.0234, 39.2444, 0.000152027, -0.000552619, 0.0014045, 6.191E-05, 6.191E-05, 6.191E-05
5605, 1,0.00295022, 0.000323937, 0.000271969, 175.062, 17.8688, 0.0468217, 474.686, -145.227, 0.735384, 0.000970922, 0.00319654, 0.00225045, 187.387, -55.1203, 0, 0.000967915, 0.00272328, 0.00188285, 164.074, -49.2487, 0, 0.000967822, 61.4888, 3.03615, 100.836, 48.1605, 18.9896, 80.5959, 0.000362097, -0.00112759, 0.00165905, 0.000185717, 0.000185717, 0.000185717
5606, 1,0.00259687, 0.000445677, 0.000307334, 154.916, 27.9201, 0.0391418, 469.734, -141.216, 0.600041, 0.00100629, 0.00303504, 0.00215401, 181.419, -52.6585, 0, 0.00100369, 0.00216172, 0.00155344, 129.012, -36.1003, 0, 0.00100342, 40.2602, 34.7021, 83.0133, 22.7897, 33.5019, 52.0093, -2.09451E-06, -0.000460124, 0.00131582, -0.000100376, -0.000100376, -0.000100376
5607, 1,0.00275798, 0.000698078, 0.0004792, 169.375, 44.0344, 0.0334902, 392.645, -117.01, 0.529411, 0.0010414, 0.00345393, 0.0023935, 213.189, -69.0839, 0, 0.00103976, 0.0020635, 0.00143825, 125.72, -41.2953, 0, 0.00103929, 60.357, 48.605, 98.2896, 36.3898, 34.9471, 52.5489, 0.000178718, -0.000416326, 0.00135778, 0.000119172, 0.000119172, 0.000119172
5608, 1,0.00265595, 0.00102043, 0.000688875, 163.284, 64.4251, 0.0274976, 231.688, -69.3915, 0.485104, 0.00107452, 0.00367041, 0.0025401, 227.169, -71.3862, 0, 0.0010741, 0.00164843, 0.00118146, 100.096, -29.5772, 0, 0.00107337, 49.1895, 52.4886, 112.48, 12.9027, 31.2078, 44.6212, -0.000104305, -0.000328204, 0.00159, -0.000203896, -0.000203896, -0.000203896
5609, 1,0.0039088, 0.000395433, 0.000326664, 242.898, 21.8382, 0.0483016, 478.74, -150.864, 0.760629, 0.000972264, 0.00420517, 0.00294747, 258.126, -85.9734, 0, 0.000969489, 0.00363608, 0.00256014, 229.199, -78.4033, 0, 0.00096937, 86.2624, 26.8327, 144.825, 69.9892, 44.0725, 121.148, 0.000340033, -0.00109162, 0.00214566, 0.00012829, 0.00012829, 0.00012829
5610, 1,0.0033936, 0.000512447, 0.000361089, 211.665, 31.6136, 0.0399954, 473.727, -146.842, 0.61507, 0.00100722, 0.00389082, 0.00283789, 241.431, -74.2908, 0, 0.00100478, 0.00290175, 0.00214099, 182.557, -56.1983, 0, 0.00100449, 49.2344, 64.9027, 108.735, 30.5247, 62.257, 75.8132, -0.000206979, -0.000144748, 0.00155635, -0.000306102, -0.000306102, -0.000306102
5611, 1,0.00339837, 0.000810158, 0.000571094, 210.692, 50.7433, 0.0332059, 373.933, -118.041, 0.535247, 0.00104209, 0.00420324, 0.00304916, 261.375, -85.4014, 0, 0.00104069, 0.00259704, 0.00192015, 160.053, -53.6415, 0, 0.00104016, 61.4351, 69.1906, 125.578, 35.7746, 50.3794, 74.7705, -0.000111846, -0.00022289, 0.00171974, -0.000142898, -0.000142898, -0.000142898
5612, 1,0.00312916, 0.0011609, 0.000793344, 200.934, 73.871, 0.0255263, 234.214, -73.9896, 0.445816, 0.00107553, 0.00427742, 0.00298504, 274.595, -97.5545, -8.67362E-19, 0.00107549, 0.00199552, 0.00143519, 127.531, -47.969, -8.67362E-19, 0.00107462, 65.905, 73.2874, 153.471, 24.4627, 45.6987, 73.7456, -0.000219383, -0.00028367, 0.00208502, -0.000303794, -0.000303794, -0.000303794
5613, 1,0.00491551, 0.000491809, 0.000398357, 302.016, 27.0681, 0.0488714, 482.347, -156.135, 0.770382, 0.000973272, 0.00526113, 0.00366827, 320.503, -100.878, 0, 0.000970543, 0.00460185, 0.003218, 285.338, -91.1755, 0, 0.000970391, 110.394, 16.6459, 175.595, 90.4161, 33.4755, 149.635, 0.000530573, -0.00146139, 0.00256689, 0.000272914, 0.000272914, 0.000272914
5614, 1,0.0047892, 0.000621263, 0.000458775, 297.711, 38.0299, 0.0397329, 483.241, -162.56, 0.611847, 0.00100809, 0.00539355, 0.00407965, 334.224, -102.039, 0, 0.00100572, 0.00418985, 0.00318858, 261.651, -80.0627, 0, 0.00100536, 74.6509, 85.4434, 146.024, 51.5826, 79.2014, 109.404, -0.000195357, -6.05143E-05, 0.00191102, -0.000325243, -0.000325243, -0.000325243
5615, 1,0.00446199, 0.000985314, 0.000711168, 267.455, 61.4449, 0.0308683, 346.929, -122.525, 0.508744, 0.00104284, 0.00544194, 0.00403996, 328.747, -95.7245, 1.62872E-05, 0.00104157, 0.00348499, 0.00263509, 206.249, -56.8901, 2.93566E-06, 0.00104091, 52.7294, 70.3398, 164.104, 23.0601, 46.4406, 101.17, -0.000544691, -0.000273267, 0.00237059, -0.000548469, -0.000548469, -0.000548469
5616, 1,0.00411388, 0.00132672, 0.000917974, 267.748, 84.4495, 0.020736, 242.075, -88.7238, 0.350751, 0.00107708, 0.00543044, 0.00387971, 351.663, -126.904, 0, 0.00107734, 0.00280639, 0.00207235, 184.38, -69.3964, 0, 0.00107634, 79.7411, 100.441, 200.531, 33.4617, 69.9229, 104.805, -0.000458995, -8.80908E-05, 0.00260533, -0.000521415, -0.000521415, -0.000521415
5617, 1,0.00623902, 0.000611806, 0.000493017, 389.206, 33.1291, 0.0460742, 497.173, -182.211, 0.725047, 0.000975302, 0.00658905, 0.00463917, 408.491, -129.29, 0, 0.000972509, 0.00593915, 0.0041662, 372.441, -118.221, 0, 0.000972335, 150.041, 25.5381, 212.29, 126.785, 41.3574, 186.52, 0.000852998, -0.00162335, 0.00286764, 0.000545051, 0.000545051, 0.000545051
5618, 1,0.00673082, 0.000800179, 0.000606309, 365.758, 47.7509, 0.0362813, 485.27, -168.864, 0.551099, 0.00100992, 0.00748627, 0.00558163, 411.856, -142.411, 0.0220976, 0.00100829, 0.0059863, 0.0044449, 320.147, -113.16, 0.0220976, 0.00100781, 107.995, 105.983, 213.255, 77.5751, 93.5789, 168.327, -0.000340879, -0.000300313, 0.00298039, -0.000560031, -0.000560031, -0.000560031
5619, 1,0.00700618, 0.00121875, 0.000891717, 305.109, 74.3723, 0.0261434, 283.533, -96.4608, 0.441422, 0.00104419, 0.00821171, 0.00597861, 379.127, -116.116, 0.0418701, 0.00104403, 0.00580566, 0.00422698, 231.294, -66.7854, 0.0418101, 0.00104318, 84.518, 69.5386, 194.293, 45.5736, 40.188, 114.594, -0.000492861, -0.000861173, 0.00328243, -0.000547584, -0.000547584, -0.000547584
5620, 1,0.00594197, 0.00152476, 0.00106845, 325.376, 93.9524, 0.0142991, 230.349, -72.512, 0.21949, 0.00107886, 0.00744433, 0.00546951, 418.748, -147.785, 0.0182726, 0.00108002, 0.00445362, 0.00339137, 232.446, -80.9099, 0.0164701, 0.00107884, 81.2589, 102.174, 259.923, 28.7057, 65.2638, 148.76, -0.000991532, -0.000435852, 0.00384888, -0.00109351, -0.00109351, -0.00109351
5621, 1,0.00931744, 0.000799337, 0.000671935, 456.849, 32.9497, 0.0385897, 471.532, -159.823, 0.598161, 0.000976343, 0.00964315, 0.00670858, 474.634, -175.89, 0.0486575, 0.000975407, 0.00906124, 0.00625504, 441.439, -164.767, 0.0486575, 0.000975226, 191.594, 60.6535, 275.424, 167.929, 76.5797, 249.794, 0.00112988, -0.00246648, 0.00426996, 0.000710542, 0.000710542, 0.000710542
5622, 1,0.0105592, 0.00107549, 0.00078629, 420.128, 58.3759, 0.0310267, 450.5, -152.281, 0.466318, 0.00101177, 0.0114961, 0.00795316, 476.306, -178.619, 0.0856999, 0.00101147, 0.00964725, 0.00676055, 364.625, -139.773, 0.0856999, 0.0010108, 172.807, 92.001, 271.049, 129.87, 80.5087, 208.939, 0.000514806, -0.00215702, 0.00468527, 0.000114825, 0.000114825, 0.000114825
5623, 1,0.0114278, 0.00148743, 0.00107922, 356.955, 85.8216, 0.0227548, 243.201, -90.0065, 0.393146, 0.00104715, 0.0128749, 0.00912027, 442.465, -172.075, 0.125676, 0.00104834, 0.00999072, 0.00728575, 271.649, -112.103, 0.125676, 0.00104724, 162.345, 95.7462, 258.133, 106.451, 67.5618, 162.294, 0.000320729, -0.002467, 0.00514763, 7.64538E-05, 7.64538E-05, 7.64538E-05
5624, 1,0.00959986, 0.00169805, 0.00119411, 361.623, 100.667, 0.0102164, 238.031, -90.4541, 0.138541, 0.00108235, 0.0112502, 0.00816737, 461.913, -193.551, 0.0905034, 0.0010842, 0.0079685, 0.00589177, 261.672, -120.69, 0.0895018, 0.00108285, 132.513, 129.006, 319.134, 78.7579, 88.4114, 194.901, -0.00138099, -0.00141654, 0.00610377, -0.00163743, -0.00163743, -0.00163743
5625, 1,0.011063, 0.000730087, 0.000601194, 463.732, 28.2105, 0.034379, 452.962, -137.443, 0.523661, 0.000996804, 0.0113853, 0.00815793, 482.498, -190.082, 0.083673, 0.000996888, 0.0107848, 0.00768628, 446.204, -176.93, 0.083673, 0.000996665, 192.945, 60.5217, 316.78, 168.9, 71.0543, 290.837, 0.000883868, -0.00357381, 0.00592504, 0.000420735, 0.000420735, 0.000420735
5626, 1,0.0144084, 0.00118832, 0.000829808, 438.747, 63.1311, 0.0298797, 365.565, -103.41, 0.47391, 0.00103266, 0.0154728, 0.0112411, 501.011, -221.786, 0.167532, 0.00103441, 0.013362, 0.00997077, 376.801, -174.562, 0.167532, 0.00103354, 237, 92.7382, 335.619, 182.876, 81.6296, 259.18, 0.00180521, -0.00530459, 0.00746832, 0.00126438, 0.00126438, 0.00126438
5627, 1,0.0142182, 0.00155195, 0.00111415, 375.685, 89.943, 0.0227349, 212.882, -44.2428, 0.395415, 0.00106922, 0.0157522, 0.0117063, 465.552, -187.494, 0.177228, 0.00107185, 0.0126889, 0.00984821, 285.872, -118.709, 0.177228, 0.00107052, 197.795, 54.2038, 310.485, 125.915, 31.6775, 198.533, 0.00140781, -0.00595822, 0.00792489, 0.000975018, 0.000975018, 0.000975018
5628, 1,0.0114829, 0.00171, 0.00119256, 343.347, 100.915, 0.0119837, 204.583, -37.6699, 0.174381, 0.00110542, 0.0131386, 0.00963944, 443.924, -163.41, 0.126157, 0.00110783, 0.00984436, 0.00738161, 243.043, -87.7325, 0.12569, 0.00110637, 136.568, 66.7727, 286.89, 71.6545, 26.6534, 164.89, -0.000402121, -0.00331836, 0.00657126, -0.000634737, -0.000634737, -0.000634737
5629, 1,0.0122721, -0.00384317, 0.0026115, -2.59222, -177.074, 0.042199, 6.7116, 519.898, 1, 0.000812984, 0.0135419, 0.0216466, -3.02522, 261.962, 0.340169, 0.000824316, 0.0110095, 0.0166425, -2.02248, 138.66, 0.327261, 0.000826374, -329.899, -61.5582, -394.427, -165.144, -37.3693, -213.465, -0.0045521, 0.0103328, -0.0110225, -0.00204879, -0.00204879, -0.00204879
5630, 1,0.012003, -0.00338554, 0.00227859, -3.94496, -177.088, 0.0394184, -8.1991, 455.811, 1, 0.000843907, 0.0131012, 0.0199984, -2.12099, 289.319, 0.28375, 0.000853376, 0.0109082, 0.0156075, -5.68925, 163.289, 0.28281, 0.000855454, -379.26, -62.3754, -426.321, -203.55, -42.9024, -243.415, -0.00554524, 0.0101768, -0.0102047, -0.00312497, -0.00312497, -0.00312497
5631, 1,0.0115343, -0.00320264, 0.00214957, -9.55053, -172.79, 0.0381057, -3.02507, 389.221, 1, 0.000873164, 0.0125849, 0.0189804, -7.14995, 308.427, 0.252271, 0.000880588, 0.0104901, 0.0148021, -11.815, 184.348, 0.252271, 0.000882654, -409.422, -67.8598, -447.998, -233.089, -50.5997, -269.356, -0.00604932, 0.00984931, -0.00962069, -0.00370698, -0.00370698, -0.00370698
5632, 1,0.0116415, -0.00322206, 0.00215507, -0.0945331, -166.443, 0.0358358, 5.02578, 328.04, 1, 0.000900807, 0.0126888, 0.0200309, 2.08044, 262.334, 0.299132, 0.000907075, 0.0106016, 0.0158456, -2.14497, 148.112, 0.299132, 0.000909096, -344.29, -52.8594, -389.851, -183.289, -36.349, -224.699, -0.00552101, 0.00986092, -0.00944666, -0.00311826, -0.00311826, -0.00311826
5633, 1,0.0095979, -0.00323404, 0.00222119, 14.4445, -163.332, 0.0410121, 21.9823, 463.284, 1, 0.000815397, 0.0106612, 0.0175821, 18.7328, 219.604, 0.256474, 0.000825944, 0.00854616, 0.0134313, 10.4268, 114.693, 0.253999, 0.000827589, -246.69, -60.9366, -351.187, -116.065, -38.3122, -189.703, -0.00178624, 0.00700304, -0.00937166, 0.000114186, 0.000114186, 0.000114186
5634, 1,0.00827881, -0.00288732, 0.00196575, 4.3155, -155.874, 0.0385167, 22.2729, 384.595, 1, 0.000845656, 0.00921008, 0.01523, 7.57778, 234.852, 0.19704, 0.000854018, 0.00735131, 0.0115408, 1.16606, 132.624, 0.196742, 0.000855612, -274.411, -59.2291, -370.916, -139.909, -38.9692, -218.994, -0.00234311, 0.00657978, -0.00851456, -0.000455945, -0.000455945, -0.000455945
5635, 1,0.00767301, -0.00268714, 0.00181626, 23.1344, -150.94, 0.0351639, 17.8112, 311.892, 1, 0.000875774, 0.00853775, 0.0138871, 26.8963, 223.173, 0.160139, 0.000882345, 0.00680914, 0.0103832, 19.4227, 124.622, 0.160139, 0.000883896, -306.779, -39.8478, -322.891, -163.618, -21.599, -188.65, -0.00396061, 0.0061659, -0.00617886, -0.00213814, -0.00213814, -0.00213814
5636, 1,0.00729596, -0.00267693, 0.00179808, 15.5903, -150.844, 0.0344477, 11.0231, 294.748, 1, 0.000903024, 0.00818485, 0.0136974, 19.283, 223.358, 0.158878, 0.000909227, 0.00640871, 0.0101675, 11.9698, 125.464, 0.158878, 0.000910814, -309.72, -49.0418, -311.313, -165.37, -29.0236, -181.998, -0.00417673, 0.00575053, -0.00554842, -0.00229782, -0.00229782, -0.00229782
5637, 1,0.00617517, -0.00278724, 0.0019025, 17.8281, -156.273, 0.0395556, 24.4162, 414.75, 1, 0.000818968, 0.00710989, 0.0121877, 21.5472, 209.784, 0.127228, 0.000828494, 0.00525168, 0.00858701, 14.5427, 109.04, 0.126198, 0.000829954, -210.763, -93.1561, -325.432, -93.2759, -54.9536, -178.889, -0.000564158, 0.00348375, -0.0065813, 0.000778864, 0.000778864, 0.000778864
5638, 1,0.00571064, -0.00253919, 0.0017435, 7.87783, -142.094, 0.0365248, 16.2103, 344.135, 1, 0.000848435, 0.00654543, 0.0115303, 11.0388, 206.055, 0.120556, 0.000856149, 0.00491855, 0.0083126, 5.53107, 115.641, 0.119908, 0.000857497, -209.051, -87.7452, -321.37, -98.0247, -54.8716, -194.025, -0.000704438, 0.00344124, -0.00631895, 0.000712319, 0.000712319, 0.000712319
5639, 1,0.00597564, -0.00237569, 0.00162278, 25.2104, -137.036, 0.0351432, 24.7979, 287.212, 1, 0.000877783, 0.00673044, 0.0112117, 29.2487, 204.33, 0.105399, 0.000883969, 0.0052214, 0.00813171, 21.2449, 117.354, 0.105399, 0.000885296, -262.114, -66.3539, -284.522, -140.829, -38.4311, -172.801, -0.00264615, 0.00384989, -0.00472432, -0.00120697, -0.00120697, -0.00120697
5640, 1,0.00570286, -0.00235677, 0.00158741, 8.06574, -137.851, 0.0336725, 10.3667, 277.215, 1, 0.000905567, 0.00650673, 0.011472, 11.0181, 222.981, 0.106871, 0.000911319, 0.00490204, 0.00833633, 5.27921, 133.377, 0.106871, 0.000912729, -295.902, -92.9112, -280.128, -168.259, -58.8454, -173.027, -0.00331023, 0.00338381, -0.00391967, -0.00179994, -0.00179994, -0.00179994
5641, 1,0.00438175, -0.00247598, 0.00168896, 5.77986, -144.942, 0.0367802, 2.87338, 377.675, 1, 0.00082153, 0.00518681, 0.00942555, 8.14527, 212.608, 0.0636858, 0.000830028, 0.00358579, 0.00625935, 3.81416, 119.18, 0.0624553, 0.000831335, -194.144, -133.989, -309.69, -89.2916, -85.3206, -182.928, -0.000196296, 0.00169613, -0.00507488, 0.000788417, 0.000788417, 0.000788417
5642, 1,0.00398391, -0.00223848, 0.00153784, 15.4553, -131.483, 0.0347095, 4.65281, 313.717, 1, 0.000851467, 0.00474838, 0.00862902, 19.4931, 190.09, 0.0529122, 0.000858598, 0.00325353, 0.00573761, 12.3342, 107.552, 0.0519865, 0.000859784, -188.023, -105.677, -276.571, -86.8517, -65.051, -170.752, -0.000608814, 0.00179962, -0.00436731, 0.000437029, 0.000437029, 0.000437029
5643, 1,0.00444871, -0.00212564, 0.00145507, 16.387, -124.81, 0.0336367, 7.45921, 271.056, 1, 0.000880925, 0.00517534, 0.00919201, 21.2852, 189.585, 0.0677913, 0.000886896, 0.00373761, 0.00641934, 11.6868, 111.508, 0.0677913, 0.000888064, -207.643, -109.48, -251.633, -105.1, -71.0809, -158.344, -0.00126951, 0.00176784, -0.0036941, -8.8338E-05, -8.8338E-05, -8.8338E-05
5644, 1,0.00444432, -0.0020589, 0.00138519, 15.0972, -124.366, 0.0305525, -15.8816, 269.07, 0.952681, 0.000909701, 0.00514521, 0.00929863, 18.1443, 211.241, 0.0562072, 0.000914978, 0.00374497, 0.00655358, 12.064, 130.83, 0.0562072, 0.000916211, -274.915, -117.921, -240.888, -164.149, -75.8683, -152.474, -0.00264396, 0.0017946, -0.00268813, -0.00148547, -0.00148547, -0.00148547
5645, 1,0.00303627, -0.00220796, 0.00149981, 9.36767, -134.172, 0.0350948, 1.71094, 330.998, 1, 0.000825519, 0.00377367, 0.00723446, 11.4162, 196.699, 0.0171509, 0.000832924, 0.00236185, 0.0043965, 8.46882, 110.255, 0.0157596, 0.000834106, -170.643, -155.776, -263.678, -73.8387, -102.143, -154.784, -0.000196872, 0.000569971, -0.00359412, 0.000539906, 0.000539906, 0.000539906
5646, 1,0.00345007, -0.00203497, 0.00139642, 14.0978, -121.531, 0.0337271, -0.0903582, 289.802, 1, 0.00085508, 0.00411627, 0.00758963, 17.3889, 184.191, 0.0320308, 0.000861601, 0.0028179, 0.00498764, 11.3988, 107.26, 0.0307981, 0.000862698, -173.118, -128.814, -250.641, -80.9038, -82.6238, -158.253, -0.000484618, 0.000989426, -0.00354659, 0.00037025, 0.00037025, 0.00037025
5647, 1,0.00364085, -0.0018966, 0.00129424, 27.1654, -114.487, 0.0314381, 4.65234, 253.662, 0.950827, 0.000885116, 0.00429795, 0.00761098, 30.9522, 172.968, 0.0357049, 0.000890358, 0.00300035, 0.00510447, 23.7658, 100.45, 0.0352825, 0.000891428, -190.902, -122.641, -205.361, -96.106, -78.8408, -126.404, -0.00118255, 0.000870566, -0.00255054, -0.000208887, -0.000208887, -0.000208887
5648, 1,0.00296431, -0.00181065, 0.0012182, 20.8606, -112.885, 0.0253724, -2.4531, 254.306, 0.776918, 0.00091508, 0.0035767, 0.00680874, 23.5883, 196.307, 0, 0.000918839, 0.00235938, 0.0044123, 18.2077, 124.174, 0, 0.000919915, -221.792, -149.782, -217.346, -127.496, -104.364, -140.662, -0.00138653, 0.000330815, -0.00212858, -0.000539386, -0.000539386, -0.000539386
5649, 1,0.00248424, -0.00200026, 0.00135095, 7.74872, -125.39, 0.0338604, 3.83421, 293.482, 1, 0.000830206, 0.00312978, 0.00616605, 8.99219, 185.039, 0.000322015, 0.000836685, 0.00187283, 0.00358886, 7.24553, 103.982, 7.60629E-05, 0.000837786, -160.48, -168.539, -226.097, -70.203, -112.52, -129.222, -0.000338517, 0.000102702, -0.0027658, 0.000279353, 0.000279353, 0.000279353
5650, 1,0.00303985, -0.00185043, 0.00126076, 38.2454, -113.192, 0.0307047, -21.6558, 277.08, 0.961766, 0.000859606, 0.00367225, 0.00649096, 40.8451, 161.267, 0.00987247, 0.000865708, 0.002431, 0.00406772, 36.0553, 88.6576, 0.00857479, 0.000866736, -151.202, -134.858, -197.742, -64.2425, -85.329, -116.401, -0.000473834, 0.000352808, -0.00250899, 0.000241888, 0.000241888, 0.000241888
5651, 1,0.00256812, -0.00173222, 0.00117697, 23.5029, -107.482, 0.0276006, 8.51962, 259.277, 0.799182, 0.000890221, 0.00314727, 0.00592432, 26.1685, 161.731, 0.00158808, 0.000894654, 0.00200865, 0.00367115, 21.017, 93.4631, 0.00124531, 0.000895647, -161.729, -136.069, -187.396, -74.8928, -90.4742, -115.022, -0.000705659, 0.000201238, -0.00212106, 4.93597E-05, 4.93597E-05, 4.93597E-05
5652, 1,0.00264406, -0.00163551, 0.00109584, 13.0262, -102.746, 0.0216804, -9.39185, 261.198, 0.654891, 0.000920025, 0.00318676, 0.00614355, 14.4887, 183.951, 0, 0.00092343, 0.00210434, 0.00398869, 11.5776, 117.225, 0, 0.00092443, -195.24, -161.078, -195.535, -111.769, -114.208, -125.698, -0.00110444, -8.25494E-05, -0.00179685, -0.00039954, -0.00039954, -0.00039954
5653, 1,0.00252259, -0.00184252, 0.00124015, 24.471, -116.41, 0.0322161, -14.7393, 272.892, 1, 0.000834645, 0.0031396, 0.00589137, 25.3607, 164.637, 7.12632E-05, 0.000840801, 0.00192195, 0.00347227, 24.0947, 88.8485, 1.168E-05, 0.000841836, -142.271, -163.204, -188.437, -57.9952, -106.831, -101.72, -0.000352571, -7.09872E-05, -0.00224664, 0.000223765, 0.000223765, 0.000223765
5654, 1,0.00213944, -0.00169401, 0.00114896, 6.15228, -106.546, 0.0274915, -11.0228, 276.811, 0.817238, 0.000865023, 0.00269849, 0.00526962, 7.76765, 159.682, 0, 0.000869939, 0.0016178, 0.00308525, 4.9921, 91.0478, 0, 0.000870909, -148.033, -142.473, -188.539, -68.3482, -91.209, -113.586, -0.000492943, 0.000111857, -0.00220884, 9.8799E-05, 9.8799E-05, 9.8799E-05
5655, 1,0.00231986, -0.00159083, 0.00107514, 13.4176, -99.8486, 0.024049, 4.53903, 268.732, 0.674335, 0.000895099, 0.00284741, 0.00540836, 15.0346, 160.533, 0, 0.000899034, 0.00180782, 0.00333399, 11.977, 96.4146, 0, 0.00089997, -155.14, -154.884, -171.574, -75.9758, -108.388, -104.88, -0.00065127, -0.000233671, -0.00171882, 3.06369E-06, 3.06369E-06, 3.06369E-06
5656, 1,0.00228965, -0.0014959, 0.00100216, 8.60194, -94.2296, 0.0195296, -8.26594, 260.854, 0.577148, 0.000924953, 0.00277982, 0.00537543, 9.49013, 162.988, 0, 0.000928288, 0.00180501, 0.00341316, 7.73373, 101.647, 0, 0.000929212, -162.72, -156.638, -169.607, -88.8361, -109.809, -106.297, -0.000805846, -0.000321809, -0.00151613, -0.000217557, -0.000217557, -0.000217557
5657, 1,0.00201167, -0.00170142, 0.00114348, -2.0076, -107.827, 0.0270531, -6.36454, 258.95, 0.830444, 0.000840303, 0.00257057, 0.00503398, -1.16657, 161.513, 0, 0.000844692, 0.00145525, 0.00280318, -2.11425, 91.0094, 0, 0.000845659, -145.544, -161.956, -177.038, -69.5473, -105.44, -98.0415, -0.000500872, -0.000174173, -0.00194443, -1.4874E-05, -1.4874E-05, -1.4874E-05
5658, 1,0.00210847, -0.00157179, 0.00106214, 11.1467, -99.3084, 0.0240184, -8.77043, 284.084, 0.678012, 0.000869998, 0.00263205, 0.00503772, 11.9728, 150.238, 0, 0.000874339, 0.00160826, 0.00299743, 10.9763, 85.6699, 0, 0.000875256, -130.977, -147.409, -172.329, -56.7507, -96.8694, -103.39, -0.000330865, -0.000170701, -0.00193511, 0.000210428, 0.000210428, 0.000210428
5659, 1,0.00192802, -0.00145907, 0.000984155, 4.03685, -92.044, 0.0213827, 3.3403, 275.204, 0.576306, 0.000899954, 0.00241521, 0.00478461, 4.91453, 145.847, 0, 0.000903756, 0.00146409, 0.00288139, 3.59057, 86.1138, 0, 0.000904632, -140.211, -139.23, -158.099, -68.3298, -92.8384, -97.1732, -0.000618294, -0.000158404, -0.00158883, -4.75935E-05, -4.75935E-05, -4.75935E-05
5660, 1,0.00198619, -0.00136506, 0.000914447, 3.88359, -86.1691, 0.0171361, -6.76915, 258.017, 0.49354, 0.000929992, 0.00242955, 0.0047811, 4.45481, 146.965, 0, 0.000933153, 0.00154826, 0.00299468, 3.35716, 90.6437, 0, 0.000934006, -142.352, -146.055, -152.487, -76.3723, -100.292, -95.267, -0.000648253, -0.000376354, -0.0013593, -0.000147187, -0.000147187, -0.000147187
5661, 1,0.001773, -0.00157695, 0.00105858, 4.24802, -99.929, 0.020282, -1.73087, 248.239, 0.603336, 0.000845235, 0.00230005, 0.00453588, 4.55449, 139.128, 0, 0.000848465, 0.00126114, 0.00246569, 4.44176, 73.701, 0, 0.000849367, -117.058, -149.852, -150.475, -47.7603, -94.466, -78.8769, -0.000285167, -0.000384527, -0.00158677, 0.000142143, 0.000142143, 0.000142143
5662, 1,0.0018703, -0.00145391, 0.000980259, 7.9141, -91.9042, 0.0194388, -3.28298, 279.05, 0.521685, 0.000874551, 0.00235638, 0.00456698, 8.66332, 136.934, 0, 0.000878202, 0.00139312, 0.00266585, 7.95202, 77.1244, 0, 0.000879054, -119.5, -140.647, -150.654, -51.7878, -91.8099, -87.7756, -0.000322689, -0.00031403, -0.00158415, 0.0001573, 0.0001573, 0.0001573
5663, 1,0.00177306, -0.00134423, 0.000907159, 4.01039, -84.8791, 0.0182785, 4.52052, 276.625, 0.4681, 0.00090449, 0.00221084, 0.0043975, 4.62288, 134.411, 0, 0.00090802, 0.00136391, 0.00266965, 4.19011, 79.2711, 0, 0.000908832, -119.601, -136.241, -147.392, -54.3881, -91.447, -91.9783, -0.000380944, -0.000318405, -0.00148068, 0.000121116, 0.000121116, 0.000121116
5664, 1,0.00184692, -0.001237, 0.000828186, 7.47194, -78.2748, 0.0149856, -2.97141, 252.757, 0.415498, 0.000934838, 0.00224648, 0.00435998, 7.85385, 130.197, 0, 0.000937859, 0.00145166, 0.00274121, 7.12701, 78.8703, 0, 0.000938641, -125.411, -133.026, -132.154, -66.4836, -89.0294, -81.0978, -0.000578404, -0.000379526, -0.00115395, -0.00014703, -0.00014703, -0.00014703
5665, 1,0.00175317, -0.00146454, 0.00098272, 11.9929, -92.6238, 0.0140768, -6.30723, 234.946, 0.407579, 0.000849917, 0.00224054, 0.00429072, 12.3246, 124.616, 0, 0.000852396, 0.00127784, 0.00236677, 12.2403, 63.9904, 0, 0.000853235, -101.218, -140.099, -132.531, -37.4569, -87.2328, -67.2816, -0.0001783, -0.000542771, -0.00130015, 0.000209044, 0.000209044, 0.000209044
5666, 1,0.00152498, -0.00134009, 0.00090356, -2.15788, -84.6519, 0.013212, 3.59046, 261.475, 0.32195, 0.000879631, 0.00194448, 0.00392683, -1.9226, 127.64, 0, 0.000882363, 0.00111815, 0.00221729, -2.33754, 72.3908, 0, 0.000883155, -106.003, -135.233, -141.684, -45.363, -87.054, -84.7552, -0.000204146, -0.000463628, -0.00140254, 0.000200368, 0.000200368, 0.000200368
5667, 1,0.00164091, -0.00122534, 0.000825062, 4.1694, -77.4069, 0.0129642, 1.02508, 263.356, 0.315391, 0.000909374, 0.00204463, 0.00401542, 4.52605, 123.558, 0, 0.000912271, 0.00125312, 0.00242407, 4.41047, 73.0687, 0, 0.000913019, -110.367, -129.926, -130.381, -51.1632, -86.829, -81.214, -0.000364346, -0.000440264, -0.0011994, 8.49999E-05, 8.49999E-05, 8.49999E-05
5668, 1,0.00172684, -0.00111551, 0.00074757, 8.75973, -70.5597, 0.0114915, 0.279988, 243.213, 0.293625, 0.00093963, 0.00208434, 0.00398582, 8.93612, 117.598, 0, 0.000942276, 0.00137537, 0.00253376, 8.6717, 71.2835, 0, 0.000942984, -108.693, -125.234, -118.867, -56.4193, -83.4155, -74.0158, -0.000411716, -0.000472827, -0.00102294, -4.20928E-05, -4.20928E-05, -4.20928E-05
5669, 1,0.0014139, -0.0013577, 0.000911896, -3.04986, -85.6401, 0.00898481, 8.07982, 216.993, 0.207579, 0.000854125, 0.00186514, 0.00370025, -2.53411, 120.154, 0, 0.000855863, 0.000969978, 0.00192115, -2.64486, 64.0701, 0, 0.000856642, -96.967, -137.459, -126.036, -39.6988, -85.9977, -66.5137, -0.000147152, -0.000699739, -0.00110212, 0.00017524, 0.00017524, 0.00017524
5670, 1,0.00152281, -0.00122766, 0.000827342, 5.72632, -77.4473, 0.00857347, 6.38704, 232.717, 0.183519, 0.000884335, 0.00192108, 0.00374846, 5.74835, 113.702, 0, 0.000886426, 0.00114785, 0.00217151, 6.47042, 63.0692, 0, 0.000887155, -90.5974, -124.245, -126.263, -34.8705, -78.9366, -75.4005, -9.98274E-05, -0.000549744, -0.00119472, 0.000274695, 0.000274695, 0.000274695
5671, 1,0.0014286, -0.00111321, 0.000750622, 4.18109, -70.1607, 0.00761586, 4.22336, 234.099, 0.149615, 0.000914495, 0.00179548, 0.0035227, 4.61022, 108.543, -5.42101E-20, 0.000916677, 0.00106646, 0.00208034, 4.30878, 62.7603, -5.42101E-20, 0.000917358, -92.6297, -115.857, -117.142, -39.8263, -74.8025, -73.6521, -0.000225633, -0.000489366, -0.00104557, 0.000163716, 0.000163716, 0.000163716
5672, 1,0.00154341, -0.000995659, 0.000667547, 5.6195, -62.8391, 0.00734517, 18.6935, 225.311, 0.128648, 0.000944812, 0.00186101, 0.00360107, 5.77523, 107.432, 1.0842E-19, 0.000946888, 0.00122984, 0.00230668, 5.52962, 66.1199, 1.0842E-19, 0.000947523, -98.2769, -115.464, -108.555, -52.1961, -76.4349, -69.7288, -0.000340129, -0.000528989, -0.000873542, -2.10788E-05, -2.10788E-05, -2.10788E-05
5673, 1,0.00138616, -0.00124764, 0.000837745, 7.40808, -78.5889, 0.00607435, 24.292, 201.718, 0.0881596, 0.000857992, 0.00179575, 0.00346866, 7.52169, 103.637, 1.79196E-07, 0.000859504, 0.0009924, 0.0018433, 7.91662, 52.1022, 1.79196E-07, 0.000860223, -78.6935, -122.235, -109.982, -26.3861, -73.6187, -56.3019, -1.80398E-05, -0.000728001, -0.000935046, 0.000271548, 0.000271548, 0.000271548
5674, 1,0.00129165, -0.00111684, 0.000752707, 0.848486, -70.3247, 0.00600686, 52.1364, 199.716, 0.0621469, 0.000888744, 0.00166013, 0.0032921, 1.2522, 103.89, -1.0842E-19, 0.00089023, 0.000927308, 0.00184503, 0.837434, 57.8355, -1.0842E-19, 0.000890896, -83.6613, -113.876, -114.133, -33.6328, -70.919, -68.9546, -0.000102219, -0.000576311, -0.00100666, 0.000224477, 0.000224477, 0.000224477
5675, 1,0.00138837, -0.00100448, 0.000678905, 5.86496, -63.08, 0.00568676, 63.5253, 191.207, 0.0464591, 0.00091923, 0.00170853, 0.00331736, 5.90294, 99.9643, 0, 0.000920668, 0.00109018, 0.00204529, 6.72069, 58.9557, 0, 0.000921281, -78.5113, -114.08, -107.301, -30.9247, -76.471, -69.4713, -5.16349E-05, -0.000668249, -0.000901674, 0.000303796, 0.000303796, 0.000303796
5676, 1,0.00132639, -0.000878434, 0.000588727, 1.44483, -55.3154, 0.00435897, 40.6982, 201.218, 0.0124385, 0.000949526, 0.0016132, 0.00316793, 1.87682, 98.6041, 0, 0.00095113, 0.00103999, 0.00201681, 1.06394, 62.347, 0, 0.000951689, -88.2841, -110.745, -96.7832, -48.2885, -74.9014, -63.851, -0.000295936, -0.000637436, -0.000666256, -2.43243E-05, -2.43243E-05, -2.43243E-05
5677, 1,0.00116211, -0.00114349, 0.000768664, -1.41522, -71.8909, 0.00376366, 42.1592, 175.047, 0.00404724, 0.000861963, 0.0015414, 0.003078, -0.99222, 98.4561, 0, 0.00086304, 0.000792153, 0.00158557, -0.998244, 51.3568, 0, 0.0008637, -75.6476, -118.52, -101.201, -28.7209, -72.6705, -52.6789, -3.36848E-05, -0.000796139, -0.000767303, 0.000212355, 0.000212355, 0.000212355
5678, 1,0.00121216, -0.00101091, 0.000682533, 3.28385, -63.5072, 0.00425179, 81.1594, 160.178, 0, 0.00089313, 0.00153407, 0.00301019, 3.13136, 92.6645, 0, 0.000894109, 0.00091587, 0.00173151, 4.43224, 51.1908, 0, 0.000894711, -68.2644, -108.451, -101.279, -23.3428, -68.588, -61.6415, 4.36633E-05, -0.000690259, -0.000856578, 0.000335946, 0.000335946, 0.000335946
5679, 1,0.00114793, -0.000888547, 0.000600181, 0.161773, -55.7588, 0.0041016, 71.4168, 164.269, 0, 0.000923646, 0.00143482, 0.00287825, 0.537223, 90.4096, 0, 0.000924754, 0.000880245, 0.0017482, 0.510199, 54.1875, 0, 0.000925298, -73.5457, -105.563, -92.1201, -31.5097, -71.0205, -60.0322, -0.000108991, -0.000673228, -0.000684432, 0.000205557, 0.000205557, 0.000205557
5680, 1,0.00116539, -0.00075984, 0.000510435, 2.86925, -47.7781, 0.00351529, 28.331, 185.279, 0, 0.000953989, 0.00141644, 0.0028141, 3.11784, 85.5775, 0, 0.000955533, 0.000929495, 0.00182834, 3.03326, 54.421, 0, 0.000956017, -70.3958, -102.692, -83.6446, -36.1023, -70.5252, -56.6355, -0.000125286, -0.000694442, -0.000568602, 0.000106042, 0.000106042, 0.000106042
5681, 1,0.00106704, -0.00103876, 0.000699055, 1.96149, -65.2621, 0.00284148, 16.4676, 157.94, 0, 0.00086563, 0.0014111, 0.00278702, 2.28774, 85.9247, 0, 0.000866643, 0.000737687, 0.00143912, 2.63853, 43.2461, 0, 0.000867243, -62.2838, -108.4, -87.0902, -20.2764, -65.7868, -43.6751, 4.51392E-05, -0.000802466, -0.000636546, 0.000257645, 0.000257645, 0.000257645
5682, 1,0.00103426, -0.000901744, 0.000609471, 1.23857, -56.6198, 0.00314811, 36.3804, 150.429, 0, 0.000896848, 0.00133138, 0.00264862, 1.57349, 82.1331, 0, 0.000897843, 0.000770758, 0.00150807, 2.1738, 45.2265, 0, 0.00089838, -59.7381, -99.198, -87.4632, -19.921, -62.6262, -53.1322, 4.85572E-05, -0.000678407, -0.000702513, 0.000305633, 0.000305633, 0.000305633
5683, 1,0.00102394, -0.000774546, 0.000524432, 1.33659, -48.5546, 0.00316866, 34.7982, 154.149, 0, 0.000927648, 0.00126955, 0.00253311, 1.69027, 78.2187, 0, 0.000928791, 0.000798645, 0.00156193, 2.05749, 46.7983, 0, 0.000929265, -60.9738, -94.8909, -78.7913, -24.1913, -63.8908, -52.3129, -4.022E-05, -0.000655667, -0.000573001, 0.000239431, 0.000239431, 0.000239431
5684, 1,0.0010154, -0.000638256, 0.000429081, 0.616429, -40.1144, 0.0029351, 13.9522, 167.576, 0, 0.000958368, 0.0012241, 0.00243069, 1.09038, 75.9379, 0, 0.000959794, 0.000808209, 0.00160192, 0.184923, 49.8742, 0, 0.0009602, -61.7964, -93.8104, -72.2068, -33.2115, -65.3513, -51.0597, -9.64958E-05, -0.000672842, -0.000462638, 9.45255E-05, 9.45255E-05, 9.45255E-05
5685, 1,0.000926503, -0.000933709, 0.000628958, 1.44426, -58.6371, 0.00228326, 11.5219, 129.184, 0, 0.000869515, 0.00123485, 0.00244173, 1.69858, 75.6975, 0, 0.00087027, 0.000636036, 0.00123795, 2.2926, 37.4073, 0, 0.000870811, -52.3009, -99.16, -75.6316, -15.2533, -59.7139, -37.2549, 9.0434E-05, -0.000786877, -0.000531539, 0.000267859, 0.000267859, 0.000267859
5686, 1,0.000900007, -0.000792584, 0.000536323, 1.21121, -49.7395, 0.00248413, 20.2932, 129.962, 0, 0.000900809, 0.00115655, 0.00230054, 1.33097, 71.3942, 0, 0.000901666, 0.000678631, 0.00131173, 2.49654, 39.047, 0, 0.000902139, -49.7182, -89.558, -74.9066, -14.8245, -56.3834, -45.933, 8.52922E-05, -0.000659583, -0.000583882, 0.000310691, 0.000310691, 0.000310691
5687, 1,0.000877439, -0.000660911, 0.000448702, 0.901797, -41.371, 0.00254206, 18.436, 136.278, 0, 0.000931834, 0.00109227, 0.00217542, 1.20218, 67.6819, 0, 0.000932872, 0.000688769, 0.00135423, 1.50773, 41.0587, 0, 0.000933275, -51.0367, -84.9093, -67.0997, -19.3842, -57.6093, -46.1825, 1.04371E-06, -0.000625891, -0.000473125, 0.000248241, 0.000248241, 0.000248241
5688, 1,0.000870482, -0.00051826, 0.000348705, 1.11453, -32.5226, 0.00250168, 7.75629, 148.246, 0, 0.000962849, 0.00104113, 0.00206615, 1.61262, 63.8979, 0, 0.000964168, 0.000701942, 0.00139641, 0.756333, 42.9204, 0, 0.000964496, -50.0997, -82.6626, -58.9316, -26.9361, -58.203, -43.622, -3.89735E-05, -0.000642235, -0.000355461, 0.00011784, 0.00011784, 0.00011784
5689, 1,0.000792527, -0.000828844, 0.000558849, 1.72763, -52.0223, 0.00181711, 8.47161, 103.782, 0, 0.000873313, 0.00106466, 0.00209889, 1.87171, 64.7466, 0, 0.000873867, 0.000542274, 0.0010401, 2.81203, 30.828, 0, 0.000874348, -42.1054, -88.3024, -63.832, -9.86849, -52.1998, -30.4157, 0.000130064, -0.000747563, -0.000432842, 0.000275238, 0.000275238, 0.000275238
5690, 1,0.000765961, -0.000683879, 0.000463539, 1.27361, -42.8792, 0.00198763, 11.426, 110.333, 0, 0.000904684, 0.000985444, 0.00195438, 1.34209, 60.5501, 0, 0.000905415, 0.000583453, 0.00111514, 2.71142, 32.7536, 0, 0.000905824, -39.9996, -78.7161, -62.9345, -9.93209, -49.1229, -39.2059, 0.000116669, -0.000616858, -0.000482072, 0.000312312, 0.000312312, 0.000312312
5691, 1,0.000741141, -0.000548197, 0.000373519, 1.03106, -34.2329, 0.0020954, 9.5793, 119.724, 0, 0.000935936, 0.000917135, 0.00182212, 1.26958, 56.4942, 0, 0.000936897, 0.000595529, 0.00115791, 1.84129, 34.662, 0, 0.000937229, -40.8848, -73.7727, -54.8252, -14.2104, -50.3641, -39.4116, 3.7334E-05, -0.000580863, -0.000372958, 0.000255245, 0.000255245, 0.000255245
5692, 1,0.000727408, -0.000400149, 0.000269666, 0.972275, -25.0248, 0.00217021, 3.95157, 132.227, 0, 0.000967207, 0.000859783, 0.00170259, 1.53497, 52.6987, 0, 0.000968456, 0.000596702, 0.00119105, 0.533366, 36.7948, 0, 0.000968706, -39.7729, -71.5068, -46.8164, -21.909, -51.2066, -37.269, 2.6014E-06, -0.000596359, -0.000261243, 0.000127588, 0.000127588, 0.000127588
5693, 1,0.000660497, -0.000724602, 0.000489148, 2.06174, -45.4416, 0.00142207, 8.723, 78.5316, 0, 0.000877163, 0.00089606, 0.00175523, 2.0713, 53.8187, 0, 0.000877514, 0.000450953, 0.000842684, 3.47025, 24.2522, 0, 0.000877935, -32.2766, -76.8646, -52.3149, -4.73735, -44.2339, -23.7855, 0.000162342, -0.000695161, -0.000340254, 0.000277365, 0.000277365, 0.000277365
5694, 1,0.000636276, -0.000575934, 0.000391167, 1.58909, -36.0548, 0.00158255, 7.29307, 90.2041, 0, 0.000908657, 0.000815376, 0.00160871, 1.45498, 49.5749, 0, 0.000909256, 0.000495805, 0.000923334, 3.36936, 26.3214, 0, 0.000909599, -30.2929, -67.2564, -51.1755, -4.94345, -41.3863, -32.6343, 0.000146387, -0.000562896, -0.000387713, 0.000314419, 0.000314419, 0.000314419
5695, 1,0.000607255, -0.00043721, 0.000299646, 1.10649, -27.1759, 0.00173826, 4.97476, 103.191, 0, 0.000940136, 0.000743754, 0.00147136, 1.29761, 45.4593, 0, 0.000941017, 0.000502557, 0.000963707, 2.07739, 28.413, 0, 0.000941277, -31.2225, -62.2275, -42.928, -9.40935, -42.8646, -32.9649, 6.6199E-05, -0.000524287, -0.000279389, 0.000257225, 0.000257225, 0.000257225
5696, 1,0.000590478, -0.000285994, 0.000194738, 1.10799, -17.7152, 0.00190045, 1.68708, 118.098, 0, 0.000971563, 0.000685455, 0.00134856, 1.79525, 41.4189, 0, 0.000972773, 0.000498229, 0.00099405, 0.605337, 30.5774, 0, 0.000972944, -29.6242, -59.8204, -34.812, -16.8904, -43.8506, -30.9913, 3.90165E-05, -0.0005393, -0.000171735, 0.00013565, 0.00013565, 0.00013565
5697, 1,0.000532534, -0.000621112, 0.000419932, 2.6212, -38.9023, 0.00107444, 11.155, 53.3445, 0, 0.000880982, 0.000730517, 0.00141464, 2.42996, 42.8518, 0, 0.000881132, 0.000367464, 0.00065272, 4.57276, 17.6139, 0, 0.000881493, -22.7213, -64.901, -40.9331, 0.244591, -35.8534, -17.2327, 0.000188407, -0.000632426, -0.000251152, 0.000275547, 0.000275547, 0.000275547
5698, 1,0.000509649, -0.000469115, 0.000319436, 2.08657, -29.2832, 0.00123079, 6.1495, 69.5011, 0, 0.000912647, 0.000648636, 0.00126633, 1.73589, 38.6138, 0, 0.000913105, 0.000413514, 0.000737763, 4.31946, 19.8961, 0, 0.000913382, -20.8645, -55.3186, -39.6583, -0.132636, -33.3067, -26.249, 0.00017082, -0.000498873, -0.000298357, 0.000313241, 0.000313241, 0.000313241
5699, 1,0.00047713, -0.000329454, 0.000228555, 1.3691, -20.2681, 0.00143244, 3.1664, 86.3087, 0, 0.000944368, 0.000573618, 0.00112454, 1.49922, 34.4102, 0, 0.000945164, 0.000414604, 0.000774898, 2.5664, 22.1487, 0, 0.000945352, -21.7815, -50.2305, -31.2185, -4.71855, -35.047, -26.6806, 9.05157E-05, -0.000458714, -0.000190036, 0.00025698, 0.00025698, 0.00025698
5700, 1,0.000457849, -0.000182053, 0.000131147, 1.32459, -10.8789, 0.00166105, 0.988109, 104.073, 0, 0.000975851, 0.000517697, 0.00100211, 2.28305, 30.2526, 0, 0.000977021, 0.000403702, 0.000801255, 0.656727, 24.4662, 0, 0.000977113, -19.9159, -47.8366, -23.0053, -12.1648, -36.3267, -24.907, 6.80848E-05, -0.000474364, -8.45981E-05, 0.000139398, 0.000139398, 0.000139398
5701, 1,0.000414297, -0.000518529, 0.000351367, 3.64797, -32.4109, 0.000818431, 18.0521, 28.045, 0, 0.000884756, 0.000572246, 0.00108135, 3.11268, 31.9043, 0, 0.0008847, 0.000302745, 0.000481502, 6.63136, 10.9758, 0, 0.000885001, -13.4659, -52.5918, -29.6552, 5.04252, -27.2247, -10.7453, 0.000208658, -0.000562297, -0.000163947, 0.000270075, 0.000270075, 0.000270075
5702, 1,0.000390655, -0.000364168, 0.000248783, 2.9791, -22.5999, 0.000917478, 7.19846, 48.2868, 0, 0.000916648, 0.000487114, 0.000929402, 2.2839, 27.6495, 0, 0.000916955, 0.000344355, 0.000565365, 5.94905, 13.4624, 0, 0.000917166, -11.6631, -43.0585, -28.2269, 4.54126, -25.0071, -19.9214, 0.000190636, -0.000428343, -0.00021084, 0.000309261, 0.000309261, 0.000309261
5703, 1,0.000353073, -0.000228967, 0.000164573, 1.94816, -13.6986, 0.0011515, 3.02266, 68.7872, 0, 0.000948623, 0.000409962, 0.000784211, 2.04251, 23.3771, 0, 0.000949323, 0.000333374, 0.000593521, 3.39331, 15.9022, 0, 0.000949438, -12.5691, -37.9283, -19.634, -0.162629, -27.0284, -20.5155, 0.000110446, -0.000386834, -0.000102865, 0.000254344, 0.000254344, 0.000254344
5704, 1,0.000331435, -0.000109264, 9.9069E-05, 1.81787, -5.48299, 0.00143713, 1.05793, 89.7217, 0, 0.000980088, 0.000362568, 0.000669109, 3.41613, 19.128, 0, 0.000981211, 0.000312116, 0.000612254, 0.809128, 18.3948, 0, 0.000981223, -10.5274, -35.5571, -11.2994, -7.62088, -28.6128, -18.9508, 9.12092E-05, -0.000403078, 1.45867E-06, 0.000140099, 0.000140099, 0.000140099
5705, 1,0.000319247, -0.000417174, 0.000283758, 5.8151, -25.9827, 0.000855292, 38.9155, 2.70523, 0, 0.00088861, 0.000429257, 0.000763684, 4.51082, 20.9689, 0, 0.000888346, 0.000285105, 0.000357447, 10.9994, 4.33236, 0, 0.000888586, -4.46769, -40.0615, -18.3776, 9.69262, -18.4441, -4.24558, 0.000223875, -0.000487532, -7.65387E-05, 0.000261606, 0.000261606, 0.000261606
5706, 1,0.000292519, -0.000262919, 0.000180622, 4.92767, -16.0912, 0.000660474, 11.1234, 26.8174, 0, 0.000920736, 0.000340396, 0.000607399, 3.56863, 16.6881, 0, 0.000920888, 0.000305167, 0.000423143, 9.11225, 7.02816, 0, 0.000921032, -2.67108, -30.5574, -16.8358, 9.08537, -16.5437, -13.6262, 0.000206227, -0.000352942, -0.000124017, 0.000302684, 0.000302684, 0.000302684
5707, 1,0.000245262, -0.000147423, 0.000120093, 3.33435, -8.01838, 0.000882235, 3.65445, 50.8979, 0, 0.000952897, 0.000264182, 0.000461908, 3.5238, 12.3528, 0, 0.000953493, 0.000268248, 0.000428555, 5.01362, 9.6662, 0, 0.000953535, -3.56521, -25.4231, -8.07009, 4.26579, -18.8748, -14.3896, 0.000126187, -0.000310843, -1.57575E-05, 0.000249257, 0.000249257, 0.000249257
5708, 1,0.000220894, 0.000155207, 0.000124628, 3.10246, 8.93577, 0.00121119, 1.22132, 75.1191, 0, 0.000984307, 0.000250216, 0.000379175, 6.77515, 8.03311, 0, 0.000985379, 0.000225024, 0.000428398, 1.1526, 12.3502, 0, 0.00098531, -1.4131, -23.0865, 0.400299, -3.22488, -20.7772, -13.0486, 0.000108976, -0.000327615, 8.8212E-05, 0.000138075, 0.000138075, 0.000138075
5709, 1,0.000295591, -0.000317759, 0.000217818, 11.4331, -19.654, 0.00150606, 88.5884, -22.6397, 0, 0.00089241, 0.000331022, 0.000491112, 8.02753, 10.0542, 0, 0.000891936, 0.00037132, 0.000337321, 20.1728, -2.31067, 0, 0.000892115, 4.29045, -27.4077, -7.0454, 14.2084, -9.57957, 2.30313, 0.000234528, -0.000409989, 1.2321E-05, 0.000250482, 0.000250482, 0.000250482
5710, 1,0.000266097, -0.000170993, 0.000122226, 10.4535, -10.0272, 0.000598252, 24.4917, 5.25798, 0, 0.000924723, 0.000252349, 0.000344229, 7.75829, 5.72532, 0, 0.000924716, 0.000335547, 0.000350592, 15.7421, 0.587104, 0, 0.000924793, 6.1414, -17.9102, -5.4071, 13.5237, -7.98224, -7.30281, 0.000218065, -0.000274666, -3.62935E-05, 0.000293829, 0.000293829, 0.000293829
5711, 1,0.000208112, 0.000128627, 0.000118138, 8.23087, 6.85453, 0.000630101, 5.12876, 32.9598, 0, 0.000957133, 0.000221949, 0.000243136, 10.1757, 1.33087, 0, 0.000957624, 0.00024687, 0.000307613, 8.84579, 3.43519, 0, 0.000957592, 5.25648, -12.7902, 3.54114, 8.58364, -10.6349, -8.25431, 0.000138073, -0.000232338, 7.26505E-05, 0.000241882, 0.000241882, 0.000241882
5712, 1,0.000184726, 0.00025647, 0.000185095, 8.04776, 15.6039, 0.000986923, 1.54458, 60.3703, 0, 0.000988421, 0.00034684, 0.000298559, 19.8879, -3.03563, 0, 0.000989439, 0.000151427, 0.000258518, 2.07449, 6.33013, 0, 0.000989288, 7.44283, -10.5192, 12.1833, 1.02844, -12.8805, -7.13832, 0.000121535, -0.000249835, 0.000177434, 0.000133277, 0.000133277, 0.000133277
5713, 1,0.000451558, -0.000222097, 0.000155445, 25.4435, -13.5159, 0.00252629, 155.537, -47.9004, 0, 0.000896303, 0.000389512, 0.000375673, 19.011, -0.837634, 0, 0.000895619, 0.000575844, 0.000435575, 34.6765, -8.95359, 0, 0.000895737, 12.8345, -14.7283, 4.40668, 18.6121, -0.700723, 8.9494, 0.000241159, -0.00033157, 0.000103953, 0.000237121, 0.000237121, 0.000237121
5714, 1,0.000434645, -0.000106085, 9.32441E-05, 25.2295, -5.25929, 0.00109596, 64.3512, -16.2552, 0, 0.000928829, 0.000417758, 0.00033461, 24.0438, -5.23371, 0, 0.000928663, 0.000477085, 0.000389251, 27.5908, -5.85528, 0, 0.000928673, 14.7943, -5.20615, 6.11301, 17.8675, 0.612702, -0.914416, 0.000226559, -0.000195206, 5.3529E-05, 0.000282922, 0.000282922, 0.000282922
5715, 1,0.000404297, 0.000208011, 0.000159249, 24.2644, 12.4129, 0.000439495, 9.51999, 15.0518, 0, 0.000961277, 0.000544567, 0.000389152, 33.6517, -9.69367, 0, 0.000961663, 0.000330377, 0.000291685, 17.9067, -2.79979, 0, 0.000961555, 13.9219, -0.109917, 15.2691, 12.8147, -2.36022, -2.05512, 0.000146329, -0.00015298, 0.000163878, 0.000232341, 0.000232341, 0.000232341
5716, 1,0.00040659, 0.000369105, 0.000256842, 24.927, 22.834, 0.000772242, 2.11392, 45.9019, 0, 0.000992738, 0.000756248, 0.000530761, 47.049, -14.1029, 0, 0.000993705, 0.000143286, 0.000154459, 6.2088, 0.321473, 0, 0.000993472, 16.0751, 2.09658, 24.1371, 5.15991, -4.95648, -1.16785, 0.000128987, -0.000171159, 0.000270842, 0.000125715, 0.000125715, 0.000125715
5717, 1,0.000770827, -0.000136002, 0.000102646, 46.9701, -7.86082, 0.00364354, 226.904, -72.905, 0, 0.000900129, 0.000717006, 0.000529648, 42.6761, -11.7044, 0, 0.000899235, 0.000842512, 0.000596012, 52.0578, -15.5974, 0, 0.000899292, 21.1829, -2.11105, 16.0413, 22.9191, 8.13044, 15.7427, 0.000244183, -0.000253878, 0.000199514, 0.000221812, 0.000221812, 0.000221812
5718, 1,0.000767547, 0.000137161, 0.000113594, 47.482, 7.97448, 0.00198435, 122.339, -37.6527, 0, 0.000932873, 0.000848908, 0.000590671, 52.5916, -16.205, 0, 0.000932548, 0.000705878, 0.000515098, 43.3418, -12.3179, 0, 0.000932489, 23.3333, 7.48998, 17.7916, 22.1574, 9.201, 5.59547, 0.000232339, -0.000116013, 0.000146529, 0.000270428, 0.000270428, 0.000270428
5719, 1,0.000762092, 0.000307426, 0.000220126, 47.6431, 18.9279, 0.000568602, 29.2662, -2.89334, 0, 0.000965411, 0.00103251, 0.000700234, 64.783, -20.7186, 0, 0.00096569, 0.000532199, 0.000394037, 32.4365, -9.03364, 0, 0.000965507, 22.4435, 12.5413, 27.1708, 16.9609, 5.89458, 4.24545, 0.000151087, -7.42702E-05, 0.000259255, 0.000220582, 0.000220582, 0.000220582
5720, 1,0.000773104, 0.000485625, 0.000332465, 48.4964, 30.2511, 0.000574197, 3.06733, 31.9087, 0, 0.00099677, 0.00125139, 0.000848672, 78.4531, -25.1652, 0, 0.000997693, 0.000317153, 0.000232428, 19.4418, -5.68859, 0, 0.000997378, 24.4963, 14.6852, 36.314, 9.19609, 2.9537, 4.91598, 0.000131349, -9.29971E-05, 0.000369773, 0.000115438, 0.000115438, 0.000115438
5721, 1,0.00114872, 7.9319E-05, 7.92816E-05, 71.2179, 3.86142, 0.00477065, 298.191, -97.1513, 0, 0.000904036, 0.00117101, 0.000810519, 72.1912, -22.5192, 0, 0.000902942, 0.00113409, 0.00078117, 70.6186, -22.2202, 0, 0.000902937, 29.357, 10.3307, 27.8701, 27.1472, 16.8308, 22.6826, 0.000244481, -0.000178591, 0.000299364, 0.000205271, 0.000205271, 0.000205271
5722, 1,0.00115248, 0.000225267, 0.00016525, 72.0733, 13.8533, 0.00297099, 184.71, -58.7776, 0, 0.000936938, 0.00134418, 0.000910907, 84.077, -27.1435, 0, 0.000936457, 0.000975998, 0.000682047, 60.8871, -18.7593, 0, 0.000936329, 31.7309, 20.0435, 29.656, 26.3588, 17.6774, 12.2416, 0.000235495, -3.9067E-05, 0.000243869, 0.000256235, 0.000256235, 0.000256235
5723, 1,0.00115671, 0.000414339, 0.000288342, 72.7016, 25.8018, 0.00125839, 75.5393, -20.9415, 0, 0.000969558, 0.00154716, 0.00103752, 97.2452, -31.7835, 0, 0.000969729, 0.000791093, 0.0005532, 49.4484, -15.3022, 0, 0.00096947, 30.8932, 25.1235, 39.3338, 21.0792, 14.1097, 10.7176, 0.000153243, 2.41279E-06, 0.00035991, 0.000207238, 0.000207238, 0.000207238
5724, 1,0.00116651, 0.000603902, 0.000409815, 73.3511, 37.7557, 0.000413218, 6.0131, 17.4655, 0, 0.00100098, 0.00176564, 0.00118522, 110.85, -36.2178, 0, 0.00100185, 0.000577571, 0.000396885, 36.3978, -11.6815, 0, 0.00100145, 32.697, 27.1826, 48.7738, 13.1058, 10.7924, 11.1462, 0.000128557, -1.65312E-05, 0.000475397, 0.000102128, 0.000102128, 0.000102128
5725, 1,0.00154557, 0.000138556, 0.000105091, 96.4333, 8.30388, 0.00584754, 366.442, -120.495, 0, 0.000907907, 0.0016594, 0.00112607, 103.35, -33.4393, 0, 0.000906625, 0.00143654, 0.000977461, 89.7872, -28.9814, 0, 0.00090656, 37.3854, 22.6221, 40.3105, 31.3201, 25.4396, 30.1846, 0.000240345, -0.000107076, 0.000409127, 0.000185622, 0.000185622, 0.000185622
5726, 1,0.00155306, 0.000323838, 0.000227455, 97.4431, 20.2214, 0.00398363, 247.976, -79.4618, 0, 0.000940919, 0.00185411, 0.00124534, 116.302, -38.189, 0, 0.000940289, 0.00126375, 0.000866443, 79.2758, -25.3168, 0, 0.000940092, 40.2251, 32.5377, 41.8041, 30.7021, 26.13, 19.1183, 0.000238745, 3.54463E-05, 0.000345283, 0.00024292, 0.00024292, 0.00024292
5727, 1,0.00156376, 0.000524445, 0.000359654, 98.2618, 32.8274, 0.00214495, 131.23, -39.3618, 0, 0.000973625, 0.00207131, 0.001384, 130.108, -42.7707, 0, 0.000973678, 0.00107283, 0.000734946, 67.3716, -21.4911, 0, 0.000973342, 39.122, 37.4706, 51.7194, 25.0157, 22.1514, 17.3062, 0.000151495, 7.53475E-05, 0.000466955, 0.000190854, 0.000190854, 0.000190854
5728, 1,0.00156689, 0.00072339, 0.000488195, 98.6117, 45.3255, 0.000478054, 20.8301, 1.62153, 0, 0.00100515, 0.00228635, 0.00152809, 143.663, -47.357, 0, 0.00100595, 0.000854224, 0.000577396, 54.0304, -17.7413, 0, 0.00100547, 40.8058, 39.5708, 61.6945, 17.0003, 18.5587, 17.6649, 0.000121934, 5.61077E-05, 0.000590081, 8.69498E-05, 8.69498E-05, 8.69498E-05
5729, 1,0.00196302, 0.000223302, 0.000156612, 122.298, 13.9001, 0.00681629, 425.683, -138.591, 0, 0.000911751, 0.00217185, 0.00146043, 135.292, -44.0081, 0, 0.000910353, 0.00175787, 0.00118591, 109.539, -35.4248, 0, 0.000910226, 45.2675, 34.0843, 52.6725, 35.4138, 33.3411, 37.5195, 0.000239109, -4.56993E-05, 0.000520427, 0.000169652, 0.000169652, 0.000169652
5730, 1,0.00196628, 0.000426318, 0.000293594, 122.925, 26.7683, 0.00502341, 311.539, -98.8176, 0, 0.000944957, 0.00237567, 0.00159289, 148.589, -48.6243, 0, 0.000944188, 0.00156618, 0.00106639, 97.8627, -31.2739, 0, 0.000943922, 47.9878, 44.2835, 53.6016, 34.3236, 33.9447, 25.5534, 0.00023585, 0.000104041, 0.000448859, 0.000223496, 0.000223496, 0.000223496
5731, 1,0.0019757, 0.000636242, 0.000432452, 124.362, 39.9348, 0.00310576, 191.347, -59.0562, 0, 0.0009778, 0.00259969, 0.00173374, 163.498, -54.1916, 0, 0.000977723, 0.00136332, 0.000923237, 85.9771, -28.1075, 0, 0.000977309, 47.5256, 49.8817, 65.1676, 29.1737, 30.327, 24.8218, 0.000146071, 0.000142594, 0.000590403, 0.000171906, 0.000171906, 0.000171906
5732, 1,0.00196847, 0.000843258, 0.000566986, 123.83, 52.913, 0.00110209, 63.8403, -15.815, 0, 0.00100933, 0.00280809, 0.001873, 176.439, -58.3358, 0, 0.00101003, 0.00113437, 0.000762659, 71.6771, -23.6403, 0, 0.00100946, 48.6602, 51.5795, 74.7678, 20.7169, 26.0173, 24.1868, 0.000111765, 0.000122998, 0.000711455, 6.98892E-05, 6.98892E-05, 6.98892E-05
5733, 1,0.00234224, 0.000313273, 0.000213934, 146.178, 19.7155, 0.00787976, 459.437, -149.228, 0.0103091, 0.000915474, 0.00264596, 0.00177178, 165.216, -54.5459, 0, 0.000914055, 0.00204145, 0.00137276, 127.353, -41.8745, 0, 0.000913868, 53.8064, 44.6964, 65.1349, 40.2935, 40.3108, 45.0193, 0.000253202, -4.21234E-06, 0.000635779, 0.000171099, 0.000171099, 0.000171099
5734, 1,0.00241694, 0.000530342, 0.000361028, 151.953, 33.3842, 0.0061137, 380.585, -122.332, 0, 0.00094898, 0.00293512, 0.00195673, 184.456, -61.5916, 0, 0.000948045, 0.00190564, 0.00128164, 119.947, -39.7706, 0, 0.00094771, 57.5941, 57.7527, 69.4279, 39.8211, 43.639, 35.8517, 0.000232008, 0.000169105, 0.000598, 0.00020365, 0.00020365, 0.00020365
5735, 1,0.00237985, 0.000748749, 0.000506062, 149.481, 47.0772, 0.00412472, 254.094, -78.5915, 0, 0.000981841, 0.00311891, 0.00208204, 195.85, -64.792, 0, 0.000981622, 0.0016497, 0.00111462, 103.762, -33.8925, 0, 0.00098113, 55.393, 61.173, 77.8099, 32.8024, 37.4489, 31.4263, 0.0001413, 0.000199267, 0.00071045, 0.000153945, 0.000153945, 0.000153945
5736, 1,0.00237148, 0.000963867, 0.000646263, 149.301, 60.5416, 0.00199154, 120.288, -34.9146, 0, 0.00101355, 0.00333188, 0.00221999, 209.512, -69.5395, 0, 0.00101412, 0.00141587, 0.00094888, 89.5433, -29.7462, 0, 0.00101346, 56.4084, 63.5629, 88.6471, 24.3941, 33.5333, 31.3112, 9.49616E-05, 0.00018531, 0.000847688, 4.79437E-05, 4.79437E-05, 4.79437E-05
5737, 1,0.00285183, 0.000407832, 0.000275361, 177.42, 25.7602, 0.00973106, 464.903, -154.619, 0.0465282, 0.00091928, 0.00325143, 0.00217486, 202.544, -66.6424, 0, 0.000917907, 0.00245495, 0.00164722, 152.512, -49.9097, 0, 0.000917658, 62.7022, 56.3511, 80.8739, 45.3613, 48.9516, 55.4161, 0.000248586, 2.32664E-05, 0.000809174, 0.000150306, 0.000150306, 0.000150306
5738, 1,0.00276178, 0.000634267, 0.000428875, 171.611, 39.9919, 0.00722176, 441.329, -133.492, 0, 0.000952895, 0.00338601, 0.0022701, 210.804, -68.7034, 0, 0.000951893, 0.00214354, 0.00144933, 132.899, -42.4198, 0, 0.000951488, 62.7939, 64.7558, 78.5604, 41.0362, 46.7406, 39.4825, 0.000228045, 0.000188165, 0.000698247, 0.000186091, 0.000186091, 0.000186091
5739, 1,0.00282683, 0.000862174, 0.000580102, 177.878, 54.2587, 0.00523918, 322.57, -99.8004, 0, 0.000986026, 0.00368217, 0.00245565, 231.553, -77.1825, 0, 0.000985665, 0.00197754, 0.0013288, 124.721, -41.4693, 0, 0.000985094, 63.9521, 73.581, 94.0144, 37.1343, 45.9164, 41.3572, 0.000121916, 0.000251367, 0.000878725, 0.000121571, 0.000121571, 0.000121571
5740, 1,0.00275533, 0.00108456, 0.000725658, 173.714, 68.1794, 0.00297701, 183.899, -57.7942, 0, 0.00101782, 0.00383642, 0.00255567, 241.534, -80.4414, 0, 0.00101819, 0.00167877, 0.00112283, 106.363, -35.5283, 0, 0.00101745, 64.2806, 74.7019, 102.342, 28.2503, 40.267, 38.0675, 8.41778E-05, 0.000234935, 0.000985689, 3.35856E-05, 3.35856E-05, 3.35856E-05
5741, 1,0.00323386, 0.000500805, 0.000335132, 200.612, 31.7256, 0.0120332, 465.147, -152.049, 0.0912224, 0.000922934, 0.00372868, 0.00250273, 231.801, -75.9683, 1.69407E-21, 0.000921673, 0.00274124, 0.00184406, 169.625, -55.2007, 1.69407E-21, 0.000921363, 67.6691, 65.8309, 94.4051, 46.9026, 55.0474, 63.6522, 0.000197283, 4.53616E-05, 0.000989629, 9.12772E-05, 9.12772E-05, 9.12772E-05
5742, 1,0.00329567, 0.000736361, 0.000496303, 206.794, 46.5243, 0.00945191, 458.456, -144.862, 0.0408334, 0.000956854, 0.00402318, 0.00267641, 252.541, -84.8533, 0, 0.00095587, 0.00257328, 0.00172099, 161.501, -54.1135, 0, 0.000955393, 79.2444, 79.4265, 95.889, 53.1752, 57.9899, 51.1754, 0.000315159, 0.000217419, 0.000843854, 0.000252903, 0.000252903, 0.000252903
5743, 1,0.00319326, 0.000975842, 0.000653954, 200.691, 61.459, 0.00659798, 402.837, -121.363, 0, 0.000990097, 0.00416503, 0.00277615, 261.703, -87.4777, 0, 0.000989553, 0.00222509, 0.00148919, 140.077, -46.934, 0, 0.000988902, 69.6795, 83.491, 109.263, 38.864, 51.7373, 50.2007, 7.55752E-05, 0.000280523, 0.00106289, 6.72364E-05, 6.72364E-05, 6.72364E-05
5744, 1,0.00315414, 0.0012045, 0.000804672, 198.757, 75.7762, 0.00411893, 248.783, -72.6336, 0, 0.00102194, 0.00435537, 0.00290277, 274.157, -91.3147, 0, 0.00102225, 0.001957, 0.00130991, 123.822, -41.2997, 0, 0.00102142, 72.4477, 85.3294, 116.167, 32.4256, 46.6553, 44.8183, 7.8506E-05, 0.000271854, 0.00113081, 2.44965E-05, 2.44965E-05, 2.44965E-05
5745, 1,0.00370596, 0.00060013, 0.000401884, 229.22, 38.0096, 0.0156948, 469.159, -155.084, 0.162551, 0.000926674, 0.00429774, 0.00288579, 266.459, -85.8063, 0, 0.000925401, 0.00311735, 0.00210318, 192.281, -60.9997, 0, 0.000925028, 75.2277, 77.589, 104.602, 50.5326, 64.3077, 68.1589, 0.000192974, 9.75473E-05, 0.00110137, 6.88693E-05, 6.88693E-05, 6.88693E-05
5746, 1,0.00361488, 0.000841236, 0.000562839, 223.406, 53.2031, 0.0124231, 461.662, -146.136, 0.098743, 0.000960639, 0.00445257, 0.00299237, 276.125, -90.248, 0, 0.000959636, 0.00277932, 0.00187742, 170.983, -55.0541, 0, 0.000959088, 78.2177, 82.5062, 110.02, 48.5903, 57.3463, 59.2258, 0.000201747, 0.000161062, 0.00110107, 0.000135296, 0.000135296, 0.000135296
5747, 1,0.00356685, 0.00108814, 0.000728935, 222.844, 68.62, 0.00943005, 452.358, -137.007, 0.040454, 0.00099416, 0.00464909, 0.00310334, 290.824, -96.3987, 2.71051E-20, 0.000993454, 0.00248976, 0.00166359, 155.428, -51.0503, 2.71051E-20, 0.000992723, 80.9366, 92.6179, 115.642, 45.8951, 57.0918, 50.1641, 0.00016997, 0.000296302, 0.00109738, 0.000148375, 0.000148375, 0.000148375
5748, 1,0.00362172, 0.00132472, 0.00088306, 227.917, 83.4523, 0.00695095, 305.439, -98.9055, 0.0418697, 0.00102622, 0.00494398, 0.00330287, 311.007, -103.596, 3.38813E-21, 0.00102626, 0.00230231, 0.00154482, 145.251, -48.4378, 3.38813E-21, 0.00102534, 79.3238, 97.3553, 134.11, 35.3165, 54.7372, 55.2598, 2.78034E-05, 0.000293683, 0.00135889, -2.87924E-05, -2.87924E-05, -2.87924E-05
5749, 1,0.00417791, 0.000687411, 0.000458071, 262.361, 43.803, 0.0235818, 472.989, -155.131, 0.313637, 0.000930582, 0.00486149, 0.00323575, 305.621, -103.766, 0, 0.000929311, 0.00349583, 0.00232872, 219.323, -74.9145, 0, 0.000928876, 91.8834, 89.4457, 129.969, 63.6453, 73.0257, 88.0725, 0.00025745, -1.44966E-05, 0.00144033, 0.000124033, 0.000124033, 0.000124033
5750, 1,0.00401936, 0.00094933, 0.000633531, 248.47, 60.0845, 0.0179073, 466.243, -148.44, 0.205002, 0.000964584, 0.00496505, 0.00333557, 307.953, -100.96, 0, 0.000963542, 0.00307593, 0.00208044, 189.371, -61.3137, 0, 0.000962922, 82.3671, 97.0739, 123.438, 48.6926, 68.6278, 66.6208, 0.000118309, 0.000236361, 0.00128294, 3.74831E-05, 3.74831E-05, 3.74831E-05
5751, 1,0.00403658, 0.00120293, 0.000803587, 254.574, 75.9409, 0.0142642, 474.398, -165.469, 0.135581, 0.000998599, 0.00523559, 0.00347821, 329.905, -112.299, 0, 0.000997519, 0.0028409, 0.00188589, 179.77, -62.1315, 0, 0.000996707, 91.4587, 108.534, 136.905, 52.3604, 69.6343, 64.4, 0.000139834, 0.000324283, 0.00135744, 0.000109167, 0.000109167, 0.000109167
5752, 1,0.00394142, 0.00144065, 0.000960009, 246.994, 90.9232, 0.0112485, 350.166, -115.888, 0.114721, 0.0010305, 0.005381, 0.00359278, 337.594, -111.686, 0, 0.0010303, 0.00250305, 0.0016823, 156.769, -51.4714, 0, 0.00102929, 86.927, 101.475, 146.655, 39.166, 54.8751, 60.3731, 6.20332E-05, 0.000201602, 0.00154791, 6.53608E-06, 6.53608E-06, 6.53608E-06
5753, 1,0.00463895, 0.000781462, 0.000522944, 287.053, 50.0653, 0.0435695, 481.211, -155.594, 0.677406, 0.000935073, 0.00541723, 0.00361566, 336.558, -112.317, 0, 0.000932984, 0.00386195, 0.00258991, 237.785, -79.3349, 0, 0.000932485, 97.7824, 94.4971, 144.672, 65.8692, 75.4906, 96.6449, 0.000220739, -0.000188527, 0.00178974, 7.89245E-05, 7.89245E-05, 7.89245E-05
5754, 1,0.00465467, 0.00105407, 0.00070377, 286.505, 67.0007, 0.0342559, 480.918, -161.935, 0.513755, 0.000969198, 0.00570681, 0.003836, 352.841, -115.631, 0, 0.000967448, 0.00360364, 0.00243383, 220.576, -71.5183, 0, 0.000966755, 92.4977, 111.228, 143.166, 54.6158, 80.201, 79.7382, 0.000103154, 0.000136371, 0.00163601, 7.08472E-06, 7.08472E-06, 7.08472E-06
5755, 1,0.00433092, 0.00130686, 0.00087392, 268.822, 82.8565, 0.0250494, 473.11, -156.381, 0.343129, 0.00100257, 0.00563767, 0.00377888, 351.328, -117.418, 0, 0.00100133, 0.00302428, 0.00204852, 186.628, -62.6132, 0, 0.00100044, 93.3042, 107.264, 151.686, 50.9947, 64.6426, 72.2024, 0.000121112, 7.70258E-05, 0.00170634, 9.65022E-05, 9.65022E-05, 9.65022E-05
5756, 1,0.00440645, 0.00155028, 0.00103405, 282.426, 98.2421, 0.0200996, 388.052, -135.008, 0.280475, 0.00103494, 0.00595659, 0.00394361, 380.363, -133.136, 0, 0.00103449, 0.00285647, 0.00188567, 184.835, -67.8217, 0, 0.0010334, 107.98, 120.013, 171.417, 56.2579, 69.6544, 77.5528, 0.000185954, 0.000144721, 0.00182879, 0.00012822, 0.00012822, 0.00012822
5757, 1,0.00506372, 0.000877374, 0.000589398, 316.165, 56.7053, 0.0645199, 538.002, -202.233, 1, 0.00094179, 0.00593689, 0.00398961, 372.162, -123.44, 0, 0.000936697, 0.00419234, 0.00284332, 260.473, -86.1892, 0, 0.000936131, 103.631, 103.689, 163, 67.969, 82.5004, 108.098, 0.000211046, -0.000394629, 0.00218583, 6.22711E-05, 6.22711E-05, 6.22711E-05
5758, 1,0.00495256, 0.00115173, 0.00077224, 308.325, 73.9442, 0.0567425, 518.901, -210.258, 0.901229, 0.000975962, 0.00610386, 0.00406657, 381.732, -131.247, 0, 0.000971353, 0.00380151, 0.00255305, 235.268, -82.4092, 0, 0.000970584, 111.916, 119.257, 162.568, 70.2613, 84.5923, 92.3742, 0.000324748, -0.000203841, 0.00200798, 0.000225955, 0.000225955, 0.000225955
5759, 1,0.00506993, 0.00141853, 0.000951257, 307.784, 89.8875, 0.0477732, 505.702, -196.595, 0.756957, 0.00100877, 0.00648836, 0.00435712, 397.099, -128.919, 0.000526355, 0.00100531, 0.00365158, 0.00248459, 218.932, -69.7579, 0.000168716, 0.00100435, 98.6628, 120.955, 167.139, 52.4982, 76.4474, 80.3282, 0.000105767, -9.06393E-05, 0.00207652, 7.19845E-05, 7.19845E-05, 7.19845E-05
5760, 1,0.00486778, 0.00166451, 0.00111239, 301.749, 105.747, 0.0410764, 403.012, -137.364, 0.672436, 0.00103973, 0.00653203, 0.00436144, 406.959, -133.49, 0, 0.00103828, 0.00320378, 0.00215106, 197.112, -63.8663, 0, 0.00103711, 101.287, 124.331, 174.852, 46.7675, 71.6604, 73.1712, 7.24334E-05, -2.03588E-05, 0.00211303, 2.61807E-05, 2.61807E-05, 2.61807E-05
5761, 1,0.00532691, 0.000977079, 0.000656724, 340.242, 63.3402, 0.0703445, 674.38, -221.809, 1, 0.00094583, 0.00630095, 0.00416298, 402.94, -140.223, 0, 0.000940295, 0.00435425, 0.00288034, 277.847, -98.4889, 0, 0.000939659, 117.752, 118.444, 184.475, 78.1786, 94.3117, 122.976, 0.000328271, -0.000455224, 0.0024013, 0.000167397, 0.000167397, 0.000167397
5762, 1,0.00525019, 0.00127476, 0.000854572, 326.864, 81.9918, 0.0676068, 613.4, -214.322, 1, 0.000980495, 0.00652463, 0.00436501, 407.955, -133.164, 0, 0.000974914, 0.00397596, 0.00268007, 246.364, -79.2211, 0, 0.000974061, 110.761, 125.541, 163.19, 64.4515, 88.2582, 84.9536, 0.000319198, -0.000241562, 0.00208215, 0.000206246, 0.000206246, 0.000206246
5763, 1,0.00553267, 0.00155073, 0.00104238, 325.696, 96.4972, 0.0658435, 579.124, -217.565, 1, 0.00101489, 0.00708281, 0.0047738, 421.445, -139.868, 0.00737995, 0.00100911, 0.00398299, 0.00270497, 230.578, -76.097, 0.00582387, 0.00100806, 103.845, 134.319, 181.44, 54.2812, 86.7102, 87.2997, 2.444E-05, -0.000155985, 0.00240954, 1.84868E-06, 1.84868E-06, 1.84868E-06
5764, 1,0.00560979, 0.00179114, 0.00119933, 337.038, 111.907, 0.0612713, 449.404, -174.192, 1, 0.0010464, 0.0073986, 0.00499454, 448.425, -147.173, 0.00469096, 0.00104222, 0.00382314, 0.00260073, 226.164, -72.6225, 0.00309613, 0.00104096, 108.655, 135.708, 197.156, 50.3973, 80.1076, 87.3626, 1.24228E-05, -0.000185057, 0.00256597, -2.22539E-05, -2.22539E-05, -2.22539E-05
5765, 1,0.00592779, 0.00110035, 0.00074016, 365.985, 70.9033, 0.075385, 816.606, -271.572, 1, 0.000950861, 0.00702529, 0.00473152, 436.14, -139.538, 0, 0.00094356, 0.00483159, 0.00327081, 296.179, -92.9009, 0, 0.000942847, 117.758, 111.198, 189.657, 73.2266, 85.5674, 119.909, 0.000284067, -0.000596507, 0.00257543, 9.55812E-05, 9.55812E-05, 9.55812E-05
5766, 1,0.00596247, 0.00140834, 0.00094734, 348.127, 89.359, 0.0724141, 736.843, -247.121, 1, 0.000985235, 0.00737077, 0.00500971, 436.516, -140.81, 0.00787873, 0.00097858, 0.00455421, 0.00311612, 260.399, -82.4376, 0.00787873, 0.000977649, 119.081, 131.838, 171.511, 68.4461, 91.984, 86.8827, 0.000295681, -0.000227759, 0.00222576, 0.000159956, 0.000159956, 0.000159956
5767, 1,0.00603565, 0.0016836, 0.00113461, 330.862, 103.635, 0.069982, 663.91, -217.255, 1, 0.00101858, 0.00771914, 0.00530615, 433.734, -136.985, 0.0148941, 0.00101276, 0.00435223, 0.0030376, 228.666, -69.2056, 0.0133349, 0.00101164, 99.7557, 131.338, 179.863, 47.7911, 81.0098, 78.8158, -0.000100525, -0.000171676, 0.00251241, -0.000110163, -0.000110163, -0.000110163
5768, 1,0.00597961, 0.00192348, 0.00129713, 346.104, 116.019, 0.0650842, 526.082, -170.211, 1, 0.00104987, 0.00789642, 0.00534586, 461.773, -154.778, 0.0118192, 0.00104597, 0.00406904, 0.00276734, 230.802, -78.9368, 0.00834196, 0.00104467, 106.235, 139.773, 218.324, 49.4239, 83.0178, 104.369, -0.000257487, -0.000237698, 0.00302217, -0.000233766, -0.000233766, -0.000233766
5769, 1,0.00689603, 0.00125571, 0.00084652, 378.595, 78.9828, 0.0803944, 953.884, -316.09, 1, 0.000955523, 0.00814848, 0.00554459, 456.608, -152.364, 0.0179595, 0.000946859, 0.005645, 0.00385898, 301.096, -100.825, 0.0179595, 0.00094606, 135.495, 124.649, 196.947, 85.6997, 96.8465, 119.93, 0.000372469, -0.000632763, 0.00275614, 0.000131318, 0.000131318, 0.000131318
5770, 1,0.00722292, 0.00157215, 0.00106348, 348.005, 96.4977, 0.0769187, 853.307, -278.87, 1, 0.000990221, 0.00879033, 0.00612575, 443.434, -140.887, 0.0333716, 0.000982419, 0.00565809, 0.00400715, 253.38, -78.6429, 0.0333716, 0.000981409, 116.342, 135.215, 171.106, 62.2551, 91.8708, 81.8029, 8.44425E-05, -0.000208416, 0.002452, -8.25839E-05, -8.25839E-05, -8.25839E-05
5771, 1,0.00730331, 0.00185169, 0.00125459, 345.453, 111.099, 0.072952, 746.828, -246.477, 1, 0.00102358, 0.00915236, 0.00631307, 455.763, -148.682, 0.0380993, 0.00101686, 0.005456, 0.00381692, 235.901, -77.5999, 0.0367679, 0.00101566, 105.172, 144.149, 196.725, 52.3164, 90.4286, 90.0548, -0.000389686, -0.000117645, 0.00297097, -0.000389985, -0.000389985, -0.000389985
5772, 1,0.00753651, 0.00217415, 0.00148087, 344.311, 116.519, 0.06729, 594.421, -200.341, 1, 0.00105482, 0.0096996, 0.00672976, 460.583, -150.896, 0.0466564, 0.00104972, 0.00538201, 0.00379843, 228.29, -73.281, 0.0344206, 0.00104836, 96.2191, 130.524, 225.947, 39.2097, 72.0056, 108.628, -0.000785314, -0.000507403, 0.00380547, -0.000713713, -0.000713713, -0.000713713
5773, 1,0.00958266, 0.00145385, 0.000981574, 367.346, 86.4329, 0.0849385, 1079.27, -356.152, 1, 0.000960413, 0.0110166, 0.00771844, 452.951, -146.8, 0.0756889, 0.000950296, 0.00815546, 0.00578477, 282.235, -89.873, 0.0756889, 0.00094938, 139.241, 109.642, 191.518, 82.1267, 79.3927, 108.1, 0.000389345, -0.00120321, 0.00329904, 3.13968E-05, 3.13968E-05, 3.13968E-05
5774, 1,0.00928784, 0.00177095, 0.00121211, 350.659, 104.721, 0.0810257, 967.829, -316.252, 1, 0.000995412, 0.0110492, 0.007742, 454.806, -152.93, 0.0784018, 0.000986477, 0.00753072, 0.00534008, 247.012, -85.645, 0.0784018, 0.000985351, 133.479, 133.574, 191.735, 73.7854, 86.3645, 96.7852, 4.81899E-05, -0.000607258, 0.00315235, -0.00017367, -0.00017367, -0.00017367
5775, 1,0.00962973, 0.00212217, 0.00146475, 346.384, 113.694, 0.0761415, 831.468, -269.44, 1, 0.0010283, 0.0117465, 0.00822873, 459.652, -149.751, 0.0893332, 0.00102078, 0.00751579, 0.00535345, 233.53, -76.1757, 0.0809766, 0.00101949, 105.851, 136.031, 207.371, 51.7216, 79.2243, 97.5813, -0.00083584, -0.000434662, 0.00382643, -0.000792818, -0.000792818, -0.000792818
5776, 1,0.010152, 0.00250831, 0.00173545, 354.416, 116.341, 0.0696687, 661.113, -222.356, 1, 0.00105956, 0.0126383, 0.00889612, 470.671, -166.24, 0.10468, 0.00105396, 0.00767969, 0.00547593, 238.249, -88.0513, 0.0810729, 0.00105252, 112.481, 129.024, 257.215, 55.7493, 72.6497, 135.755, -0.00126428, -0.00123773, 0.00536534, -0.00115369, -0.00115369, -0.00115369
5777, 1,0.0129709, 0.00168111, 0.00114981, 368.129, 94.3239, 0.0887501, 1186.11, -392.276, 1, 0.000964205, 0.0146094, 0.0104164, 461.94, -159.65, 0.146912, 0.000953102, 0.0113441, 0.00819433, 274.676, -96.8356, 0.146912, 0.000952045, 159.465, 106.634, 212.851, 94.32, 75.0596, 121.127, 0.000562421, -0.00212431, 0.00438182, 6.92727E-05, 6.92727E-05, 6.92727E-05
5778, 1,0.0139714, 0.00207126, 0.00144453, 350.302, 111.456, 0.0849833, 1084.32, -360.983, 1, 0.000998931, 0.0160063, 0.0113681, 461.396, -154.506, 0.175494, 0.000988522, 0.0119475, 0.00876809, 239.545, -81.657, 0.173721, 0.000987226, 149.335, 120.592, 193.589, 79.2875, 71.0182, 94.6652, 0.000329528, -0.00142363, 0.00387164, -1.11434E-06, -1.11434E-06, -1.11434E-06
5779, 1,0.0140575, 0.00255119, 0.00178982, 352.063, 114.829, 0.078866, 917.108, -306.951, 1, 0.00103177, 0.0165923, 0.0118995, 466.721, -159.718, 0.18451, 0.00102316, 0.0115294, 0.00854679, 237.567, -83.33, 0.163764, 0.00102173, 115.207, 124.81, 239.137, 58.1192, 69.8231, 122.048, -0.00161698, -0.00148681, 0.00599146, -0.00159267, -0.00159267, -0.00159267
5780, 1,0.0136739, 0.00295721, 0.00208436, 350.224, 116.712, 0.070778, 694.92, -236.015, 1, 0.00106318, 0.0165966, 0.0119478, 466.841, -158.272, 0.180817, 0.00105702, 0.0107694, 0.0078522, 233.703, -78.9608, 0.143054, 0.00105547, 102.984, 101.453, 270.378, 46.5743, 49.4244, 140.884, -0.00214449, -0.00255468, 0.00755375, -0.00193556, -0.00193556, -0.00193556
5781, 1,0.0196796, 0.00199115, 0.0013708, 364.202, 103.852, 0.09182, 1260.81, -424.331, 1, 0.000967079, 0.0216094, 0.0158126, 467.831, -165.054, 0.271514, 0.000955139, 0.0177619, 0.0133344, 260.749, -92.5853, 0.271514, 0.000953816, 184.344, 83.6362, 227.181, 102.891, 51.8856, 122.979, 0.00176078, -0.00500083, 0.00639442, 0.00104905, 0.00104905, 0.00104905
5782, 1,0.022419, 0.00260655, 0.00184182, 368.242, 115.117, 0.0883952, 1185.93, -402.296, 1, 0.00100099, 0.0250128, 0.0186835, 483.318, -189.056, 0.351171, 0.000990084, 0.019828, 0.0153788, 253.206, -107.452, 0.337349, 0.000988435, 201.872, 106.723, 258.572, 114.957, 65.4613, 141.939, 0.00178363, -0.00593157, 0.00796121, 0.00120252, 0.00120252, 0.00120252
5783, 1,0.0224871, 0.00326857, 0.00228451, 368.397, 117.184, 0.0815009, 1001.61, -346.636, 1, 0.00103426, 0.0257269, 0.0191772, 485.53, -189.636, 0.361967, 0.00102513, 0.0192573, 0.0148511, 251.316, -105.833, 0.322875, 0.00102333, 161.202, 113.834, 293.871, 89.8525, 66.7327, 160.914, -0.00154528, -0.00551202, 0.0109108, -0.00178899, -0.00178899, -0.00178899
5784, 1,0.0215312, 0.00364559, 0.00258596, 359.275, 117.548, 0.0717524, 729.804, -255.428, 1, 0.00106634, 0.0251278, 0.0181862, 476.72, -172.171, 0.345787, 0.00106005, 0.0179538, 0.0131611, 241.934, -89.5417, 0.290488, 0.00105823, 122.322, 93.1182, 301.073, 61.0384, 47.669, 159.917, -0.00321432, -0.00554001, 0.0122135, -0.00307213, -0.00307213, -0.00307213
5785, 1,0.0288007, 0.00248209, 0.00168639, 367.338, 113.472, 0.0946478, 1317.03, -443.029, 1, 0.000969064, 0.0312166, 0.0232378, 480.724, -185.022, 0.441015, 0.000957232, 0.0263961, 0.0201208, 254.038, -105.556, 0.43925, 0.000955594, 207.779, 76.6365, 270.651, 116.493, 53.1068, 147.069, 0.00281481, -0.00999104, 0.0111561, 0.00182584, 0.00182584, 0.00182584
5786, 1,0.0293745, 0.00355174, 0.00243403, 361.91, 119.699, 0.0903369, 1240.11, -425.422, 1, 0.00100231, 0.0329056, 0.0253611, 481.576, -183.888, 0.496751, 0.000990856, 0.0258487, 0.0206565, 242.277, -90.7366, 0.456378, 0.000988726, 202.622, 65.0499, 283.991, 100.589, 28.1873, 143.433, 0.00267911, -0.011639, 0.013085, 0.00163189, 0.00163189, 0.00163189
5787, 1,0.0302297, 0.00428679, 0.00297205, 363.167, 119.984, 0.0833996, 1053.51, -362.798, 1, 0.00103522, 0.0344926, 0.0263271, 483.12, -182.885, 0.526319, 0.00102582, 0.0259747, 0.0204133, 243.244, -91.5003, 0.45896, 0.00102356, 177.353, 70.6906, 300.611, 87.3254, 33.065, 154.11, 0.000161908, -0.0113687, 0.0154047, -0.000634651, -0.000634651, -0.000634651
5788, 1,0.0289661, 0.00448691, 0.00318478, 361.559, 119.154, 0.0732624, 768.223, -265.049, 1, 0.00106799, 0.0334198, 0.0244762, 480.668, -175.79, 0.501736, 0.00106184, 0.0245241, 0.0182212, 242.495, -88.6957, 0.424311, 0.00105964, 143.521, 76.528, 307.322, 70.1273, 37.1478, 158.812, -0.0026706, -0.00948662, 0.0161155, -0.00281865, -0.00281865, -0.00281865
5789, 1,0.0290628, 0.00303918, 0.00205022, 356.762, 118.38, 0.0934028, 1298.06, -443.001, 1, 0.00100686, 0.0320088, 0.0238999, 474.991, -172.498, 0.458364, 0.000994344, 0.0261368, 0.019966, 238.674, -81.5571, 0.436564, 0.000992347, 169.845, 43.8096, 303.839, 76.5584, 16.8712, 151.242, 0.000194751, -0.0120641, 0.0156269, -0.000995226, -0.000995226, -0.000995226
5790, 1,0.0326875, 0.00424328, 0.00296255, 366.847, 121.82, 0.0907575, 1256.78, -440.934, 1, 0.00104082, 0.0368518, 0.0283318, 488.533, -192.668, 0.565167, 0.00102879, 0.0285448, 0.0225463, 245.29, -94.4717, 0.504842, 0.00102629, 208.145, 56.9405, 312.917, 99.6379, 26.3897, 157.387, 0.00257602, -0.0149668, 0.0169525, 0.000887741, 0.000887741, 0.000887741
5791, 1,0.0334478, 0.00500943, 0.00360298, 361.016, 122.029, 0.0840703, 1070.06, -365.873, 1, 0.00107442, 0.0383659, 0.0295568, 482.853, -180.697, 0.597922, 0.00106476, 0.0285587, 0.0225418, 239.361, -84.4295, 0.511674, 0.00106212, 188.263, 53.4244, 300.404, 84.2017, 22.3863, 146.7, 0.00164236, -0.0143758, 0.0171286, -0.00013211, -0.00013211, -0.00013211
5792, 1,0.030937, 0.00503898, 0.00360418, 359.951, 120.237, 0.0741615, 787.468, -265.913, 1, 0.00110963, 0.0359237, 0.0264292, 480.066, -173.21, 0.548253, 0.00110331, 0.0259698, 0.0194188, 239.955, -84.0689, 0.454822, 0.00110086, 157.637, 68.4453, 293.547, 72.7665, 33.2512, 146.189, -0.00110597, -0.0107383, 0.0158898, -0.00190918, -0.00190918, -0.00190918
5793, 1,0.0372491, 0.00585553, 0.00416077, 364.837, 120.647, 0.0921497, 1258.84, -414.636, 1, 0.00110898, 0.0430043, 0.0318189, 485.292, -178.615, 0.662544, 0.00109725, 0.0315295, 0.0237134, 244.574, -90.6996, 0.552322, 0.00109455, 179.137, 17.9803, 338.727, 85.8327, 10.4471, 175.819, 0.00102613, -0.0202375, 0.0238087, -0.000817085, -0.000817085, -0.000817085
5794, 1,0.0365036, 0.00560547, 0.00405558, 369.372, 121.867, 0.0793481, 924.014, -304.265, 1, 0.00107381, 0.0420021, 0.0320201, 491.037, -190.819, 0.662379, 0.00106711, 0.0310414, 0.0240682, 247.908, -97.2066, 0.560742, 0.00106432, 175.801, 23.7318, 372.924, 84.2813, 14.3214, 193.017, -0.000719397, -0.0209502, 0.026581, -0.00214719, -0.00214719, -0.00214719
5795, 1,0.0316402, 0.00504886, 0.00363399, 364.268, 122.265, 0.0639615, 504.416, -171.041, 1, 0.00103595, 0.036566, 0.0282165, 486.232, -186.646, 0.568244, 0.00103404, 0.0267581, 0.0211308, 242.595, -90.1515, 0.478761, 0.00103152, 166.922, 21.3697, 371.645, 74.8312, 6.71749, 188.906, -0.000959182, -0.0180623, 0.0234564, -0.00206922, -0.00206922, -0.00206922
5796, 1,0.0257297, 0.00399594, 0.0027875, 359.586, 119.23, 0.0457009, 247.388, -87.7503, 0.833464, 0.00100438, 0.0295992, 0.0222951, 478.433, -175.362, 0.436018, 0.00100539, 0.0219048, 0.0168787, 241.121, -87.6949, 0.377906, 0.00100343, 147.413, 40.7995, 337.872, 65.3331, 22.2671, 175.485, -0.00133108, -0.0114916, 0.0165836, -0.00247083, -0.00247083, -0.00247083
5797, 1,0.0342857, 0.00504748, 0.00355008, 362.06, 118.794, 0.0945972, 1313.69, -438.331, 1, 0.00106909, 0.0392466, 0.0287789, 480.694, -173.738, 0.58262, 0.00105642, 0.0293534, 0.0219124, 243.588, -89.6625, 0.494231, 0.00105414, 150.247, 18.7689, 352.2, 72.7316, 11.4407, 184.815, -0.00201676, -0.017758, 0.0239507, -0.00296446, -0.00296446, -0.00296446
5798, 1,0.0329242, 0.00485039, 0.0034032, 364.731, 120.115, 0.0787907, 909.554, -300.088, 1, 0.00103446, 0.0376353, 0.0285731, 484.566, -182.849, 0.583876, 0.00102764, 0.0282591, 0.0219521, 245.176, -93.5142, 0.505203, 0.00102529, 147.203, 24.8151, 376.529, 70.2971, 13.982, 196.263, -0.0031437, -0.0176378, 0.0251817, -0.00382482, -0.00382482, -0.00382482
5799, 1,0.0297834, 0.00441671, 0.0030986, 374.954, 119.869, 0.0624911, 466.701, -161.911, 1, 0.00099818, 0.0341007, 0.0258007, 494.604, -201.061, 0.523432, 0.000996848, 0.0254989, 0.0197491, 255.533, -111.31, 0.454361, 0.000994669, 177.457, 53.5759, 372.15, 95.4204, 39.2106, 199.298, -0.00119456, -0.0150812, 0.0208843, -0.00200908, -0.00200908, -0.00200908
5800, 1,0.0246205, 0.00368796, 0.0025422, 362.224, 118.089, 0.0431253, 248.119, -85.978, 0.782093, 0.000968306, 0.0282386, 0.0211415, 480.09, -178.673, 0.409786, 0.000969432, 0.0210265, 0.016151, 244.585, -93.6363, 0.359676, 0.000967633, 172.352, 43.6668, 320.001, 85.4964, 27.1625, 168.25, 0.00074912, -0.0110511, 0.0140613, -0.000397111, -0.000397111, -0.000397111
5801, 1,0.0254482, 0.00393285, 0.00278517, 359.054, 117.102, 0.0940124, 1302.04, -433.755, 1, 0.00106661, 0.0292878, 0.0211249, 475.912, -169.956, 0.401615, 0.00105349, 0.0216411, 0.0158605, 242.443, -89.551, 0.341561, 0.00105164, 124.439, 24.4554, 360.974, 60.1126, 16.5415, 191.999, -0.00344116, -0.0122768, 0.0192706, -0.00384293, -0.00384293, -0.00384293
5802, 1,0.0228514, 0.00383512, 0.00268237, 358.729, 117.365, 0.0764249, 848.61, -284.461, 1, 0.00103206, 0.0265812, 0.0196004, 475.732, -170.653, 0.376695, 0.00102492, 0.0191625, 0.0144686, 242.093, -89.8383, 0.319971, 0.00102315, 112.383, 33.7335, 365.843, 55.3991, 22.2738, 191.842, -0.00400542, -0.0104656, 0.0179762, -0.00389928, -0.00389928, -0.00389928
5803, 1,0.0205776, 0.00348387, 0.00241737, 358.325, 117.609, 0.0604115, 399.353, -129.327, 1, 0.00099537, 0.024006, 0.0179473, 475.681, -172.49, 0.331613, 0.000994063, 0.0171706, 0.0132277, 241.22, -89.4827, 0.283973, 0.000992367, 144.237, 38.1794, 335.054, 72.8386, 23.3522, 172.257, -0.00107976, -0.00930833, 0.0138223, -0.00132111, -0.00132111, -0.00132111
5804, 1,0.0178289, 0.00298237, 0.00206043, 356.38, 115.844, 0.0392408, 240.451, -76.9791, 0.710364, 0.000965635, 0.020795, 0.0153271, 472.116, -167.669, 0.266286, 0.000966652, 0.0148692, 0.0112649, 240.755, -88.5016, 0.232659, 0.000965161, 165.275, 43.1045, 294.628, 84.4428, 27.6302, 153.432, 0.00100543, -0.0072687, 0.00945923, 0.000271383, 0.000271383, 0.000271383
5805, 1,0.0156847, 0.00311878, 0.00220255, 347.76, 116.326, 0.092206, 1260.35, -413.907, 1, 0.00106291, 0.0187495, 0.0135204, 463.771, -152.522, 0.208934, 0.00104982, 0.0126454, 0.00924429, 232.059, -75.4137, 0.168003, 0.00104829, 93.4469, 18.3583, 345.76, 37.9665, 9.66715, 178.608, -0.00287565, -0.00696547, 0.0126408, -0.00283429, -0.00283429, -0.00283429
5806, 1,0.0139709, 0.00299774, 0.00211758, 347.177, 116.023, 0.0735178, 762.754, -250.814, 1, 0.00102921, 0.0169197, 0.0121305, 462.764, -151.429, 0.1893, 0.00102258, 0.0110481, 0.00811563, 232.023, -75.6754, 0.152841, 0.00102115, 76.614, 31.453, 346.219, 33.6621, 17.7243, 175.64, -0.00320141, -0.00554401, 0.0114919, -0.00264359, -0.00264359, -0.00264359
5807, 1,0.0132897, 0.00274649, 0.00191492, 352.574, 115.586, 0.0583523, 346.19, -115.25, 1, 0.000993474, 0.016009, 0.011587, 467.852, -161.221, 0.175032, 0.000992152, 0.0105841, 0.00787793, 237.608, -84.7509, 0.146994, 0.000990763, 114.143, 45.8798, 323.64, 58.7832, 30.3342, 165.135, -0.00142538, -0.00503361, 0.00935806, -0.00127861, -0.00127861, -0.00127861
5808, 1,0.0124371, 0.0023793, 0.00162571, 339.648, 114.987, 0.0359519, 231.098, -63.9499, 0.647977, 0.00096211, 0.0148059, 0.0107349, 454.466, -140.25, 0.147758, 0.000962893, 0.010073, 0.00753407, 224.991, -62.4576, 0.13155, 0.000961559, 123.826, 23.2744, 273.651, 50.3085, 5.54983, 131.514, 0.000194601, -0.00465547, 0.00694154, -0.000255536, -0.000255536, -0.000255536
5809, 1,0.0106663, 0.00253913, 0.0017652, 346.569, 116.05, 0.0890369, 1191, -390.725, 1, 0.00105875, 0.0131686, 0.00939433, 462.334, -152.309, 0.113259, 0.00104642, 0.00818598, 0.00597368, 231.089, -75.3891, 0.0897643, 0.00104501, 92.4875, 19.1092, 345.331, 38.5978, 9.86639, 177.703, -0.00190482, -0.00464333, 0.00918486, -0.00176377, -0.00176377, -0.00176377
5810, 1,0.0097902, 0.00241974, 0.00169658, 344.905, 115.241, 0.0694099, 643.224, -205.874, 1, 0.00102505, 0.0121702, 0.00870982, 459.5, -148.409, 0.0957988, 0.00101992, 0.00743556, 0.00542323, 230.965, -75.0306, 0.0776132, 0.00101862, 55.6917, 43.1106, 346.424, 21.5686, 27.8893, 175.634, -0.00274563, -0.00328117, 0.00857024, -0.0021695, -0.0021695, -0.0021695
5811, 1,0.00951534, 0.00221732, 0.00153614, 344.182, 114.038, 0.0531069, 349.796, -106.61, 0.905205, 0.000990158, 0.0117144, 0.00833335, 457.747, -146.442, 0.0888793, 0.000989173, 0.00732697, 0.00532662, 231.084, -73.5255, 0.0775624, 0.000987934, 83.0937, 43.1037, 313.128, 38.4511, 27.9366, 154.189, -0.00145141, -0.0031101, 0.00706153, -0.00118023, -0.00118023, -0.00118023
5812, 1,0.00869215, 0.00194947, 0.00131726, 348.621, 112.432, 0.0309438, 238.263, -75.9872, 0.550345, 0.00095857, 0.010637, 0.00739201, 460.845, -153.05, 0.066244, 0.000959285, 0.00674993, 0.00478002, 236.601, -79.7253, 0.0626789, 0.000958098, 123.249, 41.5956, 294.305, 61.2625, 27.7496, 150.164, 5.70752E-06, -0.00295103, 0.00552437, -0.000195256, -0.000195256, -0.000195256
5813, 1,0.00835605, 0.00215457, 0.00147358, 343.776, 115.294, 0.0851488, 1085.58, -357.712, 1, 0.00105354, 0.0104676, 0.00741224, 458.458, -147.694, 0.0606936, 0.00104237, 0.00627238, 0.00457563, 229.701, -72.6557, 0.0506222, 0.00104105, 75.2396, 22.4116, 345.43, 25.6344, 14.6059, 177.727, -0.00178461, -0.00329276, 0.00755679, -0.00166181, -0.00166181, -0.00166181
5814, 1,0.00787345, 0.00201506, 0.00138968, 344.92, 113.223, 0.0654505, 547.319, -188.148, 1, 0.00102046, 0.00986726, 0.00697633, 457.446, -147.179, 0.0506105, 0.00101593, 0.00589367, 0.00424079, 233.085, -76.2248, 0.045489, 0.00101472, 54.7877, 49.3391, 337.409, 22.7245, 36.4611, 169.489, -0.00207507, -0.00233115, 0.00686317, -0.001623, -0.001623, -0.001623
5815, 1,0.00705773, 0.00187934, 0.00129293, 344.052, 111.563, 0.0467037, 384.681, -128.89, 0.78124, 0.000986729, 0.00891717, 0.00621604, 454.782, -144.178, 0.0324882, 0.000985422, 0.00521246, 0.00367991, 234.134, -75.0355, 0.0312347, 0.000984296, 58.9558, 44.4811, 329.096, 24.3244, 33.5236, 167.258, -0.00148735, -0.00211857, 0.00598835, -0.0011588, -0.0011588, -0.0011588
5816, 1,0.00582531, 0.00169885, 0.00114427, 351.152, 106.412, 0.0240125, 238.551, -79.3517, 0.413713, 0.000954453, 0.00752292, 0.00508184, 457.249, -152.013, 0.00524187, 0.000955176, 0.00412872, 0.00279698, 245.339, -83.0515, 0.00524187, 0.000954105, 105.762, 45.7891, 304.488, 53.33, 33.8423, 161.982, -0.000111569, -0.00173643, 0.00432204, -0.000137152, -0.000137152, -0.000137152
5817, 1,0.0079997, 0.00189456, 0.00127958, 351.745, 112.374, 0.0809722, 970.236, -320.151, 1, 0.00104802, 0.00986026, 0.00687498, 463.554, -158.174, 0.0497005, 0.00103851, 0.00615918, 0.00440064, 240.492, -85.3414, 0.0479098, 0.00103725, 87.5769, 34.8296, 352.115, 40.5556, 28.4321, 187.037, -0.00151324, -0.00299387, 0.00714591, -0.00143765, -0.00143765, -0.00143765
5818, 1,0.00678505, 0.00181279, 0.00123427, 340.106, 109.037, 0.0576636, 488.931, -158.334, 0.908112, 0.00101477, 0.00856974, 0.00596413, 448.087, -142.936, 0.0263028, 0.00101188, 0.00502007, 0.00356089, 233.111, -73.594, 0.0251552, 0.00101072, 44.3155, 43.4382, 341.053, 13.5051, 32.3476, 174.929, -0.00189437, -0.00202391, 0.00627163, -0.00147602, -0.00147602, -0.00147602
5819, 1,0.00564182, 0.00170883, 0.0011602, 333.071, 105.316, 0.0373643, 415.869, -138.945, 0.59757, 0.000982449, 0.00733857, 0.00505569, 437.376, -140.235, 0.00612084, 0.000981369, 0.00395589, 0.00278485, 229.711, -72.7183, 0.00527741, 0.000980291, 57.5701, 41.4743, 321.661, 23.6606, 30.7823, 163.712, -0.00109812, -0.00169337, 0.00507459, -0.000738397, -0.000738397, -0.000738397
5820, 1,0.00509128, 0.00155834, 0.00104636, 322.368, 98.3593, 0.017587, 237.945, -81.2294, 0.284744, 0.000950252, 0.00664524, 0.00444599, 420.159, -141.253, 0, 0.00095091, 0.00354122, 0.00236638, 225.086, -76.7081, 0, 0.000949915, 83.5912, 45.9231, 294.244, 38.7529, 33.9096, 157.462, -0.000381809, -0.0014403, 0.00411428, -0.000309884, -0.000309884, -0.000309884
5821, 1,0.00624005, 0.00174744, 0.00117209, 341.336, 107.378, 0.0751025, 812.887, -274.67, 1, 0.00104275, 0.00795799, 0.0054056, 447.59, -150.448, 0.0158695, 0.00103483, 0.0045444, 0.00313041, 236.116, -80.0716, 0.0147055, 0.00103364, 76.747, 33.3036, 341.293, 32.1867, 27.3985, 180.63, -0.00120308, -0.00224776, 0.00591303, -0.00104066, -0.00104066, -0.00104066
5822, 1,0.00603164, 0.00166785, 0.0011277, 333.254, 102.036, 0.0504103, 490.039, -165.733, 0.793339, 0.00101021, 0.00767852, 0.00530251, 434.287, -142.376, 0.0137389, 0.00100769, 0.00440065, 0.00309969, 233.114, -75.9755, 0.0125524, 0.00100659, 47.8121, 44.1815, 335.135, 17.7867, 33.2249, 176.915, -0.00159966, -0.00177348, 0.00570087, -0.00118103, -0.00118103, -0.00118103
5823, 1,0.00536644, 0.00156264, 0.00105894, 329.357, 97.3334, 0.0287486, 456.596, -152.297, 0.419366, 0.000978119, 0.00691722, 0.00465089, 425.991, -142.266, 0.00263346, 0.000977225, 0.00382551, 0.00257647, 233.323, -79.2104, 0.00219711, 0.000976224, 55.3994, 41.0919, 330.308, 25.1027, 30.4524, 182.076, -0.00113002, -0.00162434, 0.00506611, -0.000767438, -0.000767438, -0.000767438
5824, 1,0.00452496, 0.00142813, 0.000957289, 278.68, 90.0327, 0.00970933, 224.79, -65.5068, 0.123549, 0.000945663, 0.00594528, 0.00400816, 367.951, -115.395, 6.77626E-21, 0.000946331, 0.00311174, 0.00211452, 190.098, -56.4667, 6.77626E-21, 0.000945427, 54.3635, 30.3098, 261.512, 16.1078, 19.4071, 133.885, -0.000588226, -0.00132508, 0.00378586, -0.000467061, -0.000467061, -0.000467061
5825, 1,0.00535176, 0.00158422, 0.00106197, 331.042, 99.4577, 0.0701533, 668.005, -219.906, 1, 0.00103672, 0.0069179, 0.00464853, 429.728, -148.314, 0.00136045, 0.00103086, 0.00380094, 0.00256979, 233.048, -83.3177, 0.000935971, 0.00102978, 78.1838, 34.0692, 332.689, 39.3919, 28.8365, 181.725, -0.000935207, -0.00189005, 0.00523326, -0.000711098, -0.000711098, -0.000711098
5826, 1,0.00513047, 0.00151316, 0.00102352, 312.365, 94.8152, 0.0442888, 486.459, -163.995, 0.690252, 0.00100585, 0.00662013, 0.00452598, 406.155, -130.47, 0.000382421, 0.00100363, 0.00365979, 0.00254418, 219.446, -68.9939, 0.000148393, 0.00100263, 30.7594, 35.5764, 325.074, 4.53553, 25.6325, 176.814, -0.00154083, -0.00151792, 0.00517604, -0.00111156, -0.00111156, -0.00111156
5827, 1,0.00493513, 0.00142878, 0.000964955, 305.176, 89.6743, 0.0226016, 475.305, -159.942, 0.295758, 0.000974174, 0.00635248, 0.00435864, 394.137, -125.601, 4.23516E-22, 0.000973132, 0.00352685, 0.00245628, 216.796, -67.4966, 4.23516E-22, 0.000972215, 33.3862, 37.6973, 305.718, 6.6515, 28.1089, 167.729, -0.00128344, -0.00133467, 0.00465612, -0.000926355, -0.000926355, -0.000926355
5828, 1,0.00392113, 0.00131318, 0.000878488, 252.619, 82.5826, 0.00329732, 193.052, -50.251, 0, 0.000941503, 0.00522515, 0.00347754, 334.429, -115.444, 0, 0.00094249, 0.00262646, 0.00173977, 171.593, -61.4229, 0, 0.000941664, 57.9738, 45.9074, 242.452, 25.5408, 35.4068, 123.321, -0.000528268, -0.00093368, 0.00333533, -0.000361714, -0.000361714, -0.000361714
5829, 1,0.00516919, 0.00144583, 0.000967582, 310.861, 91.3984, 0.0655074, 551.192, -192.91, 1, 0.00103179, 0.00659587, 0.00449987, 401.318, -124.612, 0.000178476, 0.00102658, 0.00375711, 0.00260671, 221.141, -64.8709, 0.000114043, 0.00102559, 50.1305, 12.1205, 311.586, 16.1993, 8.03215, 170.381, -0.00110943, -0.00192827, 0.00506006, -0.000867613, -0.000867613, -0.000867613
5830, 1,0.00465123, 0.00137769, 0.000928077, 292.161, 86.9811, 0.0399289, 492.213, -176.682, 0.616018, 0.00100183, 0.00601615, 0.0040921, 378.448, -127.378, 0, 0.000999527, 0.00329708, 0.00226987, 206.484, -70.4992, 0, 0.000998605, 38.7424, 41.1692, 302.224, 15.6536, 31.5685, 164.276, -0.00126898, -0.00132219, 0.00465803, -0.000850187, -0.000850187, -0.000850187
5831, 1,0.00415082, 0.00131121, 0.000883669, 255.503, 82.3748, 0.0187694, 475.658, -164.309, 0.223477, 0.000970371, 0.00544767, 0.00371571, 337, -105.235, 0, 0.000969073, 0.00286681, 0.0019841, 174.793, -51.6979, 0, 0.000968232, 21.4241, 29.3272, 264.955, -1.15388, 19.8816, 136.366, -0.00120021, -0.00116279, 0.00407061, -0.00082824, -0.00082824, -0.00082824
5832, 1,0.00360127, 0.00121226, 0.000812036, 229.299, 76.0817, 0.00170923, 105.673, -32.1734, 0, 0.000937464, 0.00479825, 0.00320463, 304.37, -101.535, 0, 0.00093852, 0.00241973, 0.0016157, 155.23, -51.8548, 0, 0.000937764, 42.0713, 38.455, 224.077, 14.2912, 28.9644, 112.309, -0.000660674, -0.000835335, 0.0031437, -0.000463847, -0.000463847, -0.000463847
5833, 1,0.00450958, 0.00130185, 0.00087239, 281.046, 82.6595, 0.0531162, 492.325, -167.561, 0.837581, 0.00102576, 0.00579184, 0.00390145, 362.794, -123.201, 0, 0.00102258, 0.00324317, 0.00220731, 200.075, -69.2163, 0, 0.00102168, 48.263, 27.757, 293.584, 20.5724, 23.4828, 163.594, -0.00103365, -0.00159517, 0.00462824, -0.000754397, -0.000754397, -0.000754397
5834, 1,0.00438559, 0.00124971, 0.000840556, 269.248, 79.0424, 0.0339476, 489.657, -176.38, 0.508861, 0.000997458, 0.00562743, 0.00384187, 347.659, -109.571, 0, 0.000995247, 0.00314999, 0.0021786, 191.347, -57.8582, 0, 0.000994412, 25.1251, 27.5318, 276.056, 5.29886, 19.3417, 148.934, -0.00121512, -0.00132877, 0.00432191, -0.000811764, -0.000811764, -0.000811764
5835, 1,0.00384751, 0.00120789, 0.000813497, 245.193, 75.7137, 0.0164746, 483.586, -179.476, 0.180266, 0.000966634, 0.00502885, 0.00336928, 319.316, -107.517, 0, 0.000965192, 0.00268997, 0.00180866, 172.482, -58.7264, 0, 0.000964428, 24.2205, 42.3326, 255.998, 5.51354, 34.4839, 136.182, -0.00116261, -0.000912579, 0.0038199, -0.000784993, -0.000784993, -0.000784993
5836, 1,0.00305605, 0.00109981, 0.000735423, 193.678, 69.1145, 0.000659808, 24.3273, 9.0923, 0, 0.000932949, 0.00414773, 0.00276838, 262.221, -86.4055, 0, 0.000934396, 0.00197346, 0.0013168, 125.759, -41.0175, 0, 0.000933708, 34.0641, 28.5333, 196.619, 10.5411, 18.8921, 93.6194, -0.000597414, -0.000790801, 0.00279043, -0.000378372, -0.000378372, -0.000378372
5837, 1,0.00424983, 0.00116499, 0.000779487, 258.59, 73.9929, 0.0403683, 482.487, -159.791, 0.621853, 0.00102066, 0.00540259, 0.00367254, 331.733, -105.957, 0, 0.00101837, 0.00310622, 0.00213876, 186.113, -57.7621, 0, 0.00101757, 31.9525, 17.3259, 268.594, 8.91972, 14.2789, 150.088, -0.00102643, -0.00153967, 0.00428545, -0.000745933, -0.000745933, -0.000745933
5838, 1,0.00373437, 0.00112466, 0.000756238, 232.305, 71.1079, 0.0255556, 477.253, -160.87, 0.351639, 0.000992572, 0.00485123, 0.00327234, 302.747, -97.8009, 0, 0.000990925, 0.00262422, 0.00178166, 162.438, -51.4069, 0, 0.000990179, 22.0172, 26.8169, 244.569, 6.32389, 19.2682, 128.629, -0.00106376, -0.00113656, 0.00378736, -0.000659314, -0.000659314, -0.000659314
5839, 1,0.00343502, 0.00109011, 0.000735974, 216.61, 68.3274, 0.0118959, 473.738, -166.708, 0.0900588, 0.000962455, 0.0044948, 0.00308118, 283.242, -92.9614, 0, 0.000961166, 0.00240232, 0.00168761, 151.489, -48.9064, 0, 0.000960479, 8.28521, 37.6182, 232.981, -6.72408, 29.9101, 123.533, -0.00125864, -0.000763034, 0.00353023, -0.000878501, -0.000878501, -0.000878501
5840, 1,0.00288584, 0.00100163, 0.00066905, 183.049, 62.8638, 0.000823363, 8.56817, 39.4324, 0, 0.00092872, 0.00387826, 0.00258436, 245.325, -80.8545, 0, 0.000930534, 0.00190309, 0.00126877, 121.378, -39.6315, 0, 0.000929912, 30.6829, 28.0058, 183.875, 10.487, 19.6594, 88.748, -0.000585392, -0.000700339, 0.00259792, -0.000361742, -0.000361742, -0.000361742
5841, 1,0.00383289, 0.00102505, 0.000686528, 236.01, 65.0709, 0.0319066, 479.704, -160.592, 0.469504, 0.0010162, 0.00485034, 0.00328557, 300.408, -97.8692, 0, 0.00101423, 0.00282097, 0.00192534, 172.124, -55.5491, 0, 0.00101353, 29.7635, 17.4519, 246.392, 11.248, 15.2632, 140.136, -0.00091323, -0.00136794, 0.0038691, -0.000632692, -0.000632692, -0.000632692
5842, 1,0.00332743, 0.00100546, 0.000677482, 205.831, 63.4058, 0.0193262, 471.215, -155.397, 0.23286, 0.000988068, 0.00431481, 0.00295401, 268.099, -84.7454, 0, 0.000986564, 0.00235545, 0.00164294, 144.539, -43.6846, 0, 0.000985907, 5.5681, 24.7423, 223.926, -5.94842, 18.088, 118.914, -0.00119101, -0.000945835, 0.003512, -0.000783864, -0.000783864, -0.000783864
5843, 1,0.00295895, 0.000964652, 0.000649293, 186.888, 60.5455, 0.007256, 440.16, -128.378, 0, 0.000957805, 0.00390955, 0.00265303, 246.591, -80.3547, -5.42101E-20, 0.000957059, 0.00202167, 0.00138888, 127.971, -41.053, -5.42101E-20, 0.000956449, 10.5065, 27.732, 202.826, -1.88579, 20.4354, 104.609, -0.00100719, -0.000745864, 0.00305706, -0.000647043, -0.000647043, -0.000647043
5844, 1,0.00256809, 0.000906288, 0.000607394, 162.155, 56.7635, 0.00134857, 2.42747, 82.1453, 0, 0.000924269, 0.00346073, 0.00232328, 218.146, -70.791, 0, 0.000926566, 0.00169009, 0.00114197, 106.968, -33.6885, 0, 0.000926008, 19.4574, 25.4661, 167.45, 2.83549, 17.9551, 80.2749, -0.000667006, -0.000582472, 0.00239842, -0.000432764, -0.000432764, -0.000432764
5845, 1,0.00337149, 0.000890932, 0.000597738, 206.991, 56.3904, 0.025169, 476.576, -159.932, 0.343999, 0.0010119, 0.00425482, 0.00289647, 262.675, -84.3806, 0, 0.00101004, 0.00249359, 0.0017153, 151.825, -47.9776, 0, 0.00100944, 23.2674, 11.1534, 218.721, 9.01037, 10.3001, 124.622, -0.00082413, -0.00125721, 0.00345032, -0.000548444, -0.000548444, -0.000548444
5846, 1,0.00315486, 0.000886406, 0.000598555, 196.82, 55.698, 0.0155086, 473.323, -162.078, 0.159712, 0.000983913, 0.0040169, 0.00273588, 251.051, -80.3465, 0, 0.000982357, 0.00231141, 0.00159459, 143.705, -44.6267, 0, 0.000981787, 1.89333, 25.646, 213.5, -6.42849, 20.7455, 119.563, -0.0011922, -0.00083119, 0.00332715, -0.000802935, -0.000802935, -0.000802935
5847, 1,0.00254489, 0.000847033, 0.000570356, 162.597, 53.1626, 0.00518186, 327.538, -108.655, 0, 0.000953741, 0.00338149, 0.002288, 215.131, -71.1547, 0, 0.000953161, 0.00171864, 0.00117249, 110.67, -36.5937, 0, 0.000952626, 9.58232, 24.4851, 179.397, 0.0261184, 17.7997, 91.9551, -0.000877918, -0.000650022, 0.00268268, -0.000532819, -0.000532819, -0.000532819
5848, 1,0.00207035, 0.000807949, 0.0005428, 131.316, 50.5143, 0.00176241, 4.29537, 105.997, 0, 0.000920146, 0.00286179, 0.00192122, 180.956, -58.8898, 0, 0.000922611, 0.00129956, 0.000879146, 82.7256, -25.9443, 0, 0.000922118, 12.435, 22.1237, 142.111, -0.671535, 15.0153, 63.4892, -0.000630823, -0.000455603, 0.00204229, -0.000387829, -0.000387829, -0.000387829
5849, 1,0.00288199, 0.000753489, 0.00050708, 178.232, 47.5416, 0.019978, 474.771, -160.766, 0.245428, 0.00100789, 0.00362773, 0.00248101, 225.116, -73.3763, 0, 0.00100604, 0.00214176, 0.00147925, 131.826, -42.9012, 0, 0.00100555, 17.9534, 9.36502, 192.81, 7.7553, 9.43621, 111.512, -0.000757862, -0.00108782, 0.00303605, -0.000490781, -0.000490781, -0.000490781
5850, 1,0.00265549, 0.000758524, 0.000513291, 168.777, 47.5381, 0.0116813, 468.185, -157.537, 0.0851527, 0.000979549, 0.00339131, 0.00234194, 215.001, -71.6385, 0, 0.00097806, 0.00193746, 0.00136901, 123.587, -41.2814, 0, 0.000977579, -0.875499, 29.5371, 186.254, -6.14185, 25.2005, 104.786, -0.00111404, -0.000586435, 0.00286291, -0.00074508, -0.00074508, -0.00074508
5851, 1,0.00223679, 0.000738772, 0.000498484, 141.54, 46.2155, 0.00333813, 206.496, -63.0866, 0, 0.000949072, 0.00295941, 0.00200497, 186.871, -59.8057, 0, 0.000949021, 0.00152976, 0.00104732, 97.0324, -30.0047, 0, 0.000948562, 2.26157, 18.6739, 158.482, -4.49384, 13.3276, 81.1805, -0.000852019, -0.000581014, 0.00240363, -0.000523035, -0.000523035, -0.000523035
5852, 1,0.00173381, 0.000709274, 0.000476765, 111.462, 44.285, 0.0020353, 2.84272, 125.202, 0, 0.000916039, 0.00242729, 0.00162378, 154.951, -51.5624, 0, 0.00091867, 0.00106182, 0.000711336, 69.0043, -22.7053, 0, 0.00091824, 10.6299, 20.4974, 123.56, 0.315458, 14.1534, 53.6469, -0.000555401, -0.000366586, 0.00175899, -0.0003178, -0.0003178, -0.0003178
5853, 1,0.00246393, 0.00061945, 0.000418731, 150.655, 38.8562, 0.016486, 472.069, -159.131, 0.178158, 0.00100378, 0.00307282, 0.00214072, 188.75, -59.3672, 0, 0.00100187, 0.00186222, 0.00131803, 113.085, -34.8861, 0, 0.00100148, 8.60705, 2.44289, 167.052, 2.14536, 3.8732, 98.6398, -0.000734646, -0.000984227, 0.0026819, -0.000483591, -0.000483591, -0.000483591
5854, 1,0.00221604, 0.00062857, 0.000426795, 137.907, 39.2902, 0.00867266, 459.657, -147.799, 0.0260787, 0.000975117, 0.0028262, 0.00195366, 176.211, -55.2056, 0, 0.000973618, 0.00161993, 0.00114357, 100.349, -30.2078, 0, 0.000973223, -6.40605, 16.0191, 156.004, -9.16885, 12.6763, 87.1159, -0.000970742, -0.000588862, 0.00245539, -0.000632991, -0.000632991, -0.000632991
5855, 1,0.00192635, 0.000631168, 0.000427568, 121.569, 39.3268, 0.00176817, 101.26, -22.0053, 0, 0.000944533, 0.00253441, 0.00172861, 159.726, -50.3267, 0, 0.000944967, 0.00133976, 0.000931366, 84.4542, -25.1879, 0, 0.000944581, -3.1834, 16.3461, 137.817, -7.42913, 12.1576, 70.8353, -0.000818346, -0.000467729, 0.00210288, -0.000510011, -0.000510011, -0.000510011
5856, 1,0.00140959, 0.000611861, 0.000411618, 90.5697, 38.1551, 0.0022848, 2.3337, 141.71, 0, 0.000912156, 0.00200616, 0.0013458, 127.987, -42.106, 0, 0.000914881, 0.000835718, 0.000566348, 54.181, -17.2514, 0, 0.000914512, 5.91905, 16.5409, 103.858, -1.93316, 10.9353, 42.7519, -0.000507168, -0.000295026, 0.00148578, -0.000280689, -0.000280689, -0.000280689
5857, 1,0.00205097, 0.000486277, 0.000332111, 126.059, 30.2328, 0.0140225, 470.753, -159.202, 0.130444, 0.00099965, 0.00252412, 0.00175598, 155.427, -49.4216, 0, 0.000997669, 0.00158599, 0.00110918, 97.24, -30.9516, 0, 0.00099737, 3.20561, 1.90689, 143.152, -0.0147967, 4.69881, 88.1709, -0.000692064, -0.000818324, 0.00231204, -0.000467898, -0.000467898, -0.000467898
5858, 1,0.00180877, 0.000504433, 0.000344237, 113.214, 31.362, 0.00675511, 420.203, -133.217, 0, 0.0009707, 0.00229676, 0.00160948, 143.712, -44.7013, 0, 0.000969307, 0.00133317, 0.000957099, 83.3554, -25.0579, 0, 0.000968998, -8.3067, 13.1626, 129.248, -8.72643, 11.1221, 72.7781, -0.00084245, -0.000466177, 0.00203399, -0.000539515, -0.000539515, -0.000539515
5859, 1,0.00151933, 0.000520042, 0.000354275, 95.2106, 32.2727, 0.00101006, 41.2799, 8.55218, 0, 0.000940368, 0.00201119, 0.00139658, 126.156, -38.542, 0, 0.000941087, 0.00105408, 0.000763022, 65.4616, -18.0793, 0, 0.000940774, -8.07465, 12.3457, 111.355, -10.0039, 8.90065, 55.3412, -0.000736773, -0.000355277, 0.00171765, -0.000453301, -0.000453301, -0.000453301
5860, 1,0.00108706, 0.000516284, 0.000347974, 69.9301, 32.1268, 0.00249147, 1.05626, 156.522, 0, 0.000908154, 0.00158614, 0.00106672, 101.269, -32.9781, 0, 0.000910951, 0.000616678, 0.00042771, 39.8083, -12.0873, 0, 0.000910642, 1.93391, 12.999, 84.0014, -3.67552, 8.14765, 31.7899, -0.000449296, -0.000220604, 0.0012054, -0.000238024, -0.000238024, -0.000238024
5861, 1,0.00167263, 0.000356601, 0.000251193, 98.8935, 21.7855, 0.0122831, 467.619, -155.823, 0.0964121, 0.000995501, 0.0020167, 0.00146283, 119.839, -34.1522, 0, 0.000993395, 0.00133528, 0.00097758, 78.413, -21.7185, 0, 0.000993195, -4.41251, -7.21866, 114.088, -4.86038, -2.89568, 72.9116, -0.000613312, -0.000757329, 0.00192453, -0.000426288, -0.000426288, -0.000426288
5862, 1,0.00143283, 0.000384139, 0.000265563, 89.473, 23.6324, 0.00553423, 348.61, -114.508, 0, 0.000966292, 0.00179861, 0.00129156, 112.179, -33.9616, 0, 0.00096503, 0.00107999, 0.000799258, 67.4046, -19.6867, 0, 0.000964806, -11.082, 10.0439, 102.923, -9.2397, 9.38004, 58.9198, -0.000730108, -0.000352228, 0.00163344, -0.000464258, -0.000464258, -0.000464258
5863, 1,0.00117494, 0.000409166, 0.000280865, 73.1365, 25.2497, 0.0010591, 26.5458, 30.0453, 0, 0.000936065, 0.00155236, 0.00110351, 96.9856, -28.5753, 0, 0.000936956, 0.000826389, 0.000627584, 50.4987, -12.7673, 0, 0.000936715, -10.5169, 8.62415, 87.6188, -10.4926, 6.07769, 42.717, -0.00063137, -0.000267253, 0.00136251, -0.000380035, -0.000380035, -0.000380035
5864, 1,0.000762785, 0.000422171, 0.000285581, 48.9585, 26.1757, 0.00269626, 0.713218, 169.525, 0, 0.000904223, 0.00116063, 0.000788277, 74.0853, -23.5682, 0, 0.000907061, 0.000412415, 0.000308744, 25.6967, -6.61708, 0, 0.000906812, -1.79423, 9.46293, 63.0358, -5.34984, 5.35271, 19.8484, -0.000381543, -0.000141279, 0.00090564, -0.000189052, -0.000189052, -0.000189052
5865, 1,0.0012516, 0.000242815, 0.000185095, 72.9048, 14.0335, 0.0104531, 467.541, -157.942, 0.0608889, 0.000991453, 0.00147826, 0.00112151, 85.93, -23.1815, 6.77626E-21, 0.000989198, 0.00103268, 0.000777146, 60.3864, -16.8104, 6.77626E-21, 0.000989096, -7.95402, -7.3607, 84.8592, -5.84753, -1.40531, 57.6842, -0.000519904, -0.000572549, 0.00146836, -0.000374526, -0.000374526, -0.000374526
5866, 1,0.00108431, 0.000267385, 0.000191072, 64.336, 16.0604, 0.00428107, 266.131, -83.362, 0, 0.000961655, 0.00133544, 0.00101727, 79.6153, -20.0135, 0, 0.000960667, 0.000843156, 0.000667043, 49.5264, -11.1091, 0, 0.000960528, -16.329, 2.20557, 74.1641, -12.5497, 2.91702, 42.9601, -0.000620803, -0.000288114, 0.00123371, -0.000398946, -0.000398946, -0.000398946
5867, 1,0.000885262, 0.000302144, 0.000210561, 53.5154, 18.4184, 0.00129309, 22.3191, 50.1642, 0, 0.000932072, 0.00114804, 0.00086074, 70.3032, -18.6399, 0, 0.000933113, 0.000653048, 0.000542217, 37.9475, -7.47972, 0, 0.000932944, -13.1762, 5.06888, 64.0272, -11.3596, 3.59472, 30.2041, -0.000530013, -0.000177266, 0.00100997, -0.000314187, -0.000314187, -0.000314187
5868, 1,0.000467764, 0.000328861, 0.000223666, 29.4046, 20.2786, 0.00295818, 3.55686, 181.732, 0, 0.000900287, 0.000752961, 0.000525723, 47.9096, -14.4058, 0, 0.000903157, 0.000269821, 0.000249544, 14.2176, -1.3561, 0, 0.000902966, -4.58101, 5.82504, 41.9734, -6.3083, 2.43231, 7.94427, -0.000297328, -6.81265E-05, 0.000599608, -0.000127804, -0.000127804, -0.000127804
5869, 1,0.000905954, 0.000160711, 0.000153006, 47.3613, 7.75942, 0.00829655, 459.502, -148.263, 0.0184568, 0.000987221, 0.00104686, 0.000908854, 54.0252, -8.00252, 0, 0.000984952, 0.000773702, 0.000642115, 41.2064, -7.7059, 0, 0.000984947, -13.343, -15.7608, 53.1113, -9.15675, -8.46114, 40.7356, -0.000396352, -0.000490198, 0.00101619, -0.000302261, -0.000302261, -0.000302261
5870, 1,0.000875304, 0.000170312, 0.000134198, 48.7113, 9.41987, 0.003182, 191.899, -53.6595, 0, 0.000957131, 0.0010304, 0.000871396, 57.4028, -10.1964, 0, 0.000956457, 0.000727225, 0.000626283, 40.3519, -6.65521, 0, 0.000956402, -19.1788, -1.11717, 50.8852, -13.5788, 1.29697, 32.2475, -0.000526434, -0.000192505, 0.000884461, -0.000350877, -0.000350877, -0.000350877
5871, 1,0.0006523, 0.000199608, 0.000144585, 35.4711, 11.8113, 0.00151864, 18.1215, 70.0978, 0, 0.000927708, 0.000806787, 0.000691376, 45.5219, -7.7384, 0, 0.000928881, 0.000522741, 0.000510318, 26.3981, -1.20491, 0, 0.000928782, -16.0757, 0.326145, 38.9647, -12.6133, -0.131702, 16.3597, -0.000418653, -9.77464E-05, 0.000642206, -0.000241205, -0.000241205, -0.000241205
5872, 1,0.000275568, 0.000237781, 0.000163461, 14.2259, 14.5075, 0.00317642, 4.13895, 194.886, 0, 0.00089624, 0.000414449, 0.000331085, 24.8634, -5.36267, 0, 0.000899157, 0.000230532, 0.000293661, 7.57324, 3.83676, 0, 0.000899023, -7.17253, 2.22441, 21.0361, -7.29798, -0.407798, -3.80452, -0.000209862, 3.75873E-06, 0.000293523, -6.73093E-05, -6.73093E-05, -6.73093E-05
5873, 1,0.00067328, -0.000222114, 0.000181149, 29.2283, -12.6476, 0.00698093, 433.585, -137.88, 0, 0.00098301, 0.000777938, 0.000842565, 31.8398, 4.91646, 0, 0.000980735, 0.000588114, 0.000561389, 27.6881, -0.893888, 0, 0.000980827, -16.443, -22.2754, 23.9691, -10.4027, -12.8312, 25.9155, -0.000255118, -0.000410022, 0.000585175, -0.000217942, -0.000217942, -0.000217942
5874, 1,0.000689158, -0.000123691, 0.000117863, 30.9664, -6.50984, 0.00234033, 132.462, -27.7028, 0, 0.000952567, 0.000787851, 0.000835433, 34.9268, 3.35928, 0, 0.000952087, 0.000595211, 0.00061603, 27.2462, 1.54023, 0, 0.000952115, -22.9463, -7.4455, 20.314, -15.6396, -3.66396, 14.6828, -0.000392216, -0.000101986, 0.000439782, -0.000265239, -0.000265239, -0.000265239
5875, 1,0.000539079, 0.000113428, 9.38878E-05, 23.3819, 6.00667, 0.00177673, 16.6751, 88.4709, 0, 0.000923684, 0.000621735, 0.00066609, 28.2719, 2.38978, 0, 0.000924975, 0.000467984, 0.0005428, 18.9393, 4.33081, 0, 0.000924946, -18.3169, -4.07559, 15.2232, -13.4204, -3.3665, 3.79443, -0.000306168, -2.3644E-05, 0.000291284, -0.000171029, -0.000171029, -0.000171029
5876, 1,0.00025342, 0.000150156, 0.000106319, 6.71875, 8.91872, 0.00337205, 3.26677, 208.509, 0, 0.000892305, 0.000272648, 0.000335123, 10.2168, 3.7803, 0, 0.000895274, 0.000263734, 0.00041185, 4.66791, 9.18612, 0, 0.000895195, -9.64607, -1.51481, -0.180006, -8.34502, -3.40816, -15.8052, -0.000117968, 7.41532E-05, -1.71216E-05, -5.21192E-06, -5.21192E-06, -5.21192E-06
5877, 1,0.000589905, -0.000336707, 0.000246483, 18.4954, -20.3429, 0.00617494, 386.886, -126.092, 0, 0.000978814, 0.000714714, 0.000990817, 19.8348, 17.0221, 0, 0.000976544, 0.000487431, 0.000574558, 18.3815, 5.0891, 0, 0.000976733, -17.4823, -27.5758, -6.00828, -9.7311, -16.2979, 10.7616, -8.22648E-05, -0.000322046, 0.000127928, -0.000105664, -0.000105664, -0.000105664
5878, 1,0.000637236, -0.000206004, 0.000157543, 21.5619, -12.4312, 0.00187769, 96.8443, -9.89124, 0, 0.000948287, 0.000729331, 0.000962913, 23.1629, 14.4128, 0, 0.000947913, 0.000550382, 0.000671623, 20.2592, 7.24006, 0, 0.000948024, -24.2587, -12.5453, -6.4345, -15.4931, -7.29191, 1.06479, -0.000244678, -2.63157E-05, 3.72202E-05, -0.00017139, -0.00017139, -0.00017139
5879, 1,0.000521214, -0.000105339, 8.97015E-05, 15.7367, -5.99305, 0.0020748, 18.3259, 105.141, 0, 0.00091943, 0.000582755, 0.000789502, 17.7906, 12.6281, 0, 0.000920811, 0.000464071, 0.000629037, 13.8476, 9.99156, 0, 0.00092085, -20.1682, -8.5201, -9.19599, -13.9698, -6.59921, -9.40568, -0.000183806, 5.11611E-05, -7.20102E-05, -9.34576E-05, -9.34576E-05, -9.34576E-05
5880, 1,0.000325951, 7.28801E-05, 5.94207E-05, 4.18716, 3.83941, 0.00359064, 5.95653, 218.792, 0, 0.000888256, 0.00033102, 0.00053944, 5.29882, 13.1605, 0, 0.000891225, 0.000328987, 0.000563268, 3.44757, 14.8093, 0, 0.000891201, -12.2207, -5.95983, -21.3011, -9.62256, -7.11339, -27.6918, -2.38918E-05, 0.000132688, -0.000321943, 5.69046E-05, 5.69046E-05, 5.69046E-05
5881, 1,0.00061493, -0.00046845, 0.000329002, 12.1855, -28.8729, 0.00538043, 335.763, -107.703, 0, 0.000974512, 0.00077868, 0.00126316, 13.1284, 30.2571, 0, 0.000972332, 0.000470979, 0.000668723, 12.3368, 12.1922, 0, 0.000972618, -20.0567, -34.3155, -36.399, -10.8469, -21.0272, -4.70268, 7.42862E-05, -0.000247206, -0.000318213, -1.52259E-05, -1.52259E-05, -1.52259E-05
5882, 1,0.000664053, -0.000315845, 0.000224975, 15.6158, -19.6516, 0.00172118, 75.8329, 7.67985, 0, 0.000943853, 0.000777736, 0.00119709, 16.2547, 26.1546, 0, 0.00094357, 0.000556802, 0.000778685, 15.3589, 13.6416, 0, 0.000943762, -26.3999, -18.3765, -33.6875, -16.3421, -11.5252, -13.0576, -0.000103977, 4.40793E-05, -0.000364402, -8.77105E-05, -8.77105E-05, -8.77105E-05
5883, 1,0.000579711, -0.000187115, 0.000135705, 11.6627, -11.6177, 0.00238318, 20.7685, 121.344, 0, 0.000915259, 0.000654053, 0.0010316, 12.5726, 23.2379, 0, 0.000916717, 0.00050793, 0.000771952, 10.8606, 16.0636, 0, 0.000916824, -21.4157, -13.2129, -35.085, -14.0186, -10.1645, -24.0077, -4.24377E-05, 0.000126795, -0.000461169, 1.63557E-06, 1.63557E-06, 1.63557E-06
5884, 1,0.000421596, -7.18348E-05, 5.55154E-05, 4.57029, -4.24063, 0.00391133, 6.12262, 226.51, 0.00771032, 0.000884405, 0.000445136, 0.000784983, 5.06211, 20.5135, 0, 0.00088738, 0.000401443, 0.000709265, 4.19941, 18.4477, 0, 0.00088741, -12.4026, -8.8387, -40.299, -8.72358, -9.1745, -37.445, 8.80972E-05, 0.000193646, -0.000614203, 0.000133175, 0.000133175, 0.000133175
5885, 1,0.000709246, -0.00060715, 0.000418613, 9.47504, -37.7399, 0.00459635, 285.352, -89.6098, 0, 0.000970191, 0.000917095, 0.00160646, 10.2467, 43.0592, 0, 0.000968105, 0.000517188, 0.000822016, 9.59777, 18.8698, 0, 0.000968485, -21.772, -40.8953, -66.5103, -11.2778, -25.5944, -19.7372, 0.000240843, -0.000174951, -0.000764754, 8.16989E-05, 8.16989E-05, 8.16989E-05
5886, 1,0.00074066, -0.000435213, 0.000301744, 12.3483, -27.3133, 0.00176383, 64.0442, 25.687, 0, 0.000939502, 0.000887939, 0.0014923, 12.6229, 37.6727, 0, 0.00093932, 0.000599628, 0.000921413, 12.4511, 19.8378, 0, 0.000939592, -27.5565, -24.0008, -61.4608, -16.3461, -15.537, -27.6301, 5.35507E-05, 0.000115361, -0.000780104, 1.01193E-05, 1.01193E-05, 1.01193E-05
5887, 1,0.000677861, -0.000285871, 0.000198889, 9.98958, -18.0178, 0.00267126, 19.1618, 141.723, 0, 0.00091094, 0.000778475, 0.00132162, 10.4421, 33.6126, 0, 0.000912539, 0.000579394, 0.000937715, 9.64398, 21.9249, 0, 0.000912713, -23.2605, -18.13, -59.4472, -14.7556, -13.882, -37.137, 8.22088E-05, 0.000194486, -0.000821839, 7.85084E-05, 7.85084E-05, 7.85084E-05
5888, 1,0.000518918, -0.000145566, 0.000100253, 3.12976, -9.21735, 0.00437872, 3.30899, 231.11, 0.0255758, 0.000880526, 0.000565898, 0.00103711, 3.27699, 29.8018, 0, 0.000883455, 0.000474178, 0.000853461, 3.07781, 24.0419, 0, 0.000883538, -13.3523, -13.661, -62.3923, -8.79727, -13.0534, -50.2749, 0.00021283, 0.000246047, -0.000942051, 0.000218353, 0.000218353, 0.000218353
5889, 1,0.000834189, -0.000749384, 0.000511513, 8.12977, -46.7812, 0.00386869, 237.598, -71.4611, 0, 0.000965902, 0.00108807, 0.00198104, 8.80693, 55.9208, 0, 0.000963907, 0.000592425, 0.00100283, 8.16666, 25.5941, 0, 0.000964381, -23.0237, -47.4788, -97.2599, -11.4204, -30.1198, -35.2421, 0.000417716, -0.00010197, -0.0012233, 0.000185068, 0.000185068, 0.000185068
5890, 1,0.000851938, -0.000558164, 0.000382095, 10.4815, -35.1364, 0.00193835, 57.6257, 44.9982, 0, 0.000935202, 0.00103714, 0.00182961, 10.5962, 49.633, 0, 0.000935132, 0.000672058, 0.00109702, 10.6906, 26.4949, 0, 0.000935483, -28.6778, -30.0516, -90.1697, -16.4099, -20.0019, -43.0728, 0.000218302, 0.000184518, -0.00120808, 0.000113485, 0.000113485, 0.000113485
5891, 1,0.000772985, -0.000389993, 0.000266981, 9.46799, -24.6534, 0.00299261, 20.2975, 160.532, 0, 0.00090668, 0.000904569, 0.00159671, 9.71602, 42.2773, 0, 0.000908422, 0.000643425, 0.00107881, 9.33041, 26.1008, 0, 0.00090866, -23.1539, -21.801, -81.877, -13.745, -16.2389, -48.3184, 0.000221307, 0.000261563, -0.0011686, 0.000165941, 0.000165941, 0.000165941
5892, 1,0.000618378, -0.000231288, 0.00015576, 2.17187, -14.7028, 0.00489024, -0.814573, 235.21, 0.0469573, 0.000876656, 0.000694651, 0.00134007, 2.38714, 39.6142, 0, 0.000879533, 0.000544468, 0.00104069, 1.98931, 30.1688, 0, 0.000879668, -14.9771, -17.0951, -86.7705, -9.57886, -15.8394, -65.0883, 0.000330055, 0.000336356, -0.00130878, 0.000295583, 0.000295583, 0.000295583
5893, 1,0.000969237, -0.000893226, 0.000606009, 7.0571, -55.8902, 0.00325209, 195.758, -54.1958, 0, 0.000961672, 0.00126993, 0.00237086, 7.6815, 68.9966, 0, 0.000959752, 0.000677949, 0.00119847, 7.01277, 32.5534, 0, 0.00096032, -24.1415, -54.0048, -128.843, -11.5792, -34.623, -51.458, 0.000600377, -2.49357E-05, -0.00169516, 0.000291408, 0.000291408, 0.000291408
5894, 1,0.000962364, -0.00068282, 0.000463944, 9.38924, -43.0302, 0.00222783, 57.7441, 62.9205, 0, 0.000931043, 0.00118758, 0.00215951, 9.44505, 60.5589, 0, 0.000931079, 0.000741611, 0.00126141, 9.60686, 32.1385, 0, 0.000931508, -29.0411, -35.06, -117.576, -15.8864, -23.3746, -57.1543, 0.000382967, 0.00025882, -0.00162432, 0.00021352, 0.00021352, 0.00021352
5895, 1,0.00089611, -0.000496472, 0.000336974, 7.62026, -31.3903, 0.00338662, 21.4323, 184.013, 0, 0.000902286, 0.00106238, 0.00193809, 7.83715, 54.6975, 0, 0.000904181, 0.00073148, 0.0012798, 7.4954, 34.044, 0, 0.000904484, -25.4515, -28.384, -110.257, -15.1299, -21.727, -65.275, 0.000367861, 0.000325707, -0.00158081, 0.000261229, 0.000261229, 0.000261229
5896, 1,0.000707653, -0.000317536, 0.000212897, 1.16081, -20.1976, 0.00540426, 2.8839, 233.285, 0.0647677, 0.000872965, 0.000811249, 0.00155755, 1.2213, 47.993, 1.34409E-07, 0.000875718, 0.000605865, 0.00114317, 1.17356, 34.8606, 1.34409E-07, 0.000875905, -15.7971, -22.8347, -105.347, -9.75689, -20.3378, -74.487, 0.00044284, 0.000354576, -0.00157574, 0.000363956, 0.000363956, 0.000363956
5897, 1,0.00110842, -0.00103792, 0.000701546, 6.21748, -65.0354, 0.00285756, 165.438, -38.3667, 0, 0.000957379, 0.00145625, 0.00276695, 6.79943, 82.019, 0, 0.000955511, 0.000768535, 0.0014012, 6.14462, 39.4613, 0, 0.000956171, -25.3567, -60.2177, -160.483, -11.9224, -38.8557, -67.6059, 0.000779488, 5.73061E-05, -0.00216782, 0.000392366, 0.000392366, 0.000392366
5898, 1,0.0010861, -0.000808658, 0.000546672, 7.9955, -50.9735, 0.00262736, 63.0404, 80.9031, 0, 0.00092682, 0.00135346, 0.00251579, 8.09476, 72.7658, 0, 0.000926942, 0.000822138, 0.00144852, 8.10743, 39.0774, 0, 0.000927449, -29.9192, -40.9731, -147.405, -15.9683, -27.7636, -73.5003, 0.000556684, 0.000333543, -0.00207083, 0.000320981, 0.000320981, 0.000320981
5899, 1,0.00099132, -0.000602912, 0.000407604, 7.45266, -38.1142, 0.00385835, 33.7702, 197.481, 0, 0.000898062, 0.0011899, 0.0022009, 7.5343, 62.895, 0, 0.000900025, 0.00079432, 0.00140488, 7.46229, 37.7825, 0, 0.000900392, -25.9064, -32.2175, -130.561, -14.8367, -24.1424, -74.3683, 0.000488285, 0.000380295, -0.00188884, 0.000327086, 0.000327086, 0.000327086
5900, 1,0.000829477, -0.000405773, 0.00027157, 0.299308, -25.7848, 0.00621638, -1.45457, 237.074, 0.0986231, 0.000868927, 0.000960149, 0.00189945, 0.274092, 58.5441, 0, 0.000871644, 0.000701984, 0.00137186, 0.507278, 41.7462, 0, 0.000871881, -17.193, -24.7775, -133.662, -10.4692, -21.6937, -93.0757, 0.00057349, 0.000490452, -0.00201344, 0.000451786, 0.000451786, 0.000451786
5901, 1,0.00126056, -0.00118301, 0.000797462, 5.6505, -74.1915, 0.00268564, 145.57, -22.4139, 0, 0.000953136, 0.00165684, 0.00317796, 6.24909, 95.4669, 0, 0.000951314, 0.000871128, 0.00161725, 5.50987, 46.7976, 0, 0.000952066, -26.8894, -66.1351, -193.376, -12.6975, -42.8669, -84.8285, 0.000959716, 0.000151728, -0.00266067, 0.00049202, 0.00049202, 0.00049202
5902, 1,0.00121907, -0.000934758, 0.000630044, 8.32279, -58.9234, 0.00303326, 65.4267, 103.36, 0, 0.000922576, 0.00152787, 0.00287051, 8.42951, 83.3621, 0, 0.000922876, 0.000913188, 0.00163584, 8.3993, 44.4228, 0, 0.000923459, -29.9336, -45.3454, -174.807, -15.2325, -30.6585, -87.3775, 0.000722839, 0.000416489, -0.00249185, 0.000420126, 0.000420126, 0.000420126
5903, 1,0.0010989, -0.000710392, 0.000477712, 6.67723, -44.9054, 0.00465471, 25.6159, 214.899, 0.0263635, 0.000893663, 0.00133603, 0.00251306, 6.93987, 72.8382, 0, 0.000895772, 0.000862888, 0.00157012, 6.46593, 43.2852, 0, 0.000896202, -24.4891, -35.5383, -158.487, -12.9052, -26.2664, -90.6839, 0.000669662, 0.000476604, -0.00232782, 0.000449772, 0.000449772, 0.000449772
5904, 1,0.000923288, -0.000491694, 0.000328199, 0.129463, -31.2828, 0.00739611, -0.692258, 236.875, 0.144611, 0.000865012, 0.0010799, 0.00213525, 0.140325, 66.5997, 0, 0.000867698, 0.000768765, 0.00149381, 0.319542, 46.1378, 0, 0.000867986, -20.3806, -28.5169, -150.902, -12.9748, -24.4372, -101.002, 0.000620459, 0.000551953, -0.00225256, 0.000456245, 0.000456245, 0.000456245
5905, 1,0.00141562, -0.00132778, 0.000892909, 5.79914, -83.324, 0.00264834, 132.952, -7.53776, 0, 0.000948928, 0.00185933, 0.00358313, 6.36439, 107.961, 0, 0.000947151, 0.000976766, 0.00182742, 5.57827, 53.1869, 0, 0.000947994, -26.7754, -70.7055, -226.401, -11.965, -45.485, -102.111, 0.00116277, 0.000259834, -0.00317456, 0.000611659, 0.000611659, 0.000611659
5906, 1,0.00135029, -0.00106135, 0.000713646, 7.7521, -66.8857, 0.00337203, 57.5287, 135.382, 0, 0.000918183, 0.00170268, 0.00322791, 7.97111, 95.1333, 0, 0.000918783, 0.00100027, 0.00182278, 7.69365, 50.9642, 0, 0.000919442, -30.6574, -50.7612, -203.981, -15.3512, -34.6571, -102.884, 0.000894146, 0.00049662, -0.00293424, 0.00052166, 0.00052166, 0.00052166
5907, 1,0.00119567, -0.000815138, 0.000547, 6.0818, -51.5812, 0.00580878, 19.4986, 222.505, 0.0708851, 0.00088941, 0.00146537, 0.00279437, 6.26022, 81.7952, 0, 0.000891575, 0.00092752, 0.00171348, 5.96065, 47.8182, 0, 0.000892067, -24.0789, -37.2881, -184.019, -11.9639, -26.6697, -104.821, 0.000804722, 0.000594924, -0.00272644, 0.00052693, 0.00052693, 0.00052693
5908, 1,0.00106833, -0.000578575, 0.000386175, 0.912683, -36.8637, 0.00913503, -2.98626, 240.086, 0.212806, 0.000860842, 0.00125581, 0.00245259, 0.961886, 76.2748, -1.69407E-21, 0.000863587, 0.000882566, 0.00169312, 0.971356, 52.1523, -1.69407E-21, 0.000863925, -19.8988, -33.7062, -175.219, -11.8725, -28.8295, -115.755, 0.000768673, 0.00061441, -0.0026201, 0.000561228, 0.000561228, 0.000561228
5909, 1,0.00157872, -0.00147359, 0.00099, 6.01534, -92.5091, 0.00272116, 121.602, 12.4896, 0, 0.000944655, 0.00206931, 0.00399847, 6.49614, 120.92, 0, 0.000942994, 0.00109249, 0.0020498, 5.84455, 60.029, 0, 0.000943926, -27.8093, -76.2749, -258.676, -12.3571, -49.2789, -118.451, 0.00134981, 0.000355273, -0.00366731, 0.000715643, 0.000715643, 0.000715643
5910, 1,0.00146081, -0.00118562, 0.000795245, 9.20558, -74.7324, 0.00378128, 57.5146, 161.154, 0, 0.000913882, 0.00185414, 0.00350763, 9.39683, 102.228, 0, 0.000914756, 0.00106892, 0.00193413, 9.08863, 52.8345, 0, 0.00091549, -26.5552, -51.1613, -228.969, -10.9313, -33.1651, -114.407, 0.0010976, 0.000607337, -0.0033635, 0.000649387, 0.000649387, 0.000649387
5911, 1,0.00131621, -0.000917492, 0.000615456, 2.94649, -58.124, 0.00721619, 11.8099, 230.098, 0.12717, 0.000885199, 0.00161805, 0.00314675, 3.05502, 96.2063, 0, 0.000887377, 0.00101644, 0.00193059, 2.91932, 57.8375, 0, 0.00088793, -29.0289, -42.1288, -217.461, -16.257, -30.4062, -126.849, 0.000913463, 0.000733352, -0.00320739, 0.000580501, 0.000580501, 0.000580501
5912, 1,0.00118533, -0.000667176, 0.000444729, 3.63074, -42.5058, 0.0113581, -2.52777, 242.075, 0.296291, 0.000856695, 0.00140252, 0.00274284, 3.76382, 81.9184, 0, 0.000859593, 0.000970456, 0.00186601, 3.60625, 54.1637, 0, 0.00085998, -16.4346, -33.1669, -196.154, -8.0429, -27.6856, -126.763, 0.000920103, 0.000736705, -0.00298531, 0.000664286, 0.000664286, 0.000664286
5913, 1,0.00174299, -0.00162042, 0.00108829, 7.476, -101.754, 0.00291384, 117.1, 30.7539, 0, 0.000940416, 0.00228103, 0.00439781, 7.87519, 132.218, 0, 0.000938869, 0.0012096, 0.00225568, 7.40675, 65.1843, 0, 0.000939891, -28.2218, -80.6835, -287.75, -12.1874, -51.9925, -131.373, 0.00152623, 0.000452947, -0.00412471, 0.000807312, 0.000807312, 0.000807312
5914, 1,0.00162133, -0.00131254, 0.000878644, 3.58974, -82.717, 0.00468765, 52.1547, 195.866, 0.0168767, 0.000909423, 0.00205801, 0.00397877, 3.89462, 122.221, 0, 0.000910538, 0.00118611, 0.00223493, 3.34909, 67.636, 0, 0.000911345, -30.8844, -60.3142, -275.464, -14.8654, -41.4786, -146.564, 0.00131932, 0.00073819, -0.00404042, 0.000797975, 0.000797975, 0.000797975
5915, 1,0.00146144, -0.00102359, 0.000686067, 8.23832, -64.8434, 0.00897096, 9.25437, 230.88, 0.197586, 0.000881061, 0.00179225, 0.0034573, 8.18771, 100.651, 0, 0.000883335, 0.00113226, 0.00210636, 8.41816, 57.9446, 0, 0.000883947, -26.138, -39.1431, -236.673, -12.9228, -26.677, -134.234, 0.00104376, 0.000887434, -0.00356384, 0.000651923, 0.000651923, 0.000651923
5916, 1,0.00122606, -0.000754585, 0.000503156, -1.58519, -48.0886, 0.0138349, -2.53771, 245.979, 0.384386, 0.000852341, 0.0014753, 0.00294717, -1.40923, 94.1672, 0, 0.000855375, 0.000978624, 0.00195036, -1.73099, 62.7872, 0, 0.000855811, -20.5034, -42.399, -219.599, -11.9523, -35.9575, -140.452, 0.00102499, 0.000765365, -0.00331753, 0.000715608, 0.000715608, 0.000715608
5917, 1,0.0019256, -0.00177177, 0.00118945, 5.66705, -111.244, 0.00290721, 84.8851, 72.6872, 0, 0.000935506, 0.00251565, 0.00487868, 6.23758, 148.555, 0, 0.000934355, 0.00134041, 0.00253434, 5.47996, 75.3369, 0, 0.000935466, -31.5739, -87.7016, -326.39, -15.0959, -57.967, -152.948, 0.00172395, 0.000577251, -0.00471182, 0.00091688, 0.00091688, 0.00091688
5918, 1,0.001776, -0.00143947, 0.000963634, 8.5822, -90.7359, 0.00644589, 36.794, 212.155, 0.083698, 0.000904971, 0.00225953, 0.00432754, 9.21497, 127.854, -1.0842E-19, 0.000906362, 0.00129338, 0.00240977, 7.99311, 68.0971, -1.0842E-19, 0.000907241, -27.0291, -58.5363, -297.996, -10.8201, -38.745, -154.726, 0.00149334, 0.000885663, -0.00445331, 0.000894525, 0.000894525, 0.000894525
5919, 1,0.00162379, -0.00113072, 0.000757655, 7.07653, -71.6007, 0.0113858, 2.94117, 237.578, 0.292358, 0.00087665, 0.00199599, 0.00381565, 7.37079, 113.836, 0, 0.000879073, 0.00125387, 0.00231697, 6.96309, 66.8911, 0, 0.000879743, -25.0312, -47.0203, -269.457, -11.848, -33.8475, -154.978, 0.00128187, 0.00096103, -0.00408948, 0.000823048, 0.000823048, 0.000823048
5920, 1,0.00135637, -0.0008389, 0.000559516, 1.94566, -53.4974, 0.0168024, -2.54996, 249.145, 0.489152, 0.000847932, 0.00162941, 0.00321939, 2.18161, 99.7049, 0, 0.000851282, 0.00108498, 0.00211394, 1.90434, 64.8212, 0, 0.000851764, -20.7579, -40.0781, -238.279, -12.0303, -33.2084, -149.225, 0.00111004, 0.000943925, -0.00367095, 0.000749055, 0.000749055, 0.000749055
5921, 1,0.00199237, -0.00192945, 0.00129532, 1.55379, -121.184, 0.00298548, 71.8123, 91.708, 0.00111894, 0.000931109, 0.00263831, 0.00517311, 2.37477, 161.918, 0, 0.00093005, 0.0013545, 0.00261896, 1.45151, 82.1421, 0, 0.000931254, -38.4486, -94.1129, -353.194, -21.6772, -62.7233, -162.026, 0.0018012, 0.000664141, -0.00509286, 0.00089673, 0.00089673, 0.00089673
5922, 1,0.0019308, -0.00156987, 0.00105146, 3.00402, -98.93, 0.00862866, 21.7716, 225.421, 0.170349, 0.000900565, 0.00245924, 0.0047459, 3.79634, 147.011, 0, 0.000902058, 0.00140319, 0.00265368, 2.2466, 82.0849, 0, 0.000903009, -33.3977, -71.7375, -335.899, -17.1757, -51.3551, -177.724, 0.00167471, 0.000940467, -0.00500038, 0.000994366, 0.000994366, 0.000994366
5923, 1,0.00174521, -0.00123691, 0.000829495, 7.31531, -78.2631, 0.0142085, -2.50763, 244.995, 0.400313, 0.000871867, 0.00215709, 0.00413873, 7.95524, 122.618, 0, 0.0008746, 0.00133654, 0.00249562, 6.91753, 71.5819, 0, 0.000875324, -22.9835, -50.1585, -294.713, -10.1578, -36.6547, -167.933, 0.00147103, 0.00107575, -0.00453587, 0.000940021, 0.000940021, 0.000940021
5924, 1,0.00143894, -0.000919007, 0.000614269, -1.21569, -58.6418, 0.019735, -5.07146, 250.671, 0.600846, 0.000843192, 0.00174457, 0.00347268, -0.883483, 110.006, 0, 0.000846855, 0.00113573, 0.00225403, -1.49091, 71.78, 0, 0.00084738, -20.4406, -46.6983, -262.878, -11.7506, -39.2117, -164.378, 0.00129052, 0.00100984, -0.00408451, 0.000874926, 0.000874926, 0.000874926
5925, 1,0.00247178, -0.00208644, 0.00139759, 20.5187, -131.219, 0.00607446, 29.3439, 132.698, 0.121058, 0.000926051, 0.00317603, 0.00600263, 21.692, 169.772, 0, 0.000925639, 0.00176949, 0.00322059, 19.6371, 83.3874, 0, 0.000926937, -21.5599, -78.1646, -409.592, -4.55496, -46.6026, -199.005, 0.00227959, 0.00117037, -0.00620493, 0.00127604, 0.00127604, 0.00127604
5926, 1,0.001936, -0.00169822, 0.00113934, 3.3998, -107.057, 0.0106498, -3.75592, 237.983, 0.272963, 0.000896127, 0.00250921, 0.00496013, 4.24637, 151.721, 0, 0.000898005, 0.00137109, 0.0026976, 3.2161, 81.524, 0, 0.000899028, -37.9813, -65.3026, -351.879, -21.948, -44.0824, -178.542, 0.00166253, 0.00118537, -0.00530961, 0.000894607, 0.000894607, 0.000894607
5927, 1,0.00195184, -0.00134501, 0.000904915, 10.3551, -84.9428, 0.017134, -3.42838, 252.353, 0.497083, 0.00086748, 0.00241142, 0.00454363, 11.6707, 134.259, 0, 0.000870511, 0.00149488, 0.00274511, 9.17139, 79.2181, 0, 0.000871289, -18.7528, -56.7441, -327.281, -6.76805, -42.9443, -187.942, 0.00175711, 0.00116077, -0.00509597, 0.00114323, 0.00114323, 0.00114323
5928, 1,0.0016807, -0.00100354, 0.000672963, 5.57861, -63.9317, 0.0230779, -5.62127, 251.836, 0.719659, 0.000838618, 0.00201101, 0.00390566, 6.15762, 116.458, 0, 0.000842771, 0.00135405, 0.00258016, 5.46817, 74.9613, 0, 0.000843338, -15.729, -42.6968, -290.947, -7.35355, -35.3356, -182.195, 0.00150967, 0.00123868, -0.00463726, 0.00103338, 0.00103338, 0.00103338
5929, 1,0.00255872, -0.00226096, 0.00151404, 3.10529, -142.205, 0.00853503, 12.4971, 157.918, 0.222092, 0.000921158, 0.00330915, 0.00647941, 3.70426, 202.15, 0, 0.000920831, 0.00181081, 0.00347814, 2.60727, 108.706, 0, 0.000922228, -31.8231, -104.534, -470.093, -14.8554, -72.0625, -239.2, 0.00256264, 0.00115597, -0.00699894, 0.00144792, 0.00144792, 0.00144792
5930, 1,0.00242664, -0.00183137, 0.00123325, 15.4718, -115.128, 0.0143469, 4.24713, 235.629, 0.392992, 0.000891408, 0.00305155, 0.00575907, 17.1993, 166.229, 0, 0.000893371, 0.00180425, 0.00330681, 13.8064, 91.4598, 0, 0.000894456, -28.1226, -63.7485, -406.816, -13.0784, -43.4746, -217.826, 0.00210571, 0.00147934, -0.00628218, 0.00124423, 0.00124423, 0.00124423
5931, 1,0.002157, -0.00146168, 0.000988115, 13.4539, -91.9128, 0.0201378, -2.76425, 256.145, 0.592921, 0.000862565, 0.00266467, 0.00500792, 15.6366, 145.316, 8.47033E-22, 0.000865895, 0.00165295, 0.00304546, 11.4885, 86.3956, 8.47033E-22, 0.000866724, -18.409, -55.665, -361.873, -7.88292, -42.344, -208.96, 0.00195852, 0.00137995, -0.00569604, 0.00125009, 0.00125009, 0.00125009
5932, 1,0.00186398, -0.00110089, 0.000741626, 4.3298, -69.7946, 0.0252295, -5.08053, 254.629, 0.78415, 0.000833923, 0.00223933, 0.00432411, 5.31609, 133.714, 0, 0.000838251, 0.00149182, 0.00285938, 3.49984, 88.701, 0, 0.000838864, -14.6529, -58.1289, -328.36, -6.98131, -50.3968, -208.725, 0.00183033, 0.00119507, -0.00519447, 0.00128005, 0.00128005, 0.00128005
5933, 1,0.00302171, -0.00243679, 0.00163445, 24.2368, -152.929, 0.0111563, 3.86904, 182.754, 0.319531, 0.000916347, 0.00383943, 0.00717648, 25.6504, 207.284, 0, 0.000916572, 0.00220556, 0.00393109, 22.9333, 107.515, 0, 0.000918057, -19.5896, -96.2738, -505.988, -2.82654, -65.2418, -254.476, 0.00288756, 0.00142455, -0.00767567, 0.0016692, 0.0016692, 0.0016692
5934, 1,0.0029569, -0.00200501, 0.00135969, 30.4573, -123.315, 0.0171141, 5.51735, 230.704, 0.488274, 0.000886723, 0.00366445, 0.00661242, 33.8053, 171.871, 0.0067431, 0.000888805, 0.00225278, 0.00390726, 27.2676, 92.8116, 0.00569389, 0.000889951, -9.1363, -56.3157, -450.162, 3.79634, -37.2197, -245.012, 0.00273461, 0.00183978, -0.00737357, 0.00173946, 0.00173946, 0.00173946
5935, 1,0.00253131, -0.00159697, 0.00108707, 21.4633, -99.563, 0.0221524, -6.97587, 257.475, 0.666037, 0.000857692, 0.00310624, 0.00572885, 24.8761, 160.601, 0.00039508, 0.000861167, 0.0019577, 0.00356119, 18.1053, 97.2879, 0.000133419, 0.000862052, -11.097, -53.2206, -417.485, -2.138, -40.1905, -249.535, 0.00237512, 0.00167663, -0.00665796, 0.00155717, 0.00155717, 0.00155717
5936, 1,0.00212836, -0.00121428, 0.000821731, 9.01198, -76.6702, 0.0279236, -3.11747, 251.165, 0.873359, 0.000829092, 0.00253871, 0.00491976, 10.3059, 147.227, 0, 0.000833716, 0.00172547, 0.00331203, 8.3603, 97.9738, 0, 0.000834383, -14.68, -50.5091, -376.492, -7.53545, -42.9088, -243.477, 0.00206232, 0.00156145, -0.0060122, 0.00143116, 0.00143116, 0.00143116
5937, 1,0.00415022, -0.00266089, 0.00178791, 16.7803, -161.237, 0.0147278, 5.56977, 191.572, 0.448982, 0.00091163, 0.00505508, 0.00919393, 19.4599, 211.28, 0.0505022, 0.000912196, 0.00324882, 0.00564146, 14.3245, 106.652, 0.05041, 0.000913791, -29.861, -73.6261, -530.354, -12.8076, -45.5856, -261.562, 0.0037428, 0.00274399, -0.0100145, 0.0024112, 0.0024112, 0.0024112
5938, 1,0.0036275, -0.00220778, 0.00149878, 26.8864, -133.293, 0.0195077, 9.62796, 223.417, 0.569797, 0.000882363, 0.0044158, 0.00786016, 31.595, 183.008, 0.0310949, 0.000884389, 0.00283984, 0.00487274, 22.2027, 98.6428, 0.0301953, 0.000885622, -13.8947, -52.7699, -482.358, -1.97135, -35.8116, -258.145, 0.00330604, 0.00246906, -0.00879689, 0.00220231, 0.00220231, 0.00220231
5939, 1,0.00317833, -0.00177617, 0.00121895, 28.687, -108.23, 0.0243754, -7.39476, 250.147, 0.754393, 0.000853167, 0.00382924, 0.00676704, 33.3293, 169.976, 0.0153163, 0.000856782, 0.00253277, 0.00435222, 24.2381, 101.683, 0.0143888, 0.000857741, 1.83607, -47.2822, -464.481, 8.80728, -34.4911, -279.366, 0.00313583, 0.00217331, -0.00809069, 0.00219061, 0.00219061, 0.00219061
5940, 1,0.00247309, -0.00136565, 0.000928051, 14.5981, -85.6158, 0.0313246, -6.42954, 254.898, 0.978352, 0.000824001, 0.00295165, 0.00561076, 16.9873, 162.881, 0.000829247, 0.000829346, 0.00200042, 0.00378329, 12.5613, 108.414, 0.000784259, 0.00083008, -3.81492, -48.8283, -436.001, 2.26189, -41.4885, -286.015, 0.00255647, 0.00185212, -0.00705229, 0.00181897, 0.00181897, 0.00181897
5941, 1,0.00486564, -0.00297531, 0.00201786, 6.31787, -167.554, 0.0165345, -2.79185, 202.52, 0.522185, 0.000907601, 0.00590307, 0.0106445, 8.89041, 224.872, 0.084598, 0.000908334, 0.00383966, 0.00664908, 4.12917, 115.637, 0.0781579, 0.000910032, -41.7703, -66.3369, -566.51, -22.0938, -43.627, -281.19, 0.0043708, 0.00378116, -0.0119816, 0.00287817, 0.00287817, 0.00287817
5942, 1,0.00473195, -0.00246187, 0.00166523, 18.2308, -145.651, 0.0218015, 8.40919, 216.571, 0.665395, 0.000878417, 0.00559596, 0.0098428, 22.7894, 201.03, 0.073495, 0.000880341, 0.00386918, 0.00652878, 13.707, 108.441, 0.0730714, 0.000881722, -25.0063, -45.8135, -532.27, -10.5162, -31.4005, -283.407, 0.0042085, 0.00370449, -0.0113143, 0.00303037, 0.00303037, 0.00303037
5943, 1,0.00427536, -0.00201576, 0.00138503, 16.6909, -119.628, 0.0284526, 1.25892, 236.982, 0.886181, 0.000848946, 0.00501609, 0.00886211, 22.0008, 183.679, 0.0635311, 0.00085279, 0.00354068, 0.00612555, 11.59, 108.563, 0.063214, 0.000853868, -12.5293, -35.4496, -503.057, -4.74505, -25.7578, -295.186, 0.00404848, 0.00354512, -0.0106833, 0.00301588, 0.00301588, 0.00301588
5944, 1,0.00344375, -0.00160648, 0.00109778, 3.11983, -97.316, 0.0331709, 5.72241, 266.755, 1, 0.000819694, 0.00394339, 0.00741657, 3.871, 182.731, 0.0390529, 0.000825256, 0.00294495, 0.0053488, 2.57249, 120.466, 0.0390529, 0.000826109, -9.80019, -46.8023, -491.59, -4.22271, -39.3459, -317.831, 0.00361949, 0.00285261, -0.00950282, 0.00275446, 0.00275446, 0.00275446
5945, 1,0.00621614, -0.00337751, 0.002303, 5.18866, -169.714, 0.0180457, -3.07694, 204.549, 0.578124, 0.000903697, 0.00743546, 0.012938, 7.92108, 230.152, 0.140461, 0.000904463, 0.00500185, 0.00835825, 2.65386, 119.082, 0.123273, 0.000906253, -45.5689, -47.7189, -597.168, -25.9764, -32.3346, -298.935, 0.00549045, 0.00553791, -0.0150806, 0.00369315, 0.00369315, 0.00369315
5946, 1,0.00588137, -0.0027528, 0.00186282, 18.0281, -158.388, 0.0250198, 11.2093, 205.93, 0.796369, 0.000874928, 0.00678489, 0.0118823, 21.862, 206.94, 0.120071, 0.000877044, 0.00498162, 0.00824285, 14.3443, 106.907, 0.12007, 0.000878571, -35.3032, -17.5249, -567.991, -17.5349, -11.5382, -291.647, 0.00486414, 0.00558459, -0.0140476, 0.00357338, 0.00357338, 0.00357338
5947, 1,0.00541918, -0.00232668, 0.00159154, 0.858052, -134.091, 0.0337939, 23.8462, 229.11, 1, 0.000844889, 0.00617721, 0.0110624, 3.23154, 209.534, 0.111609, 0.000848942, 0.00468867, 0.00803244, -0.700339, 123.986, 0.111609, 0.0008502, -27.4494, -34.9398, -566.212, -16.1201, -27.9698, -327.869, 0.0051617, 0.00503596, -0.0138232, 0.00404612, 0.00404612, 0.00404612
5948, 1,0.00475735, -0.00187964, 0.00128393, 10.2591, -109.948, 0.0342808, 14.292, 285.955, 1, 0.000815705, 0.00538809, 0.00946837, 12.9275, 190.806, 0.0814004, 0.000821645, 0.00413311, 0.00701633, 7.85779, 120.259, 0.0814004, 0.000822631, -14.1512, -24.9239, -533.344, -7.06163, -21.5654, -332.15, 0.00458241, 0.00438089, -0.0122064, 0.00360516, 0.00360516, 0.00360516
5949, 1,0.0110106, -0.00408121, 0.00278391, 22.8817, -169.796, 0.0226364, 11.7473, 195.58, 0.720814, 0.000900517, 0.0124741, 0.0199749, 26.5126, 218.789, 0.310817, 0.000901431, 0.00955545, 0.0144719, 19.4024, 107.516, 0.280473, 0.00090344, -37.4703, -8.807, -610.09, -17.2785, -3.14083, -302.128, 0.00886708, 0.0106037, -0.0237659, 0.00660992, 0.00660992, 0.00660992
5950, 1,0.00872441, -0.00330379, 0.00223042, 12.1259, -168.652, 0.0295735, 18.4079, 204.281, 0.918922, 0.000871457, 0.00984281, 0.0158356, 16.4563, 243.493, 0.200624, 0.000873511, 0.0076097, 0.0114501, 7.90476, 132.31, 0.191055, 0.0008753, -75.5821, -14.319, -640.578, -47.0099, -13.4674, -336.452, 0.00588238, 0.00862474, -0.0189563, 0.00435866, 0.00435866, 0.00435866
5951, 1,0.00671653, -0.0026787, 0.00178957, 11.3103, -154.356, 0.0339108, 14.9974, 253.41, 1, 0.000841539, 0.00759022, 0.0128086, 12.9785, 236.174, 0.132179, 0.000845899, 0.00584433, 0.00930204, 9.71945, 132.974, 0.132179, 0.00084743, -53.3663, -19.5866, -635.569, -29.1725, -14.1888, -355.561, 0.00526504, 0.00654769, -0.01595, 0.00409184, 0.00409184, 0.00409184
5952, 1,0.00599832, -0.00216576, 0.00147235, 3.77709, -123.134, 0.0350455, 9.0973, 317.452, 1, 0.000811699, 0.0067084, 0.0116596, 4.93243, 212.587, 0.12574, 0.000818175, 0.00529335, 0.00886655, 2.79294, 131.266, 0.12574, 0.000819337, -22.3385, -21.63, -593.792, -10.8447, -19.7433, -363.211, 0.00577189, 0.00585889, -0.0153404, 0.0047216, 0.0047216, 0.0047216
5953, 1,0.0151134, -0.00527494, 0.00363836, 1.80871, -183.657, 0.0289692, -16.6471, 252.678, 0.875919, 0.00089638, 0.0170292, 0.0265116, 0.457453, 265.977, 0.447694, 0.000898415, 0.013207, 0.0194073, 3.28811, 136.042, 0.394121, 0.000901043, -72.0435, -38.3709, -687.517, -38.5252, -21.8407, -347.762, 0.0118606, 0.0143946, -0.0320085, 0.00894645, 0.00894645, 0.00894645
5954, 1,0.0125995, -0.00411608, 0.00278658, -0.610878, -190.343, 0.0352944, -10.3356, 270.011, 0.994492, 0.000868946, 0.0140451, 0.0211407, -2.59341, 298.85, 0.3037, 0.000872435, 0.0111578, 0.0156315, 1.4514, 157.146, 0.282193, 0.000874891, -135.445, -34.1623, -726.942, -76.771, -18.9772, -375.69, 0.00689765, 0.01244, -0.0251765, 0.00517518, 0.00517518, 0.00517518
5955, 1,0.00998512, -0.00310992, 0.00207989, -4.71184, -174.41, 0.0362584, 3.19519, 306.136, 1, 0.000839712, 0.0110229, 0.0169442, -3.66696, 299.811, 0.206898, 0.000844546, 0.00895156, 0.0128521, -5.64919, 173.51, 0.206898, 0.000846505, -142.659, -38.279, -718.495, -90.514, -29.7402, -400.277, 0.00506658, 0.00960499, -0.0201715, 0.00395811, 0.00395811, 0.00395811
5956, 1,0.007874, -0.0024048, 0.00163318, 13.831, -134.674, 0.0363798, 10.1942, 342.962, 1, 0.000809408, 0.00868229, 0.0140231, 16.3369, 239.838, 0.16038, 0.000816169, 0.00706952, 0.0108954, 11.4375, 148.762, 0.16038, 0.000817495, -58.0543, -0.572998, -660.888, -34.9569, -3.77582, -407.553, 0.00581626, 0.00806124, -0.0181516, 0.0048203, 0.0048203, 0.0048203
5957, 1,0.0184683, 0.00217545, 0.00148788, 358.397, 110.827, 0.0516576, 475.306, -144.623, 0.818843, 0.00110455, 0.0205453, 0.0153705, 468.961, -169.628, 0.263002, 0.00110334, 0.0164147, 0.0126952, 248.082, -94.8879, 0.263002, 0.00110177, 176.182, -1.78165, 334.483, 94.419, 3.06118, 187.183, 0.00111652, -0.0100371, 0.012146, 0.000181695, 0.000181695, 0.000181695
5958, 1,0.0163646, 0.00198303, 0.00135889, 373.907, 106.641, 0.0336899, 411.575, -107.481, 0.522937, 0.00107584, 0.0182572, 0.0135509, 480.211, -187.385, 0.220127, 0.00107692, 0.0144941, 0.0111808, 267.889, -109.466, 0.220127, 0.00107537, 169.526, 20.6059, 372.022, 96.192, 15.719, 216.486, -3.85725E-05, -0.00862516, 0.01213, -0.000624386, -0.000624386, -0.000624386
5959, 1,0.0135853, 0.00164021, 0.00117996, 407.164, 93.7983, 0.0192559, 272.227, -75.4468, 0.300548, 0.00104365, 0.0151683, 0.011098, 500.627, -221.723, 0.163446, 0.00104625, 0.0120179, 0.00891178, 313.954, -152.931, 0.163446, 0.00104496, 182.325, 81.0413, 401.804, 125.217, 68.6992, 264.878, -0.000615703, -0.00575315, 0.010328, -0.000975437, -0.000975437, -0.000975437
5960, 1,0.00917206, 0.0011731, 0.000828958, 404.503, 70.5729, 0.00352995, 149.405, 11.9599, 0.00586952, 0.00101082, 0.010313, 0.00743329, 474.399, -177.137, 0.0625347, 0.00101404, 0.00804031, 0.00586628, 334.916, -128.822, 0.0625347, 0.00101321, 148.109, 69.566, 313.736, 102.004, 48.4882, 235.975, 0.000264182, -0.0024469, 0.00516169, -5.11879E-05, -5.11879E-05, -5.11879E-05
5961, 1,0.0164295, 0.00200922, 0.00139635, 341.011, 103.377, 0.0554823, 486.82, -159.419, 0.87973, 0.00107528, 0.0183287, 0.0134255, 443.989, -144.668, 0.222459, 0.0010727, 0.0145578, 0.0109382, 238.38, -78.2614, 0.22241, 0.00107138, 120.45, -13.8101, 327.366, 60.1719, -10.3788, 184.991, -0.000942298, -0.00821593, 0.0118376, -0.00151223, -0.00151223, -0.00151223
5962, 1,0.0134486, 0.00183921, 0.00129522, 372.464, 100.151, 0.0332651, 435.896, -139.438, 0.511192, 0.00104607, 0.0151802, 0.0107897, 471.992, -181.384, 0.161273, 0.00104614, 0.0117482, 0.00859958, 273.442, -112.67, 0.161273, 0.00104486, 132.92, 37.2144, 374.018, 80.8013, 31.0689, 226.138, -0.00144336, -0.00594655, 0.010624, -0.00168525, -0.00168525, -0.00168525
5963, 1,0.0121736, 0.00160111, 0.00114097, 389.116, 89.7855, 0.0183653, 303.591, -85.9104, 0.271387, 0.00101401, 0.0136946, 0.0100592, 478.207, -184.503, 0.132263, 0.00101562, 0.0106753, 0.00792492, 300.489, -123.357, 0.132263, 0.00101453, 133.6, 60.653, 359.255, 86.1315, 49.561, 234.379, -0.00108376, -0.00434777, 0.00866419, -0.00134327, -0.00134327, -0.00134327
5964, 1,0.00876286, 0.00113457, 0.000801704, 406.887, 69.8295, 0.00232801, 107.282, 11.587, 0, 0.000981901, 0.00988759, 0.00709114, 476.424, -180.966, 0.0538729, 0.000985063, 0.00764107, 0.00553872, 337.484, -132.657, 0.0538729, 0.000984267, 171.971, 75.2642, 295.661, 122.943, 58.5382, 216.491, 0.000922582, -0.00223342, 0.00433908, 0.000595067, 0.000595067, 0.000595067
5965, 1,0.0115914, 0.0016751, 0.00116448, 328.053, 90.923, 0.0571043, 482.423, -159.492, 0.90832, 0.00107408, 0.0131699, 0.00971932, 418.295, -136.601, 0.129596, 0.00107101, 0.0100439, 0.00757665, 238.352, -79.4182, 0.129154, 0.00106994, 87.8738, -3.77364, 325.703, 43.4122, -1.9956, 196.838, -0.00175859, -0.00520426, 0.00935128, -0.00209319, -0.00209319, -0.00209319
5966, 1,0.00888391, 0.0014841, 0.00106819, 320.335, 84.0179, 0.0356547, 445.865, -143.969, 0.551144, 0.00104405, 0.0102828, 0.00745607, 403.251, -131.221, 0.0784998, 0.00104285, 0.00751657, 0.00547076, 238.199, -77.8839, 0.0784377, 0.00104191, 58.6305, 22.1328, 312.901, 27.5662, 15.4246, 190.661, -0.00199225, -0.00312379, 0.0073425, -0.0019578, -0.0019578, -0.0019578
5967, 1,0.00740314, 0.00128037, 0.000924275, 359.647, 76.4656, 0.0203767, 275.47, -78.0631, 0.323177, 0.00101152, 0.00864013, 0.00633249, 434.769, -130.663, 0.0330471, 0.00101214, 0.00618363, 0.00456235, 285.221, -82.8017, 0.0330471, 0.00101134, 62.7722, 25.1759, 304.041, 28.4948, 16.551, 203.359, -0.00103216, -0.00215288, 0.00534518, -0.00106239, -0.00106239, -0.00106239
5968, 1,0.00565469, 0.000939799, 0.000671873, 347.229, 60.3539, 0.0016174, 60.3719, 31.3172, 0, 0.000979293, 0.00659443, 0.0046698, 407.529, -130.034, 0, 0.00098186, 0.00471496, 0.00332692, 286.951, -88.2984, 0, 0.000981196, 119.607, 33.0146, 237.48, 79.4907, 16.907, 168.498, 0.000680936, -0.00142941, 0.00285923, 0.000487032, 0.000487032, 0.000487032
5969, 1,0.00661465, 0.00136763, 0.000951288, 299.616, 78.9921, 0.0587341, 482.579, -152.129, 0.929447, 0.00107318, 0.00793053, 0.00589127, 377.648, -105.322, 0.0309624, 0.00106955, 0.00532334, 0.00409649, 222.229, -57.7764, 0.0292877, 0.00106871, 48.0123, -24.0627, 292.016, 9.85894, -18.8754, 182.346, -0.00136381, -0.00275041, 0.00585217, -0.00149113, -0.00149113, -0.00149113
5970, 1,0.00486572, 0.00115193, 0.000837426, 276.528, 67.9699, 0.0370518, 460.601, -141.887, 0.567368, 0.00104263, 0.00598353, 0.00454225, 342.903, -90.0539, 0.00444293, 0.00104065, 0.00376818, 0.00294024, 211.122, -50.2211, 0.00317531, 0.00103998, 4.1218, 10.8495, 255.19, -16.8375, 8.02074, 159.48, -0.00156813, -0.00129416, 0.00432677, -0.00136101, -0.00136101, -0.00136101
5971, 1,0.00497328, 0.00100655, 0.000728645, 312.336, 61.8227, 0.0215955, 250.12, -74.5688, 0.360611, 0.00100988, 0.00596816, 0.00426566, 373.421, -114.701, 0, 0.00101023, 0.00398412, 0.00284446, 251.6, -77.4374, 0, 0.00100962, 48.3276, 35.6798, 260.097, 22.9443, 29.1922, 180.176, -0.000731973, -0.00115638, 0.00374966, -0.000673308, -0.000673308, -0.000673308
5972, 1,0.00439148, 0.000787448, 0.000555755, 268.593, 50.7695, 0.00154031, 55.1043, 35.4529, 0, 0.000977478, 0.00517625, 0.00364908, 319.264, -103.509, 0, 0.000979685, 0.00360786, 0.00254658, 217.966, -68.5149, 0, 0.000979129, 84.2696, 27.5599, 198.696, 51.8478, 15.0969, 138.6, 0.000373126, -0.00116599, 0.00247323, 0.000234125, 0.000234125, 0.000234125
5973, 1,0.0042797, 0.001137, 0.000800445, 262.748, 68.5689, 0.060533, 489.618, -158.225, 0.954427, 0.00107298, 0.00536983, 0.0037983, 329.672, -105.983, 0, 0.00106894, 0.00322083, 0.00232547, 197.049, -67.6671, 0, 0.00106828, 62.2081, -4.95964, 260.7, 26.895, 9.43326, 166.673, -0.000755176, -0.00168839, 0.00416228, -0.000876341, -0.000876341, -0.000876341
5974, 1,0.00372159, 0.000902368, 0.000649418, 226.46, 54.68, 0.0371306, 471.488, -144.212, 0.563618, 0.00104221, 0.00459685, 0.00345153, 279.891, -82.2549, 0, 0.00104005, 0.00286291, 0.00221192, 173.843, -51.0521, 0, 0.00103952, 14.0772, 17.7678, 214.92, -2.47062, 18.8037, 136.823, -0.0011493, -0.000980395, 0.00346401, -0.000996144, -0.000996144, -0.000996144
5975, 1,0.00353873, 0.000794376, 0.000566221, 222.435, 48.904, 0.0196881, 237.948, -63.0546, 0.323588, 0.00100908, 0.00432863, 0.00314718, 270.894, -83.1837, 0, 0.00100918, 0.00275119, 0.0020493, 174.22, -53.7603, 0, 0.0010087, 30.7622, 32.6846, 186.104, 11.4398, 29.1844, 120.657, -0.000612716, -0.000730044, 0.0026926, -0.000551187, -0.000551187, -0.000551187
5976, 1,0.00284837, 0.000677314, 0.000462743, 171.127, 42.8358, 0.00168156, 29.6399, 74.8888, 0, 0.000975884, 0.0035238, 0.00250254, 213.529, -62.2677, 0, 0.000978058, 0.0021741, 0.0015806, 128.996, -34.5527, 0, 0.000977619, 35.0402, 20.8633, 130.9, 11.1236, 14.9422, 77.5922, -3.89062E-05, -0.000648867, 0.00169879, -0.000111814, -0.000111814, -0.000111814
5977, 1,0.00405503, 0.000983139, 0.000705821, 244.59, 59.1401, 0.0618524, 492.222, -160.363, 0.973182, 0.00107257, 0.00499501, 0.00359623, 301.658, -90.8691, 0, 0.00106805, 0.00314205, 0.00225101, 188.858, -58.432, 0, 0.00106749, 66.9022, -31.0113, 236.717, 34.5634, -14.7242, 155.457, -0.000393442, -0.00202429, 0.00389132, -0.000544858, -0.000544858, -0.000544858
5978, 1,0.00310327, 0.000741096, 0.000524088, 183.384, 45.3255, 0.0360004, 477.904, -155.942, 0.544482, 0.00104208, 0.00382382, 0.00287802, 227.613, -63.2663, 0, 0.00103936, 0.00239537, 0.00186668, 139.881, -36.7959, 0, 0.00103892, 15.3439, 0.65564, 173.799, -1.16055, 4.31815, 107.23, -0.0008103, -0.00106415, 0.00290065, -0.000732123, -0.000732123, -0.000732123
5979, 1,0.00238124, 0.000653461, 0.00045536, 150.876, 40.2486, 0.0168185, 270.306, -83.5102, 0.2554, 0.00100926, 0.00303074, 0.00217646, 190.481, -59.485, 0, 0.00100864, 0.00173495, 0.00128074, 111.792, -35.3989, 0, 0.00100825, 24.6291, 25.7796, 128.046, 9.70902, 25.4528, 71.035, -0.000380114, -0.000503641, 0.00184899, -0.000311411, -0.000311411, -0.000311411
5980, 1,0.0018672, 0.000580511, 0.000389891, 119.893, 36.5164, 0.00236747, 37.5581, 102.647, 0, 0.000974587, 0.0024435, 0.00167734, 155.768, -51.2605, 0, 0.000977024, 0.00129488, 0.000907342, 84.6027, -27.9049, 0, 0.000976653, 29.5071, 22.8621, 101.412, 11.418, 18.4044, 53.8922, -2.57827E-05, -0.000387832, 0.00124589, -4.28391E-05, -4.28391E-05, -4.28391E-05
5981, 1,0.00355096, 0.000856224, 0.000623616, 211.482, 51.3517, 0.0606964, 490.313, -158.33, 0.955305, 0.00107138, 0.00437798, 0.00312052, 261.241, -77.21, 0, 0.00106684, 0.00274172, 0.0019546, 162.806, -49.6206, 0, 0.00106636, 52.9472, -22.4101, 201.093, 25.0767, -5.82709, 129.612, -0.000419124, -0.00167385, 0.0033449, -0.000554312, -0.000554312, -0.000554312
5982, 1,0.00261042, 0.000654046, 0.00045483, 155.786, 40.3049, 0.0328731, 472.293, -148.289, 0.486364, 0.00104053, 0.00324361, 0.00241004, 194.986, -59.3415, 0, 0.0010381, 0.00199108, 0.00153925, 117.411, -35.2007, 0, 0.00103769, 18.0133, 4.62151, 155.39, 2.49796, 9.02087, 94.0832, -0.000680299, -0.00093516, 0.002578, -0.000619264, -0.000619264, -0.000619264
5983, 1,0.00180248, 0.000570623, 0.000393273, 110.459, 35.7582, 0.0128798, 305.403, -91.0197, 0.160452, 0.00100816, 0.00237292, 0.00162068, 146.137, -45.9527, 0, 0.00100728, 0.0012322, 0.000842869, 74.8576, -23.2671, 0, 0.00100691, 25.0895, 4.70149, 108.067, 11.9362, 3.49854, 54.3666, -0.000168268, -0.000725298, 0.00163919, -8.61446E-05, -8.61446E-05, -8.61446E-05
5984, 1,0.00158721, 0.000513117, 0.000345042, 102.917, 32.5453, 0.00298338, 30.1094, 150.03, 0, 0.000972518, 0.00210005, 0.00141865, 135.237, -46.2163, 0, 0.00097562, 0.00107465, 0.000729802, 70.8137, -24.8032, 0, 0.000975281, 25.9983, 18.2414, 94.4092, 10.7658, 12.9497, 50.6941, -4.39496E-05, -0.000381509, 0.0011758, -3.14803E-05, -3.14803E-05, -3.14803E-05
5985, 1,0.003212, 0.000779439, 0.000569569, 180.293, 46.6751, 0.0565017, 486.41, -155.784, 0.890711, 0.00107014, 0.00396165, 0.0029878, 225.795, -61.6372, 0, 0.00106585, 0.00248139, 0.00189444, 135.607, -36.4105, 0, 0.00106541, 42.1504, -40.5395, 183.301, 19.0862, -25.9977, 116.143, -0.000339293, -0.00187119, 0.00320981, -0.000414236, -0.000414236, -0.000414236
5986, 1,0.00241102, 0.000603764, 0.000419701, 146.059, 37.3936, 0.0295763, 477.738, -159.119, 0.425805, 0.00103938, 0.00300367, 0.00214758, 182.718, -58.6437, 0, 0.00103685, 0.00182589, 0.00133317, 109.948, -35.6802, 0, 0.00103647, 25.5997, 6.26979, 144.062, 10.7354, 10.5663, 85.7388, -0.000495672, -0.000888381, 0.00233532, -0.000440719, -0.000440719, -0.000440719
5987, 1,0.00194349, 0.000539711, 0.000369281, 125.462, 33.8219, 0.00902245, 376.611, -104.54, 0.0548096, 0.00100698, 0.00247701, 0.00168474, 158.808, -56.103, 0, 0.00100614, 0.00141489, 0.000964184, 92.4898, -34.4592, 0, 0.00100578, 29.9522, 11.249, 127.108, 17.5403, 10.8972, 74.94, -0.000234231, -0.000715559, 0.00186013, -0.000153583, -0.000153583, -0.000153583
5988, 1,0.000935364, 0.000471638, 0.000317734, 60.7582, 29.9442, 0.0037683, 22.4206, 209.5, 0, 0.00097031, 0.00140287, 0.00097194, 90.4288, -30.4586, 0, 0.000974095, 0.000475684, 0.000351392, 31.6475, -10.5304, 0, 0.000973781, 16.509, 15.3662, 59.5005, 3.5811, 9.49141, 18.5188, -1.64785E-05, -0.000167155, 0.000678179, 2.12329E-05, 2.12329E-05, 2.12329E-05
5989, 1,0.00284721, 0.000723339, 0.000532719, 158.343, 42.9916, 0.051424, 487.099, -160.377, 0.809412, 0.00106906, 0.00353744, 0.00269454, 200.082, -54.3302, 0, 0.00106493, 0.00217961, 0.00168601, 117.56, -31.4859, 0, 0.00106454, 30.9226, -36.5382, 168.606, 11.804, -22.227, 104.881, -0.000420084, -0.00168591, 0.00298703, -0.000451592, -0.000451592, -0.000451592
5990, 1,0.00185341, 0.000551001, 0.000386442, 110.285, 34.2167, 0.0259769, 474.744, -156.864, 0.358757, 0.00103814, 0.00240222, 0.00169346, 144.225, -44.2114, 0, 0.00103558, 0.00130639, 0.000933769, 76.6067, -22.9535, 0, 0.00103523, 21.9775, -0.837088, 111.494, 8.8659, 2.98025, 57.0144, -0.000322874, -0.000792334, 0.00183236, -0.000258509, -0.000258509, -0.000258509
5991, 1,0.00152966, 0.000506894, 0.000346174, 91.2546, 31.6432, 0.00609661, 342.624, -72.1535, 0, 0.00100534, 0.00201608, 0.0014495, 121.752, -34.7966, 0, 0.00100473, 0.00106221, 0.000794855, 61.8157, -14.6909, 0, 0.0010044, 1.78661, 1.30907, 101.294, -8.80334, 1.17432, 51.7019, -0.00049716, -0.000563515, 0.0016253, -0.000402369, -0.000402369, -0.000402369
5992, 1,0.000990778, 0.000439348, 0.000297261, 65.5222, 27.773, 0.00437066, 10.1198, 234.04, 0.0178974, 0.000968778, 0.00142015, 0.000960819, 92.9507, -33.6177, 0, 0.000973032, 0.000576654, 0.000399738, 38.6463, -15.1745, 0, 0.000972741, 21.742, 18.147, 60.964, 10.036, 13.2364, 22.251, 2.3316E-05, -0.000137858, 0.000660291, 6.36115E-05, 6.36115E-05, 6.36115E-05
5993, 1,0.00268037, 0.000657464, 0.000485956, 146.729, 39.2147, 0.045478, 490.087, -169.148, 0.710893, 0.00106805, 0.0033214, 0.00252598, 185.392, -48.312, -6.77626E-21, 0.00106404, 0.00204986, 0.0015876, 108.472, -27.4339, -6.77626E-21, 0.00106368, 24.709, -32.6063, 152.833, 8.06196, -19.6817, 93.9215, -0.000408861, -0.00151544, 0.00270803, -0.000419529, -0.000419529, -0.000419529
5994, 1,0.00178674, 0.000509714, 0.000357341, 107.06, 31.6922, 0.0239919, 484.96, -175.173, 0.322784, 0.00103752, 0.00229207, 0.00161602, 138.551, -43.6717, 1.0842E-19, 0.00103466, 0.0012848, 0.000912227, 75.7419, -24.034, 1.0842E-19, 0.00103433, 18.5134, -1.96711, 114.469, 7.06019, 1.74896, 63.2928, -0.000357984, -0.000798197, 0.00186471, -0.000284632, -0.000284632, -0.000284632
5995, 1,0.00143973, 0.000464772, 0.00031886, 93.3991, 29.0747, 0.00517241, 307.877, -84.3388, 0, 0.00100503, 0.00189352, 0.00130729, 121.86, -42.7202, 0, 0.00100436, 0.000996526, 0.00069031, 65.5268, -24.1029, 0, 0.00100405, 15.1137, 8.88271, 104.164, 5.49935, 8.79951, 58.0097, -0.000339892, -0.00051597, 0.00154909, -0.000248156, -0.000248156, -0.000248156
5996, 1,0.000985243, 0.000411901, 0.000277533, 63.0665, 25.9271, 0.00451731, 14.3305, 228.603, 0.0233557, 0.000968119, 0.00139216, 0.000939749, 88.6787, -28.9836, 0, 0.000972221, 0.000584957, 0.00040933, 37.8586, -11.7833, 0, 0.00097195, 13.6841, 8.66039, 64.6063, 3.32764, 4.55318, 27.469, -9.55711E-05, -0.000250207, 0.00081629, -4.5822E-05, -4.5822E-05, -4.5822E-05
5997, 1,0.00251265, 0.000612503, 0.000458772, 135.693, 36.435, 0.0380245, 486.625, -168.18, 0.580735, 0.0010667, 0.0031114, 0.00239353, 171.377, -43.4722, 0, 0.00106315, 0.0019228, 0.00149812, 100.552, -24.6646, 0, 0.00106283, 23.0355, -35.7283, 143.109, 8.65803, -22.2485, 87.5842, -0.000302389, -0.00154132, 0.00254907, -0.000299665, -0.000299665, -0.000299665
5998, 1,0.00175825, 0.000478499, 0.000336704, 110.358, 29.6472, 0.020624, 485.468, -178.251, 0.258872, 0.00103662, 0.0022294, 0.00155544, 139.44, -48.42, 0, 0.00103394, 0.0012927, 0.000900401, 81.7535, -30.4627, 0, 0.00103364, 20.316, 6.07197, 118.872, 10.3214, 10.7885, 70.2784, -0.000358963, -0.000711971, 0.0018566, -0.000282948, -0.000282948, -0.000282948
5999, 1,0.00119025, 0.000424296, 0.000292304, 71.8551, 26.6121, 0.00412684, 247.065, -68.9879, 0, 0.00100386, 0.00160874, 0.00115272, 98.1567, -28.9756, 0, 0.00100321, 0.000778205, 0.000582457, 45.8978, -11.8043, 0, 0.00100293, 7.66914, -4.6125, 83.8701, -0.766832, -4.72152, 40.9013, -0.000279775, -0.000576215, 0.00132622, -0.000186203, -0.000186203, -0.000186203
6000, 1,0.000847032, 0.000382088, 0.00025756, 58.0371, 23.9841, 0.00419327, 13.1616, 222.2, 0.0161977, 0.000967382, 0.00122516, 0.000823026, 81.7937, -30.2621, 0, 0.000971385, 0.000475191, 0.000327023, 34.6496, -14.2999, 0, 0.000971133, 17.5544, 10.0739, 63.1581, 8.56262, 6.42706, 27.9099, -5.44637E-05, -0.000226919, 0.000772627, 5.22837E-06, 5.22837E-06, 5.22837E-06
6001, 1,0.00237758, 0.000558892, 0.000424781, 128.658, 33.0456, 0.0297866, 474.327, -153.083, 0.429556, 0.00106517, 0.00293014, 0.00228742, 161.254, -41.5868, 0, 0.00106241, 0.001829, 0.00144871, 96.3784, -24.9255, 0, 0.00106212, 25.6516, -34.4054, 133.514, 13.6206, -21.3712, 82.527, -0.000160419, -0.00149907, 0.00233413, -0.00014594, -0.00014594, -0.00014594
6002, 1,0.00154865, 0.00043163, 0.000305026, 90.0494, 26.7373, 0.0156096, 459.802, -140.059, 0.160061, 0.00103485, 0.00197612, 0.00144381, 116.512, -34.5036, 0, 0.00103285, 0.00112443, 0.000840314, 63.8222, -18.3753, 0, 0.00103258, 11.0088, -8.84278, 101.345, 2.79781, -4.41682, 56.745, -0.000317186, -0.000803257, 0.00168027, -0.000233875, -0.000233875, -0.000233875
6003, 1,0.00122984, 0.000397286, 0.000272622, 76.1712, 24.7619, 0.00288962, 166.416, -39.174, 0, 0.00100277, 0.00161531, 0.00112016, 100.274, -30.9985, 0, 0.00100263, 0.000855243, 0.000594994, 52.6566, -15.3404, 0, 0.00100238, 6.456, -2.02989, 88.5694, -0.952015, -1.1341, 48.1074, -0.000334583, -0.000546304, 0.00138396, -0.000243468, -0.000243468, -0.000243468
6004, 1,0.000681115, 0.0003567, 0.000240943, 46.1693, 22.2957, 0.00372273, 12.3993, 216.779, 0.00171047, 0.000966645, 0.00103037, 0.000707759, 68.2403, -24.7168, 0, 0.000970444, 0.000348369, 0.000248323, 24.5971, -9.94529, 0, 0.000970211, 12.8249, 10.0751, 51.2505, 5.00027, 7.09504, 17.7406, -8.28891E-05, -0.000132811, 0.000616993, -1.66872E-05, -1.66872E-05, -1.66872E-05
6005, 1,0.00221438, 0.00052012, 0.000403618, 121.293, 30.3082, 0.0240025, 475.235, -158.568, 0.321593, 0.00106444, 0.00272426, 0.00212207, 150.865, -38.4771, 0, 0.00106177, 0.0017108, 0.00133595, 92.2313, -24.036, 0, 0.00106152, 21.0839, -33.3655, 127.713, 11.0495, -19.6202, 80.6787, -0.000182541, -0.00141066, 0.00221721, -0.000163204, -0.000163204, -0.000163204
6006, 1,0.00147899, 0.000398119, 0.000283203, 87.6425, 24.4163, 0.012421, 458.942, -142.139, 0.0985009, 0.00103396, 0.00186815, 0.00136197, 111.474, -33.7082, 0, 0.001032, 0.00109653, 0.000808751, 64.2749, -19.4626, 0, 0.00103176, 8.87039, -8.49731, 100.751, 2.15802, -3.28078, 59.5105, -0.000340348, -0.000770331, 0.00165758, -0.000255943, -0.000255943, -0.000255943
6007, 1,0.000988902, 0.000362049, 0.000249566, 59.9371, 22.5005, 0.00149149, 71.826, -1.02637, 0, 0.0010011, 0.00134329, 0.000942827, 81.9798, -23.4253, 0, 0.00100146, 0.000642898, 0.000459356, 38.3726, -9.30364, 0, 0.00100123, 3.52534, -5.4727, 72.2234, -2.76255, -4.16883, 34.8423, -0.00027673, -0.000491375, 0.00114831, -0.00018636, -0.00018636, -0.00018636
6008, 1,0.000659597, 0.000334987, 0.000226347, 45.2284, 20.8164, 0.00355195, 11.2504, 210.289, 0, 0.000966013, 0.000978285, 0.000668572, 65.5157, -24.3989, 0, 0.000969699, 0.000374265, 0.000256294, 26.0022, -10.7859, 0, 0.000969485, 10.7819, 12.2745, 50.1403, 3.96875, 10.3139, 18.0751, -0.000129454, -7.70746E-05, 0.000602699, -5.97223E-05, -5.97223E-05, -5.97223E-05
6009, 1,0.00211597, 0.000476706, 0.000378384, 114.821, 27.3464, 0.0196278, 470.672, -154.226, 0.23797, 0.00106327, 0.00258037, 0.00204584, 141.358, -33.584, 0, 0.00106078, 0.00165861, 0.00131505, 88.7997, -21.4261, 0, 0.00106057, 16.8885, -37.1924, 121.056, 8.76433, -23.4097, 78.9237, -0.00018207, -0.00139676, 0.00212338, -0.000159469, -0.000159469, -0.000159469
6010, 1,0.00131281, 0.00035214, 0.000252863, 76.3379, 21.4712, 0.00955016, 457.275, -143.222, 0.0426847, 0.00103306, 0.00165903, 0.00123887, 97.478, -27.9929, 0, 0.00103107, 0.000970986, 0.00074324, 55.4648, -15.6648, 0, 0.00103086, 5.44012, -10.961, 89.4995, 0.204122, -5.94163, 52.732, -0.000319137, -0.000717228, 0.0014905, -0.000234253, -0.000234253, -0.000234253
6011, 1,0.00087062, 0.000325903, 0.000225675, 54.4359, 20.189, 0.000965798, 41.3283, 6.18984, 0, 0.00100047, 0.00119149, 0.0008494, 74.3176, -22.5722, 0, 0.00100094, 0.000555908, 0.000406924, 34.9118, -10.0071, 0, 0.00100073, 5.37696, -4.30201, 66.6415, 0.218344, -2.68357, 32.4864, -0.000223658, -0.000445484, 0.00103551, -0.000134059, -0.000134059, -0.000134059
6012, 1,0.000473419, 0.00031036, 0.000209785, 31.6557, 19.2029, 0.00340427, 10.5245, 201.718, 0, 0.000965273, 0.000758803, 0.000522673, 50.047, -17.5571, 0, 0.000968714, 0.000255614, 0.000182321, 15.5243, -5.12074, 0, 0.000968518, 5.35699, 7.92493, 39.3894, -0.260615, 6.53272, 9.09011, -0.000140996, -6.11829E-05, 0.000487367, -6.43104E-05, -6.43104E-05, -6.43104E-05
6013, 1,0.00190298, 0.000434039, 0.000354236, 102.877, 24.3818, 0.0161677, 468.025, -152.725, 0.171312, 0.00106253, 0.00232321, 0.00188708, 126.408, -28.5771, 0, 0.00106012, 0.00149099, 0.00120895, 79.9053, -18.7941, 0, 0.00105995, 12.6479, -37.3773, 110.461, 6.59629, -23.2588, 73.0446, -0.000188439, -0.0013043, 0.00195599, -0.000160225, -0.000160225, -0.000160225
6014, 1,0.00124377, 0.000320053, 0.000234927, 71.5575, 19.1747, 0.00731454, 439.874, -125.731, 0, 0.00103184, 0.00155495, 0.00116119, 90.1979, -23.615, 0, 0.00103013, 0.000938597, 0.000704583, 53.2919, -13.2529, 0, 0.00102996, 2.04756, -14.9708, 83.7681, -2.17466, -8.94586, 50.8792, -0.000319191, -0.000718467, 0.00142072, -0.000243945, -0.000243945, -0.000243945
6015, 1,0.000746289, 0.000291746, 0.000202499, 46.841, 17.9757, 0.000850789, 26.3413, 18.6095, 0, 0.000999256, 0.00103136, 0.000755879, 64.4463, -19.2424, 0, 0.00099987, 0.000469962, 0.000364431, 29.6968, -8.23902, 0, 0.000999692, 3.17917, -5.13639, 59.6843, -0.838443, -3.15491, 28.7104, -0.000216807, -0.000405238, 0.000934386, -0.000127724, -0.000127724, -0.000127724
6016, 1,0.00038866, 0.000285434, 0.000194066, 26.2892, 17.6043, 0.00319657, 8.46882, 191.077, 0, 0.000964632, 0.000646509, 0.000446027, 43.0608, -15.3055, 0, 0.000967868, 0.000212227, 0.000167808, 12.2729, -4.01315, 0, 0.000967691, 5.50569, 6.29007, 34.1209, 0.750223, 5.62263, 5.66659, -0.000104404, -6.23345E-05, 0.000415428, -2.73323E-05, -2.73323E-05, -2.73323E-05
6017, 1,0.00179354, 0.000395304, 0.000335445, 94.3338, 21.5925, 0.014087, 465.055, -149.764, 0.130885, 0.00106161, 0.00217248, 0.0018005, 114.961, -21.8598, 6.86258E-07, 0.00105921, 0.00142384, 0.00116726, 74.3018, -14.5199, 6.86258E-07, 0.00105908, 7.51449, -41.2185, 99.2833, 2.93783, -26.6988, 67.3208, -0.000188154, -0.00126653, 0.00180891, -0.000167739, -0.000167739, -0.000167739
6018, 1,0.00106806, 0.000282796, 0.000212928, 63.0208, 16.6547, 0.00613496, 377.158, -116.202, 0, 0.00103088, 0.00134053, 0.00101985, 79.0551, -21.7312, 0, 0.0010293, 0.000803156, 0.000611814, 47.4535, -13.3692, 0, 0.00102916, 2.56721, -12.5803, 75.2067, -0.348856, -5.94434, 46.4009, -0.000275726, -0.00062921, 0.00125743, -0.000204324, -0.000204324, -0.000204324
6019, 1,0.000659999, 0.000259192, 0.000181393, 42.0977, 15.8397, 0.000871327, 19.1299, 29.4463, 0, 0.000998322, 0.000912201, 0.000675491, 57.5604, -17.3003, 0, 0.00099908, 0.000416865, 0.000329234, 27.096, -7.87817, 0, 0.000998927, 2.05636, -4.4868, 54.3314, -1.03855, -1.94623, 26.6193, -0.000208999, -0.000356784, 0.000846617, -0.000125243, -0.000125243, -0.000125243
6020, 1,0.000263124, 0.000257481, 0.000175109, 18.162, 15.88, 0.00305651, 6.36632, 184.915, 0, 0.000964044, 0.000505966, 0.000352031, 33.6554, -10.9642, 0, 0.000967113, 0.000114379, 9.99982E-05, 5.25396, -0.785715, 0, 0.000966953, 2.6181, 2.03448, 28.2402, -1.32263, 1.6864, 1.99338, -9.79483E-05, -8.52591E-05, 0.000361478, -2.10638E-05, -2.10638E-05, -2.10638E-05
6021, 1,0.00165637, 0.000363288, 0.000322747, 88.1661, 19.1016, 0.0126351, 466.338, -153.419, 0.10292, 0.00106093, 0.00199632, 0.00168849, 105.964, -20.395, 0, 0.00105848, 0.00132973, 0.00109691, 71.1746, -15.5612, 0, 0.0010584, 7.13817, -39.5885, 93.6355, 4.15808, -24.2107, 66.7361, -0.000171919, -0.00120058, 0.00170295, -0.000157701, -0.000157701, -0.000157701
6022, 1,0.000920235, 0.00024427, 0.000191161, 51.6636, 14.0521, 0.00515402, 315.228, -95.1393, 0, 0.00102962, 0.00115726, 0.000929277, 65.267, -14.6997, 0, 0.00102828, 0.000688607, 0.000559884, 38.4022, -8.38835, 0, 0.00102817, -0.327999, -17.4215, 61.8487, -2.1797, -10.4186, 37.7633, -0.000224384, -0.000613871, 0.00107665, -0.000162777, -0.000162777, -0.000162777
6023, 1,0.000558782, 0.000227671, 0.000161414, 35.2305, 13.7582, 0.000907355, 13.8051, 38.7864, 0, 0.000997707, 0.000777155, 0.000590762, 48.5181, -13.5455, 0, 0.000998555, 0.000352703, 0.000291819, 22.519, -5.69378, 0, 0.000998427, -0.175761, -6.02618, 46.8385, -2.39314, -2.94624, 22.4207, -0.000196657, -0.000326968, 0.000743539, -0.000119026, -0.000119026, -0.000119026
6024, 1,0.000139802, 0.000231905, 0.000158145, 10.99, 14.2663, 0.0030191, 6.66442, 181.996, 0, 0.000963361, 0.000359693, 0.00025188, 24.9354, -8.07937, 0, 0.000966337, 9.31301E-05, 0.000107489, 2.02235, 1.00913, 0, 0.000966194, 1.18941, 0.888746, 22.16, -1.96626, 0.869271, -1.93041, -8.41325E-05, -6.36803E-05, 0.000279281, -7.72389E-06, -7.72389E-06, -7.72389E-06
6025, 1,0.00150353, 0.000330202, 0.000310145, 77.145, 16.5242, 0.0112634, 462.755, -149.011, 0.0759468, 0.00106003, 0.00180877, 0.00158366, 92.3283, -13.6101, 0, 0.00105759, 0.00121281, 0.00102183, 62.8071, -11.379, 0, 0.00105755, 1.70655, -41.0737, 80.1974, 0.174413, -25.1548, 59.1174, -0.000180104, -0.00111747, 0.00151794, -0.000176476, -0.000176476, -0.000176476
6026, 1,0.000846922, 0.000213997, 0.00017712, 47.9282, 11.8265, 0.00448339, 277.595, -87.1017, 0, 0.0010287, 0.0010521, 0.00087314, 59.2126, -13.0519, 0, 0.00102746, 0.000648073, 0.000536316, 37.0389, -8.82152, 0, 0.00102739, 0.396591, -17.444, 56.2031, -0.483745, -9.71769, 36.666, -0.000182151, -0.000582828, 0.000976641, -0.000132913, -0.000132913, -0.000132913
6027, 1,0.000447408, 0.000194932, 0.000141108, 26.7904, 11.6138, 0.000991195, 11.1793, 47.4779, 0, 0.00099658, 0.000631252, 0.000509924, 37.9014, -8.49068, 0, 0.000997485, 0.000278036, 0.000258466, 16.2928, -2.23288, 0, 0.000997384, -2.3262, -9.12103, 36.9193, -3.71727, -5.65738, 16.0733, -0.000162265, -0.000309741, 0.000609902, -9.22446E-05, -9.22446E-05, -9.22446E-05
6028, 1,6.43104E-05, 0.000208081, 0.000142537, 6.12305, 12.7378, 0.00297942, 6.05435, 180.134, 0, 0.000962628, 0.000244684, 0.000176156, 17.9279, -5.47099, 0, 0.000965532, 0.000104209, 0.000144118, 1.46904, 2.54035, 0, 0.000965406, -0.17018, -0.460762, 17.0439, -2.58271, -0.0805022, -4.95783, -7.31539E-05, -5.11801E-05, 0.000213479, 2.00897E-06, 2.00897E-06, 2.00897E-06
6029, 1,0.00144322, -0.000308769, 0.000308327, 72.9272, -14.8231, 0.0103401, 463.811, -152.046, 0.0581879, 0.00105924, 0.00171816, 0.00156393, 85.6656, -10.1221, 0, 0.00105672, 0.00118698, 0.00102437, 61.2334, -10.5438, 0, 0.00105673, 0.0251062, -43.1736, 73.5147, -0.181406, -26.5185, 58.3312, -0.000161418, -0.00110039, 0.00142559, -0.000171596, -0.000171596, -0.000171596
6030, 1,0.000716108, 0.000185726, 0.00016591, 36.9258, 9.6764, 0.00379118, 233.429, -71.6557, 0, 0.00102756, 0.000893563, 0.000807183, 46.0988, -5.50191, 0, 0.00102646, 0.00054464, 0.000491979, 28.1238, -3.40134, 0, 0.00102643, -3.06675, -22.5806, 42.1531, -3.05085, -14.2567, 27.5116, -0.000135372, -0.000568448, 0.000792986, -0.000100849, -0.000100849, -0.000100849
6031, 1,0.000385806, 0.000164968, 0.000123594, 22.3577, 9.60844, 0.00106839, 10.0148, 53.9005, 0, 0.00099594, 0.000537713, 0.000463519, 31.4095, -5.70123, 0, 0.000996904, 0.000249021, 0.000253044, 13.9202, -1.03837, 0, 0.000996829, -2.95445, -10.0517, 30.1098, -3.61232, -6.12595, 12.8534, -0.0001307, -0.000282772, 0.000506109, -7.03563E-05, -7.03563E-05, -7.03563E-05
6032, 1,5.6956E-05, 0.00018414, 0.000126862, 2.52374, 11.2145, 0.00295516, 3.89483, 181.444, 0, 0.000961866, 0.000128347, 0.000104627, 10.7178, -2.39828, 0, 0.00096474, 0.000121463, 0.000192819, 0.906343, 4.56028, 0, 0.000964631, -1.2905, -2.1622, 10.6475, -3.03222, -1.48491, -9.1637, -4.91766E-05, -3.88673E-05, 0.000127329, 2.35438E-05, 2.35438E-05, 2.35438E-05
6033, 1,0.00129339, -0.000330709, 0.000308012, 62.4008, -16.8663, 0.00912519, 457.854, -144.156, 0.0341575, 0.00105829, 0.00154687, 0.00150076, 73.1178, -3.62563, 0, 0.00105584, 0.00105895, 0.000960877, 52.721, -6.80685, 0, 0.00105589, -1.32051, -45.2794, 57.4768, -0.372542, -27.9693, 48.7624, -8.79264E-05, -0.00103471, 0.00118103, -0.000116963, -0.000116963, -0.000116963
6034, 1,0.000647784, 0.00016692, 0.000163813, 32.4326, 7.96219, 0.00321032, 195.724, -57.843, 0, 0.00102661, 0.00080257, 0.000769422, 39.687, -2.53179, 0, 0.00102569, 0.000501816, 0.000468315, 25.7008, -2.59998, 0, 0.00102569, -4.01459, -23.2309, 34.8408, -3.15742, -14.0014, 24.9588, -0.000107306, -0.00053183, 0.000680123, -8.93222E-05, -8.93222E-05, -8.93222E-05
6035, 1,0.000331715, 0.000137509, 0.000108664, 16.9749, 7.71939, 0.00112228, 7.19604, 61.3437, 0, 0.000994768, 0.000453005, 0.000439785, 24.0347, -1.34982, 0, 0.000995781, 0.000226227, 0.000266398, 10.5484, 1.70299, 0, 0.000995732, -4.74824, -12.3245, 21.1222, -4.69317, -7.93831, 7.52252, -9.93426E-05, -0.0002601, 0.000381479, -4.94187E-05, -4.94187E-05, -4.94187E-05
6036, 1,8.78497E-05, 0.000160978, 0.000111744, 1.48204, 9.74181, 0.00296616, 2.45669, 184.178, 0, 0.000960965, 6.89394E-05, 8.63274E-05, 5.93056, 0.23421, 0, 0.000963837, 0.000144595, 0.00024357, 0.834595, 6.17518, 0, 0.000963744, -1.94452, -3.35107, 4.59295, -3.10243, -2.41797, -13.0051, -2.16581E-05, -2.20647E-05, 4.02903E-05, 4.73267E-05, 4.73267E-05, 4.73267E-05
6037, 1,0.00121185, -0.0003658, 0.000320162, 55.9982, -19.5631, 0.00847199, 457.563, -144.961, 0.0216305, 0.00105763, 0.00144957, 0.00148531, 64.9017, 1.81221, 0, 0.00105509, 0.000997435, 0.000937168, 48.3498, -4.17917, 0, 0.00105519, -2.47696, -48.3884, 45.4287, -0.674758, -30.048, 43.2603, -2.38027E-05, -0.00100793, 0.0010019, -7.89516E-05, -7.89516E-05, -7.89516E-05
6038, 1,0.000568742, -0.000180059, 0.000165987, 25.477, -9.43597, 0.00270359, 163.407, -46.5545, 0, 0.00102556, 0.000707806, 0.000756927, 31.1641, 2.86188, 0, 0.00102474, 0.000439551, 0.000453416, 20.3596, 0.58234, 0, 0.00102478, -5.93655, -25.7487, 23.0996, -4.24323, -15.8143, 18.3105, -6.20812E-05, -0.000496499, 0.000512057, -6.13574E-05, -6.13574E-05, -6.13574E-05
6039, 1,0.000304115, 0.000114541, 9.83646E-05, 13.405, 6.04292, 0.0011948, 5.88275, 67.8306, 0, 0.000994235, 0.000402721, 0.000445131, 18.817, 2.1986, 0, 0.000995295, 0.000219267, 0.000289736, 8.54232, 3.63912, 0, 0.000995271, -5.52643, -13.9866, 12.9172, -4.84613, -9.10277, 3.03154, -5.96093E-05, -0.000237466, 0.000261537, -2.20059E-05, -2.20059E-05, -2.20059E-05
6040, 1,0.0001208, 0.000138497, 9.69712E-05, 0.83291, 8.31005, 0.00298556, 1.74242, 186.427, 0, 0.000960175, 8.12047E-05, 0.000141984, 3.26162, 3.24324, 0, 0.000963033, 0.000169467, 0.000297579, 0.580326, 8.19337, 0, 0.000962956, -3.04741, -4.89901, -1.78329, -3.67046, -3.7644, -17.1453, 2.26674E-06, -7.12377E-06, -4.74039E-05, 6.68665E-05, 6.68665E-05, 6.68665E-05
6041, 1,0.00111726, -0.000406746, 0.000337805, 48.228, -22.5645, 0.00811316, 457.54, -145.799, 0.0148157, 0.00105696, 0.00134632, 0.00148247, 55.6337, 7.94626, 0, 0.00105431, 0.000915675, 0.000910297, 42.2938, -0.936858, 0, 0.00105446, -3.62552, -51.8129, 31.5997, -0.956119, -32.3145, 36.0812, 5.19392E-05, -0.000979636, 0.000798346, -3.05466E-05, -3.05466E-05, -3.05466E-05
6042, 1,0.000536507, -0.000207331, 0.000175731, 21.4342, -11.5537, 0.00232238, 140.382, -39.7389, 0, 0.00102468, 0.000668093, 0.000788797, 25.9394, 7.30446, 0, 0.0010239, 0.000414729, 0.000465569, 17.4892, 2.78005, 0, 0.00102398, -7.09889, -27.3519, 12.5374, -4.67209, -16.7328, 13.0648, -1.54911E-05, -0.000457023, 0.000353907, -3.46805E-05, -3.46805E-05, -3.46805E-05
6043, 1,0.000294333, 9.72544E-05, 9.3744E-05, 10.4779, 4.63167, 0.00126941, 4.9716, 73.7505, 0, 0.00099303, 0.00037714, 0.000478473, 14.5503, 5.97777, 0, 0.000994123, 0.000223693, 0.00032663, 6.88104, 5.79617, 0, 0.000994126, -6.28664, -15.822, 4.17535, -5.02821, -10.4186, -1.94171, -1.61657E-05, -0.000214767, 0.000134071, 8.01837E-06, 8.01837E-06, 8.01837E-06
6044, 1,0.000152291, 0.000116913, 8.28247E-05, 0.676862, 6.92881, 0.0030342, 2.60276, 188.313, 0, 0.000959259, 0.000112301, 0.000214324, 2.08611, 5.90899, 0, 0.000962103, 0.000193586, 0.000349971, 0.602169, 9.89324, 0, 0.000962041, -3.60343, -6.07575, -8.0478, -3.76132, -4.75783, -21.1606, 3.24056E-05, 1.01395E-05, -0.000138065, 9.15345E-05, 9.15345E-05, 9.15345E-05
6045, 1,0.00106624, -0.000454041, 0.000361547, 42.3598, -25.8835, 0.00777117, 455.123, -142.89, 0.00813948, 0.00105615, 0.00129405, 0.00152452, 48.6179, 14.2519, 0, 0.00105345, 0.000868948, 0.00091136, 37.7188, 2.42753, 0, 0.00105365, -5.62836, -55.1464, 18.019, -2.18343, -34.5743, 29.4752, 0.000111825, -0.000948071, 0.000604582, -8.06883E-07, -8.06883E-07, -8.06883E-07
6046, 1,0.000525434, -0.000242335, 0.000192849, 18.4665, -14.0535, 0.00203563, 121.814, -32.9083, 0, 0.00102373, 0.000656188, 0.000846832, 22.0872, 11.6885, 0, 0.00102299, 0.000404615, 0.000489748, 15.4108, 4.88331, 0, 0.0010231, -7.96387, -29.2185, 2.11689, -4.89451, -17.8271, 8.07168, 3.66169E-05, -0.000424437, 0.000198073, -5.00551E-06, -5.00551E-06, -5.00551E-06
6047, 1,0.000305738, -0.00010456, 9.54641E-05, 8.28297, -5.71993, 0.0013762, 4.88087, 79.9079, 0, 0.000992264, 0.000380139, 0.000547976, 11.3529, 10.1277, 0, 0.000993389, 0.000242743, 0.000384855, 5.63723, 8.31994, 0, 0.000993418, -7.04954, -18.1408, -5.19275, -5.23436, -12.2959, -7.42955, 3.31888E-05, -0.000196016, -1.37518E-06, 4.34886E-05, 4.34886E-05, 4.34886E-05
6048, 1,0.000180765, 9.56812E-05, 6.88427E-05, 1.35559, 5.56732, 0.00313065, 3.86659, 192.889, 0, 0.000958424, 0.000160659, 0.000300276, 2.15857, 8.36948, 0, 0.000961298, 0.000212624, 0.000403044, 1.01832, 11.4034, 0, 0.000961251, -3.57562, -6.91801, -14.6148, -3.3414, -5.46529, -25.4036, 7.11747E-05, 3.19006E-05, -0.000238522, 0.000123606, 0.000123606, 0.000123606
6049, 1,0.00103461, -0.000507835, 0.000391307, 37.2065, -29.5328, 0.00748964, 452.522, -139.864, 0.00271248, 0.00105543, 0.00126737, 0.00159893, 42.5931, 20.8638, 0, 0.00105268, 0.000834713, 0.000930583, 33.5479, 6.05089, 0, 0.00105293, -7.10801, -59.3645, 3.88101, -2.9989, -37.6885, 22.5348, 0.000187933, -0.000930285, 0.000403404, 4.2061E-05, 4.2061E-05, 4.2061E-05
6050, 1,0.000539943, -0.000283017, 0.00021563, 16.8904, -16.8344, 0.0018386, 108.039, -26.8262, 0, 0.00102282, 0.000674297, 0.000937726, 19.822, 15.8552, 0, 0.00102211, 0.00041635, 0.000537482, 14.5643, 6.74208, 0, 0.00102226, -8.3973, -31.2583, -7.90995, -4.69901, -19.0998, 3.57257, 9.45442E-05, -0.000398899, 4.69958E-05, 2.97394E-05, 2.97394E-05, 2.97394E-05
6051, 1,0.000332093, -0.00012586, 0.000104028, 6.84819, -7.34938, 0.00150841, 5.89476, 87.0454, 0, 0.000991384, 0.000405235, 0.000636393, 9.23757, 14.2577, 0, 0.000992555, 0.000268399, 0.000448, 4.799, 10.8137, 0, 0.000992611, -7.88831, -20.2234, -14.6613, -5.57938, -13.9488, -12.913, 8.06867E-05, -0.000172208, -0.000139695, 7.56292E-05, 7.56292E-05, 7.56292E-05
6052, 1,0.000222156, 7.46366E-05, 5.48093E-05, 1.59236, 4.21566, 0.00329311, 5.1247, 201.611, 0, 0.000957513, 0.000209848, 0.000391487, 2.1223, 11.112, 0, 0.000960478, 0.000240748, 0.000462814, 1.32837, 13.198, 0, 0.000960445, -3.66636, -8.03431, -21.6354, -3.0774, -6.52212, -29.9944, 0.000111088, 5.34575E-05, -0.00034449, 0.000156173, 0.000156173, 0.000156173
6053, 1,0.00102887, -0.000566357, 0.000425486, 34.4797, -33.4296, 0.00731228, 449.422, -138.168, 0, 0.00105472, 0.00127158, 0.00169196, 39.2093, 25.7934, 0, 0.00105192, 0.000820257, 0.000956346, 31.5443, 7.93736, 0, 0.00105222, -7.03585, -61.6266, -8.7178, -2.33422, -38.7737, 17.2958, 0.000270675, -0.000897242, 0.000207634, 8.91823E-05, 8.91823E-05, 8.91823E-05
6054, 1,0.000548037, -0.000327507, 0.000241629, 13.2378, -19.8091, 0.0016501, 94.5205, -20.5461, 0, 0.00102193, 0.000690862, 0.00105117, 15.7138, 22.3686, 0, 0.00102122, 0.000415176, 0.000595826, 11.3192, 10.918, 0, 0.00102141, -9.89826, -35.072, -22.1356, -5.62459, -22.2283, -4.90112, 0.000166872, -0.00037369, -0.000156229, 7.72852E-05, 7.72852E-05, 7.72852E-05
6055, 1,0.000365525, -0.000153576, 0.000118834, 6.47601, -9.28297, 0.00163923, 7.41636, 93.358, 0, 0.000990544, 0.0004433, 0.000728747, 8.44737, 17.5315, 0, 0.000991763, 0.000294991, 0.000503935, 4.75773, 12.4413, 0, 0.000991845, -8.20482, -21.5733, -22.8163, -5.4644, -14.8464, -17.013, 0.000126062, -0.000146404, -0.000263991, 0.000104184, 0.000104184, 0.000104184
6056, 1,0.000259693, 5.53052E-05, 4.23254E-05, 1.53306, 2.94979, 0.00346579, 6.01261, 211.393, 0, 0.000956678, 0.000251773, 0.000474566, 1.85161, 13.6872, 0, 0.000959752, 0.000272353, 0.000519549, 1.41223, 14.8155, 0, 0.000959735, -3.61778, -8.84158, -28.6021, -2.72029, -7.24657, -34.4797, 0.000151386, 7.91386E-05, -0.000452246, 0.00018802, 0.00018802, 0.00018802
6057, 1,0.001026, -0.000628306, 0.000462877, 30.8123, -37.5086, 0.00723301, 444.196, -136.044, 0, 0.00105393, 0.00128274, 0.0018038, 35.0573, 32.1752, 0, 0.00105106, 0.000803914, 0.000991414, 28.3932, 11.2251, 0, 0.00105142, -8.47816, -64.9776, -23.0699, -3.16709, -40.9428, 10.4347, 0.000343501, -0.000864089, -1.90192E-06, 0.000125887, 0.000125887, 0.000125887
6058, 1,0.000578392, -0.000376694, 0.000271879, 12.3805, -23.0168, 0.00145998, 82.1633, -15.9491, 0, 0.00102121, 0.000733128, 0.00116601, 14.5482, 26.6008, 0, 0.0010205, 0.000432889, 0.00064876, 10.7347, 12.7849, 0, 0.00102073, -9.7342, -36.8087, -33.2595, -4.99922, -23.2043, -10.1513, 0.000238496, -0.000341309, -0.000328902, 0.000121256, 0.000121256, 0.000121256
6059, 1,0.00040126, -0.000185265, 0.000137237, 5.43455, -11.4081, 0.00180283, 10.8335, 99.1856, 0, 0.000989682, 0.000485859, 0.000836841, 7.10113, 21.8327, 0, 0.000990925, 0.00032242, 0.000570992, 3.9518, 15.0787, 0, 0.000991034, -8.90434, -23.6067, -32.9869, -5.76198, -16.5043, -22.9697, 0.000180009, -0.000119528, -0.000414602, 0.000140421, 0.000140421, 0.000140421
6060, 1,0.00030775, 3.83475E-05, 3.19768E-05, 1.81568, 1.80145, 0.00367736, 11.8687, 216.832, 0, 0.000955957, 0.000309939, 0.000588879, 2.135, 17.0703, 0, 0.00095906, 0.000307186, 0.000599367, 1.59095, 17.2388, 0, 0.000959058, -4.32538, -9.59963, -37.286, -3.10478, -8.12853, -40.4831, 0.000189197, 0.000118673, -0.000584482, 0.000217663, 0.000217663, 0.000217663
6061, 1,0.00105603, -0.000694209, 0.00050396, 28.6644, -41.7898, 0.00722569, 442.008, -133.487, 0, 0.0010532, 0.00133014, 0.00195251, 32.5682, 38.5895, 0, 0.00105027, 0.000816398, 0.00105535, 26.576, 14.5028, 0, 0.00105068, -9.95851, -68.2859, -37.524, -4.06836, -43.189, 3.74886, 0.000415197, -0.000829947, -0.000211825, 0.000160148, 0.000160148, 0.000160148
6062, 1,0.000620226, -0.000428097, 0.000304191, 11.1997, -26.3391, 0.00125205, 67.4997, -9.43159, 0, 0.00102042, 0.000788626, 0.00130177, 13.1387, 31.9619, 0, 0.00101974, 0.00046006, 0.000718052, 9.72828, 15.7546, 0, 0.00102001, -10.4428, -39.2486, -46.1942, -5.26263, -24.9439, -17.0574, 0.000309271, -0.000306785, -0.00052119, 0.000163644, 0.000163644, 0.000163644
6063, 1,0.000449159, -0.000220187, 0.00015876, 5.13088, -13.6931, 0.00204541, 16.9391, 106.456, 0, 0.000988614, 0.000541594, 0.000954311, 6.54811, 25.8968, 0, 0.000989907, 0.000361677, 0.000644474, 3.87471, 17.4643, 0, 0.000990043, -9.26952, -25.5183, -42.9027, -5.74856, -18.0574, -28.5869, 0.000237165, -9.37463E-05, -0.000563482, 0.000179159, 0.000179159, 0.000179159
6064, 1,0.000337082, -3.31781E-05, 3.16443E-05, 1.37767, -1.99666, 0.00411596, 16.2583, 220.204, 0.011237, 0.000955116, 0.000336127, 0.0006382, 1.21277, 18.5501, 0, 0.000958268, 0.000339216, 0.0006275, 1.6488, 17.7449, 0, 0.00095828, -4.05492, -10.2255, -41.3698, -2.62206, -8.66588, -41.9467, 0.000217331, 0.00013296, -0.000650909, 0.000235218, 0.000235218, 0.000235218
6065, 1,0.00108442, -0.000763116, 0.000547642, 26.0458, -46.2235, 0.00741605, 446.97, -131.497, 0.00111408, 0.00105251, 0.00137835, 0.00210773, 29.7054, 45.4692, 0, 0.00104949, 0.00082438, 0.00111975, 24.1759, 18.2062, 0, 0.00104996, -11.4129, -71.9402, -53.0546, -5.01129, -45.7386, -3.86876, 0.000496354, -0.000796713, -0.00043785, 0.000201782, 0.000201782, 0.000201782
6066, 1,0.000664204, -0.000481718, 0.000338459, 10.104, -29.7769, 0.00105133, 50.0863, 1.29409, 0, 0.00101955, 0.00084843, 0.001446, 11.902, 37.4113, 0, 0.00101895, 0.000487368, 0.000791876, 8.72914, 18.7863, 0, 0.00101926, -11.2544, -41.5089, -59.4706, -5.65378, -26.5456, -24.1596, 0.000380335, -0.000267083, -0.000720375, 0.000205432, 0.000205432, 0.000205432
6067, 1,0.000494944, -0.000257707, 0.000182618, 5.69955, -16.1141, 0.00238079, 21.5388, 121.629, 0, 0.000987433, 0.000597654, 0.00105971, 6.96251, 28.7786, 0, 0.000988921, 0.000396204, 0.000701326, 4.57197, 18.6521, 0, 0.000989084, -8.76562, -26.4508, -51.1195, -4.9288, -18.5952, -32.4323, 0.000291576, -6.41903E-05, -0.000694187, 0.000213689, 0.000213689, 0.000213689
6068, 1,0.000424118, -4.8066E-05, 3.81215E-05, 3.79006, -3.11749, 0.00487327, 11.7706, 225.287, 0.0412703, 0.000954281, 0.000433888, 0.000814434, 3.93201, 22.1096, 0, 0.000957515, 0.000416326, 0.000770248, 3.68898, 20.3188, 0, 0.000957543, -3.67026, -8.9032, -53.7554, -1.95114, -7.77106, -51.2342, 0.000275037, 0.000224646, -0.000858008, 0.000284263, 0.000284263, 0.000284263
6069, 1,0.00116006, -0.000836286, 0.000595374, 25.6119, -50.8674, 0.00807615, 446.435, -128.398, 0.0136617, 0.0010518, 0.00147475, 0.0023172, 29.0348, 52.3623, 0, 0.0010487, 0.00087884, 0.00123552, 23.97, 21.8836, 0, 0.00104922, -12.312, -76.6191, -68.1558, -5.40846, -49.5214, -10.721, 0.000594188, -0.000784279, -0.000659992, 0.000259178, 0.000259178, 0.000259178
6070, 1,0.000687652, -0.000538453, 0.000374902, 8.37289, -33.3611, 0.000997479, 42.044, 8.93002, 0, 0.00101869, 0.000891732, 0.00157566, 10.1862, 42.6301, 0, 0.00101813, 0.000489343, 0.000844295, 6.92224, 21.5666, 0, 0.00101848, -12.159, -43.2954, -72.436, -6.25682, -27.6951, -30.7479, 0.000451276, -0.000221912, -0.000921171, 0.000244106, 0.000244106, 0.000244106
6071, 1,0.000579083, -0.000296095, 0.000207231, 6.72263, -18.5864, 0.00277289, 25.1443, 141.785, 0, 0.000986201, 0.000692194, 0.00122227, 7.80824, 33.4244, 0, 0.000987936, 0.000468618, 0.000814439, 5.7483, 21.5872, 0, 0.000988126, -8.5392, -28.2038, -63.5304, -4.34734, -20.1916, -40.2227, 0.000364466, -2.3206E-05, -0.000883396, 0.00026734, 0.00026734, 0.00026734
6072, 1,0.00042185, -7.04202E-05, 5.12209E-05, 2.59296, -4.62742, 0.00579495, 10.6062, 226.517, 0.0774695, 0.000953511, 0.000436068, 0.00083871, 2.87707, 23.3568, 0, 0.000956818, 0.000407994, 0.000761713, 2.66231, 20.5527, 0, 0.000956862, -3.42743, -11.1176, -55.5255, -1.52464, -10.0015, -50.132, 0.00028928, 0.000207884, -0.000875662, 0.000287339, 0.000287339, 0.000287339
6073, 1,0.00117137, -0.000908879, 0.000641648, 20.6781, -55.4792, 0.00954338, 443.756, -121.634, 0.042068, 0.00105106, 0.00151112, 0.00247838, 24.041, 61.204, 0, 0.0010479, 0.000860897, 0.00129032, 18.9106, 27.4744, 0, 0.00104847, -14.8473, -80.6462, -88.1186, -7.56547, -52.3602, -22.4974, 0.000695472, -0.000727402, -0.000961687, 0.000316445, 0.000316445, 0.000316445
6074, 1,0.000718303, -0.000600337, 0.000416076, 6.52718, -37.1815, 0.00132911, 59.342, 6.68147, 0, 0.00101802, 0.000941147, 0.00172594, 8.28107, 48.592, 0, 0.00101733, 0.000503722, 0.000920264, 5.27428, 25.0692, 0, 0.00101772, -12.9284, -48.393, -84.4546, -6.72212, -32.3756, -36.1098, 0.000539166, -0.000236717, -0.00109103, 0.000299162, 0.000299162, 0.000299162
6075, 1,0.00067077, -0.000338544, 0.000236387, 11.3111, -21.2474, 0.00310373, 28.5146, 158.296, 0, 0.00098506, 0.000797032, 0.0013574, 12.3283, 34.2452, 0, 0.000987045, 0.000547286, 0.000895221, 10.4368, 20.6816, 0, 0.000987262, -6.82729, -28.9509, -66.9575, -2.23982, -20.8079, -38.9971, 0.000410201, -2.26485E-05, -0.00094299, 0.000294194, 0.000294194, 0.000294194
6076, 1,0.000466189, -9.29933E-05, 6.60554E-05, -2.47742, -6.12781, 0.0069618, -1.24051, 241.156, 0.124007, 0.000952506, 0.000487997, 0.000981623, -2.6002, 33.1394, 0, 0.000956005, 0.0004446, 0.000876242, -2.32396, 29.2991, 0, 0.000956064, -8.06477, -14.742, -76.6114, -6.13391, -13.653, -68.1104, 0.000337694, 0.000294523, -0.00116939, 0.000320962, 0.000320962, 0.000320962
6077, 1,0.00130274, -0.00098517, 0.000690428, 27.4028, -60.2415, 0.0121916, 453.135, -133.595, 0.0944574, 0.00105062, 0.00167256, 0.00270503, 31.0015, 61.1844, 0, 0.00104718, 0.0009567, 0.00140004, 25.0903, 24.1836, 0, 0.00104781, -9.74846, -72.6635, -101.141, -2.22199, -43.5834, -26.7455, 0.000820567, -0.000555574, -0.0012584, 0.00039374, 0.00039374, 0.00039374
6078, 1,0.000791228, -0.000661697, 0.000457218, 7.42502, -40.9866, 0.00177593, 91.0167, -7.66216, 0, 0.00101755, 0.00103213, 0.00191558, 9.13692, 53.2604, 0, 0.00101654, 0.000562332, 0.00103549, 6.30416, 27.2507, 0, 0.00101697, -11.7839, -50.7562, -97.2411, -5.22692, -34.465, -42.0601, 0.00064291, -0.000214409, -0.0012929, 0.000370649, 0.000370649, 0.000370649
6079, 1,0.000700646, -0.000379381, 0.000262308, 7.26472, -23.8332, 0.00345672, 27.353, 181.895, 0, 0.000983886, 0.000839607, 0.00148874, 8.25292, 42.1711, 0, 0.000986119, 0.000563619, 0.000972357, 6.37405, 26.879, 0, 0.000986364, -9.43721, -32.5967, -84.4794, -4.71806, -24.2793, -51.6396, 0.000483076, 2.87136E-05, -0.00119584, 0.000342597, 0.000342597, 0.000342597
6080, 1,0.000566703, -0.000119961, 8.23429E-05, 5.29205, -7.82711, 0.00843021, 3.08127, 241.065, 0.174761, 0.000951679, 0.000601883, 0.00110011, 5.43435, 29.7476, 0, 0.000955352, 0.00053207, 0.000952103, 5.17539, 24.8647, 0, 0.000955428, -3.85396, -8.4643, -76.9245, -1.64674, -7.84971, -65.0978, 0.000366616, 0.000385217, -0.00123393, 0.000339612, 0.000339612, 0.000339612
6081, 1,0.00127295, -0.00106518, 0.000742824, 19.3137, -65.2484, 0.0146261, 462.095, -145.042, 0.142052, 0.00105017, 0.00167032, 0.00281487, 22.9957, 70.5336, 0, 0.00104629, 0.000899896, 0.00140053, 16.9293, 30.1379, 0, 0.00104698, -13.755, -77.7241, -120.122, -5.98806, -47.1777, -37.248, 0.000883013, -0.000508559, -0.00151959, 0.000406715, 0.000406715, 0.000406715
6082, 1,0.000854479, -0.000721586, 0.000497674, 2.72524, -44.7611, 0.00156454, 75.9465, -0.811255, 0, 0.00101671, 0.00111772, 0.00215202, 4.508, 64.9539, 0, 0.00101563, 0.00059985, 0.00118759, 1.46166, 36.4244, 0, 0.0010161, -16.4883, -58.2116, -120.162, -9.53198, -41.8063, -57.935, 0.000725479, -0.000185374, -0.00159427, 0.000421953, 0.000421953, 0.000421953
6083, 1,0.00077545, -0.000419669, 0.000288505, 8.17591, -26.4221, 0.00440017, 38.5378, 203.408, 0.0134188, 0.000982738, 0.000928773, 0.0016602, 9.20739, 46.3948, 0, 0.000985269, 0.000623489, 0.00108891, 7.2088, 29.3595, 0, 0.000985541, -8.78076, -31.1707, -99.2329, -3.87124, -22.9236, -61.2836, 0.000568263, 0.000134598, -0.00145543, 0.000404604, 0.000404604, 0.000404604
6084, 1,0.000593512, -0.000145603, 9.94063E-05, 2.68741, -9.4717, 0.00994836, 5.96597, 240.106, 0.228994, 0.000950782, 0.000635341, 0.00118046, 2.69212, 34.3674, 0, 0.000954506, 0.000552326, 0.00100046, 2.76254, 28.4438, 0, 0.000954598, -4.8726, -10.4759, -87.7537, -2.58025, -9.96651, -72.7847, 0.000418979, 0.000435984, -0.00141198, 0.000377081, 0.000377081, 0.000377081
6085, 1,0.00139819, -0.0011441, 0.000793105, 19.661, -70.2831, 0.015477, 457.963, -136.927, 0.157536, 0.00104971, 0.0018303, 0.00309728, 23.7609, 79.4076, 0, 0.00104581, 0.000976438, 0.0015436, 16.0731, 35.5182, 0, 0.00104655, -14.3525, -72.1671, -151.703, -6.43023, -40.8416, -59.2829, 0.000988485, -0.000249968, -0.00202763, 0.000460773, 0.000460773, 0.000460773
6086, 1,0.000954075, -0.00078261, 0.000539303, 10.9025, -48.6308, 0.00101124, 37.762, 15.5762, 0, 0.00101594, 0.00123867, 0.00226965, 12.7546, 61.6865, 0, 0.00101518, 0.00067789, 0.00122168, 9.56943, 30.5871, 0, 0.0010157, -10.7205, -51.014, -123.325, -3.70181, -33.9085, -54.1509, 0.000790959, -7.88953E-05, -0.00171314, 0.000448489, 0.000448489, 0.000448489
6087, 1,0.000749311, -0.000460055, 0.000314872, 0.984498, -29.0262, 0.00558801, 17.0214, 232.802, 0.057091, 0.000981506, 0.000910754, 0.00174606, 1.90676, 54.5705, 0, 0.000984471, 0.000592193, 0.00112779, 0.212051, 35.8044, 0, 0.000984771, -11.4319, -35.0251, -117.255, -6.56442, -26.5704, -74.2783, 0.00064052, 0.00019383, -0.00171951, 0.000449174, 0.000449174, 0.000449174
6088, 1,0.000691684, -0.000175055, 0.00011786, 7.81602, -11.305, 0.0114927, -0.304451, 243.07, 0.295221, 0.000949781, 0.000744754, 0.00131796, 7.92743, 34.0099, 0, 0.00095375, 0.000639747, 0.00109805, 7.82296, 26.9991, 0, 0.000953859, -2.25013, -7.73611, -92.0434, 0.237903, -7.82511, -73.4101, 0.000478057, 0.000512779, -0.00154203, 0.000422334, 0.000422334, 0.000422334
6089, 1,0.00160594, -0.00125015, 0.000868738, 22.3742, -76.7274, 0.0148935, 470.539, -158.97, 0.147895, 0.00104985, 0.00207311, 0.00353571, 26.7158, 91.0928, 0, 0.00104535, 0.00115605, 0.00186173, 18.871, 43.5211, 0, 0.00104616, -11.8175, -87.4036, -174.057, -3.78443, -56.3852, -70.3936, 0.00120213, -0.000385452, -0.00229527, 0.000621005, 0.000621005, 0.000621005
6090, 1,0.0011013, -0.0008423, 0.000579105, 8.64639, -52.4411, 0.00101584, 2.4395, 62.4121, 0, 0.00101495, 0.00141168, 0.00254794, 10.8013, 75.0574, 0, 0.00101475, 0.000794188, 0.00140379, 6.72107, 41.4165, 0, 0.0010153, -17.739, -53.6899, -153.743, -10.7941, -36.5235, -76.932, 0.000846242, 8.4741E-05, -0.00214895, 0.000462807, 0.000462807, 0.000462807
6091, 1,0.000768915, -0.000500735, 0.000341794, 0.626098, -31.5997, 0.00636244, 6.2378, 237.775, 0.0943222, 0.000981147, 0.000920672, 0.00182695, 1.254, 56.7431, 0, 0.000984244, 0.000617389, 0.00117502, 0.624065, 36.2774, 0, 0.000984571, -13.3788, -32.3548, -124.496, -8.51509, -23.9623, -76.3547, 0.000639694, 0.000296901, -0.00185705, 0.000420524, 0.000420524, 0.000420524
6092, 1,0.000683507, -0.000200168, 0.000136162, 4.63512, -12.8695, 0.0125311, -7.18349, 249.121, 0.339687, 0.00094912, 0.00074736, 0.00134893, 4.79522, 39.5769, 0, 0.000953253, 0.000621589, 0.00109502, 4.64011, 31.6063, 0, 0.000953377, -5.34558, -16.7135, -96.6715, -3.00367, -16.8662, -74.9491, 0.000520082, 0.000418577, -0.00158023, 0.000444225, 0.000444225, 0.000444225
6093, 1,0.00166769, -0.00136028, 0.000948921, 24.8804, -83.4141, 0.00939554, 434.032, -105.381, 0.0377043, 0.00104851, 0.00217189, 0.00372514, 29.5759, 95.0457, 0, 0.00104507, 0.00119372, 0.00192992, 21.7202, 43.7621, 0, 0.00104594, -9.41157, -95.2017, -180.524, -1.40817, -64.0392, -65.8389, 0.00130355, -0.000489479, -0.00235672, 0.000665648, 0.000665648, 0.000665648
6094, 1,0.00119031, -0.000907067, 0.000622116, 12.516, -56.4859, 0.00167076, -5.14814, 113.31, 0, 0.00101378, 0.00152422, 0.00271385, 14.8478, 76.6598, 0, 0.00101439, 0.000858214, 0.00147699, 10.3237, 40.4668, 0, 0.00101498, -14.1432, -46.8025, -169.034, -7.51463, -29.7068, -84.1791, 0.000943654, 0.000262874, -0.00245049, 0.00051372, 0.00051372, 0.00051372
6095, 1,0.00087363, -0.000546072, 0.000367501, 5.87675, -34.3242, 0.00688615, 2.20958, 241.073, 0.116639, 0.000980717, 0.00105089, 0.00197433, 6.26039, 57.0585, 0, 0.000983918, 0.000696802, 0.00125244, 5.58836, 34.969, 0, 0.000984271, -9.543, -29.8075, -131.825, -5.19216, -21.6632, -78.0516, 0.000740202, 0.000361192, -0.002027, 0.000483218, 0.000483218, 0.000483218
6096, 1,0.000692059, -0.000211999, 0.000147838, 4.68466, -13.5846, 0.0136277, -4.03567, 249.023, 0.374368, 0.000948667, 0.000767601, 0.00139884, 5.2453, 41.9616, 0, 0.000952876, 0.000618259, 0.00111946, 4.28923, 33.5761, 0, 0.000953006, -7.8238, -18.2952, -99.7657, -5.87044, -18.1638, -76.694, 0.000524088, 0.00041968, -0.00162411, 0.000430923, 0.000430923, 0.000430923
6097, 1,0.0019305, -0.00146406, 0.00102047, 33.079, -89.7832, 0.00630144, 361.982, -84.7059, 0, 0.0010477, 0.00248836, 0.0041796, 38.9461, 103.037, 0, 0.00104451, 0.00138758, 0.00219535, 27.9906, 48.0023, 0, 0.00104544, -8.53494, -82.7235, -217.853, -0.568415, -52.8573, -90.5813, 0.00144253, -9.08808E-05, -0.00302392, 0.000746018, 0.000746018, 0.000746018
6098, 1,0.00130863, -0.000981136, 0.000668516, 16.7819, -60.9917, 0.00231482, -2.64786, 150.657, 0, 0.00101277, 0.00166358, 0.00297624, 19.1216, 79.8376, 0, 0.00101393, 0.000954283, 0.00164172, 14.5131, 40.9801, 0, 0.00101457, -10.0515, -37.4599, -192.001, -3.91401, -21.3961, -97.6301, 0.00107926, 0.000514753, -0.00288953, 0.000597011, 0.000597011, 0.000597011
6099, 1,0.00102222, -0.000589366, 0.000400089, 11.2234, -36.8714, 0.00779191, 2.91809, 244.375, 0.146027, 0.000980161, 0.00123185, 0.00220608, 12.5042, 60.1405, 0, 0.000983441, 0.000813258, 0.00140899, 10.0131, 36.6113, 0, 0.000983817, -5.08935, -25.4802, -149.852, -1.31532, -17.788, -90.7306, 0.00089237, 0.000495942, -0.00236397, 0.000599643, 0.000599643, 0.000599643
6100, 1,0.000811028, -0.000230305, 0.00016853, 14.9733, -14.3663, 0.0148985, -4.90335, 248.593, 0.425257, 0.000948218, 0.000911071, 0.00152181, 16.733, 37.8209, 0, 0.000952661, 0.000712667, 0.00120013, 13.3935, 29.6103, 0, 0.000952788, -2.2552, -14.8276, -96.38, -0.536469, -15.5382, -72.7562, 0.000586958, 0.000425922, -0.00162609, 0.000489502, 0.000489502, 0.000489502
6101, 1,0.00227319, -0.00161173, 0.00112927, 30.9417, -98.5305, 0.00426448, 229.566, -36.0094, 0, 0.00104621, 0.00289043, 0.00500803, 37.931, 130.635, 0, 0.00104338, 0.00167346, 0.00282145, 24.8313, 70.9869, 0, 0.00104439, -12.8897, -97.6244, -281.392, -4.59516, -71.9859, -136.38, 0.0017821, 3.61143E-05, -0.00393829, 0.00102036, 0.00102036, 0.00102036
6102, 1,0.00155463, -0.00106826, 0.000726663, 20.7907, -66.3568, 0.00297579, 13.8458, 169.722, 0, 0.00101158, 0.00193694, 0.00348115, 23.2072, 92.072, 0, 0.00101285, 0.00117364, 0.00203271, 18.481, 49.8923, 0, 0.00101355, -12.123, -33.2086, -230.884, -5.25665, -19.2785, -125.142, 0.00122721, 0.000800679, -0.00352192, 0.000708064, 0.000708064, 0.000708064
6103, 1,0.00119343, -0.000636556, 0.000438757, 16.3222, -39.6739, 0.00970614, 22.1031, 229.137, 0.202837, 0.000979145, 0.00142819, 0.00256314, 18.3462, 64.5119, 0, 0.00098223, 0.000963264, 0.00169662, 14.5545, 39.442, 0, 0.00098263, 2.17379, -16.5392, -179.17, 6.42124, -10.2316, -114.516, 0.00111613, 0.00075398, -0.00291671, 0.000808842, 0.000808842, 0.000808842
6104, 1,0.00105706, -0.000256319, 0.00019444, 24.517, -15.4796, 0.016776, -8.27369, 255.229, 0.48909, 0.000946975, 0.00118372, 0.00189853, 27.6982, 41.1935, 0, 0.000951748, 0.000931661, 0.00152804, 21.4581, 33.1783, 0, 0.000951872, 2.81816, -6.2475, -120.151, 4.52794, -8.79755, -95.2652, 0.000752827, 0.000651114, -0.00207192, 0.000657012, 0.000657012, 0.000657012
6105, 1,0.00283421, -0.00182296, 0.00128592, 49.3606, -111.141, 0.00277177, 109.315, 30.8041, 0, 0.00104539, 0.00355622, 0.00600088, 58.7065, 146.196, 0, 0.00104344, 0.0021295, 0.00349753, 40.9073, 79.6305, 0, 0.00104456, -10.7866, -80.785, -347.015, -1.52274, -61.2776, -176.091, 0.00206815, 0.000643853, -0.0050845, 0.00121845, 0.00121845, 0.00121845
6106, 1,0.0018365, -0.00118447, 0.000814694, 23.7032, -73.2727, 0.005031, 46.5132, 178.762, 0.0446503, 0.00101205, 0.00227472, 0.00420775, 27.5043, 108.257, 0, 0.00101328, 0.0014148, 0.00259461, 20.3307, 62.3554, 0, 0.00101404, -8.14529, -25.7202, -290.904, 0.615495, -16.7938, -170.888, 0.00156541, 0.00122082, -0.00454286, 0.00102795, 0.00102795, 0.00102795
6107, 1,0.00152705, -0.000706125, 0.000489753, 14.83, -43.7228, 0.013128, 44.3367, 212.298, 0.303283, 0.000979668, 0.00175966, 0.00311302, 15.7811, 88.6373, 0, 0.000982324, 0.00129926, 0.00218306, 14.1344, 61.5483, 0, 0.000982756, -1.13348, -29.1024, -235.676, 4.70112, -25.7296, -163.616, 0.00142274, 0.000871977, -0.00373281, 0.00111698, 0.00111698, 0.00111698
6108, 1,0.00103725, -0.000302178, 0.000231289, 14.9164, -17.6785, 0.0180414, -1.43743, 241.438, 0.544674, 0.000947194, 0.00118547, 0.00205784, 19.208, 51.7523, 0, 0.000951741, 0.000904005, 0.00162962, 11.1442, 43.4113, 0, 0.00095187, 3.11558, -9.3668, -149.006, 4.85945, -14.7945, -120.299, 0.000932171, 0.00073078, -0.00250232, 0.000830674, 0.000830674, 0.000830674
6109, 1,0.00354842, -0.00210722, 0.00148462, 69.3693, -127.899, 0.0027148, 53.6398, 101.416, 0, 0.00104439, 0.00440084, 0.0072421, 81.5797, 166.803, 0.00136866, 0.00104328, 0.00270066, 0.00428843, 57.3877, 91.1897, 0.00136866, 0.00104457, -6.33612, -28.6692, -465.404, 1.8459, -17.5001, -257.915, 0.00250871, 0.00209453, -0.00731213, 0.00149311, 0.00149311, 0.00149311
6110, 1,0.00251958, -0.00136625, 0.000954259, 30.8772, -83.8253, 0.00853462, 26.3696, 209.541, 0.165952, 0.00101132, 0.00305745, 0.00551767, 37.448, 144.729, 0, 0.00101274, 0.0019861, 0.00361637, 24.515, 93.6675, 0, 0.00101358, -18.3347, -11.8978, -403.954, -7.95949, -11.5729, -261.47, 0.00192201, 0.00209102, -0.00636147, 0.00133781, 0.00133781, 0.00133781
6111, 1,0.00186647, -0.000840953, 0.000594476, 22.7733, -51.8863, 0.0166411, 36.2623, 209.974, 0.439638, 0.000979092, 0.00219851, 0.00404048, 26.9598, 104.702, 0, 0.000981853, 0.00157935, 0.00290311, 19.994, 72.7224, 0, 0.000982363, 0.0381267, -13.8591, -300.286, 9.58904, -16.1744, -211.582, 0.00169926, 0.00144899, -0.00484706, 0.00139441, 0.00139441, 0.00139441
6112, 1,0.00150579, -0.000385363, 0.000298039, 25.9013, -22.3825, 0.0203791, 13.2062, 230.625, 0.603268, 0.000946642, 0.00170731, 0.00275609, 31.5353, 67.9123, 0, 0.00095095, 0.00130675, 0.00218907, 20.4319, 57.1377, 0, 0.000951116, -8.92053, 6.41477, -201.231, -5.713, -4.21933, -161.481, 0.000936208, 0.00129804, -0.00333589, 0.000825531, 0.000825531, 0.000825531
6113, 1,0.00547558, -0.002555, 0.00176032, 25.2676, -150.131, 0.00290454, 14.9461, 162.576, 0, 0.00104398, 0.00643983, 0.010935, 33.2317, 209.054, 0.0904188, 0.00104301, 0.00451202, 0.00741745, 17.3199, 114.356, 0.0904188, 0.0010447, -27.4817, -35.3678, -564.314, -14.0806, -19.3777, -309.61, 0.00451465, 0.00432773, -0.012415, 0.00326887, 0.00326887, 0.00326887
6114, 1,0.00317201, -0.00164815, 0.0011413, 27.0532, -103.065, 0.0119179, 26.838, 206.503, 0.285858, 0.00101115, 0.00380012, 0.00680429, 31.9724, 198.58, 0, 0.00101193, 0.00254689, 0.00453177, 22.2594, 131.571, 0, 0.00101303, -41.2483, -20.2381, -534.253, -23.9731, -15.9854, -354.754, 0.00228354, 0.00275866, -0.00826448, 0.0015943, 0.0015943, 0.0015943
6115, 1,0.00221499, -0.000963852, 0.000687659, 21.4824, -60.435, 0.0170319, 3.5252, 226.298, 0.503309, 0.000978823, 0.00262214, 0.00448167, 26.1925, 130.585, 0, 0.000981752, 0.00181063, 0.00312305, 16.8643, 90.9611, 0, 0.000982383, -27.1528, -10.3779, -354.224, -13.683, -11.1892, -248.011, 0.00153816, 0.00191762, -0.00557459, 0.00119513, 0.00119513, 0.00119513
6116, 1,0.00180467, -0.000481155, 0.000373034, 24.374, -28.2061, 0.0225428, 14.3433, 232.642, 0.662026, 0.000946477, 0.00206067, 0.0033663, 30.9776, 87.5291, 0, 0.000950809, 0.00155066, 0.00266128, 17.9401, 72.8658, 0, 0.000951036, -11.8121, 20.763, -271.538, -6.48966, 6.63454, -218.742, 0.00118795, 0.00187815, -0.0044861, 0.00105895, 0.00105895, 0.00105895
6117, 1,0.00591052, -0.00287289, 0.00191843, -19.1613, -168.497, 0.00298994, 25.1028, 155.208, 0, 0.00104659, 0.00684326, 0.0121786, -19.0632, 271.353, 0.112373, 0.00104431, 0.00499159, 0.00842236, -18.8552, 157.243, 0.112373, 0.00104637, -59.8104, -115.3, -638.95, -42.5956, -80.3874, -348.745, 0.00549335, 0.0036953, -0.0138866, 0.00399372, 0.00399372, 0.00399372
6118, 1,0.00327564, -0.00184338, 0.0012456, 18.062, -117.63, 0.0107855, -15.0761, 257.295, 0.249302, 0.00101448, 0.00392202, 0.00733087, 18.2553, 224.156, 0, 0.00101571, 0.00263018, 0.0048507, 17.9382, 142.554, 0, 0.00101706, -41.1647, -42.4265, -588.878, -19.1102, -26.1595, -382.393, 0.00268408, 0.00268612, -0.00900752, 0.00186599, 0.00186599, 0.00186599
6119, 1,0.00227549, -0.00101483, 0.000734385, 20.33, -65.2849, 0.0166502, -17.7292, 268.876, 0.453028, 0.000982047, 0.00272561, 0.00438541, 24.2386, 139.72, 0, 0.000985561, 0.00182705, 0.00292523, 16.5264, 93.1809, 0, 0.000986306, -43.1185, -36.5815, -339.46, -26.1943, -30.312, -223.036, 0.00135484, 0.00148187, -0.00510377, 0.000975696, 0.000975696, 0.000975696
6120, 1,0.00199093, -0.00057138, 0.000458629, 38.9529, -32.8903, 0.0212612, -26.5888, 277.83, 0.626199, 0.000948245, 0.00231448, 0.00342577, 48.1522, 77.4086, 0, 0.000953641, 0.00167339, 0.00258484, 30.1451, 61.357, 0, 0.000953889, -10.9349, 39.3039, -260.595, -4.48265, 25.5723, -205.161, 0.00106024, 0.00206319, -0.00437925, 0.000933362, 0.000933362, 0.000933362
6121, 1,0.00269182, -0.00136935, 0.00101062, 64.4201, -82.2339, 0.005267, 276.33, -35.8012, 0.000292373, 0.00108167, 0.00331682, 0.00495352, 76.8324, 106.091, 0, 0.00107918, 0.00208021, 0.00297536, 52.5652, 59.5044, 0, 0.00108, -84.1784, -71.0221, -163.071, -45.1783, -47.5384, -85.7964, -0.000265761, 0.000209157, -0.00166523, -0.000173324, -0.000173324, -0.000173324
6122, 1,0.0018923, -0.00112416, 0.000796563, 23.5053, -70.9308, 0.00607902, -25.3157, 249.382, 0.0947565, 0.00104697, 0.00233739, 0.00411382, 26.7582, 113.09, 0, 0.00104953, 0.00147168, 0.00256157, 21.4493, 65.3982, 0, 0.00105034, -79.6826, -37.5559, -222.033, -44.8429, -23.2951, -128.057, 0.000111614, 0.00103063, -0.00297722, 9.64213E-05, 9.64213E-05, 9.64213E-05
6123, 1,0.00275136, -0.00114837, 0.000852951, 48.0385, -72.9562, 0.0134456, -3.22237, 282.454, 0.311453, 0.00101878, 0.00330276, 0.00487671, 55.2637, 133.921, 0, 0.00102222, 0.00220308, 0.00318717, 40.9412, 83.3862, 0, 0.00102306, -100.028, -9.13398, -292.601, -57.7812, -3.60035, -188.777, 0.000168325, 0.00196075, -0.00430166, 0.000262901, 0.000262901, 0.000262901
6124, 1,0.00330933, -0.00144976, 0.00103521, 17.4454, -81.5779, 0.0186469, -23.322, 289.231, 0.524495, 0.000982818, 0.00390651, 0.00672339, 22.1109, 173.073, 0.0262908, 0.000986546, 0.00272044, 0.00472235, 13.0379, 119.232, 0.0215519, 0.000987426, -160.818, 13.7439, -372.144, -98.912, 9.69426, -268.478, -0.000297812, 0.00372018, -0.00627169, 0.000206608, 0.000206608, 0.000206608
6125, 1,0.00305535, -0.00126292, 0.00100582, 97.4274, -72.6687, 0.00658838, 328.801, -92.4824, 0.0233348, 0.00108799, 0.00378038, 0.00500629, 119.077, 79.7438, 0, 0.00108493, 0.00234588, 0.00304321, 76.4515, 45.4432, 0, 0.00108554, -62.8418, -53.8474, -122.542, -34.9281, -42.661, -58.7403, -0.000247105, 0.000176295, -0.0012236, -0.000194962, -0.000194962, -0.000194962
6126, 1,0.00155274, -0.000910794, 0.000663225, 14.4559, -56.2243, 0.0047527, 18.6437, 193.599, 0.0477815, 0.00105244, 0.00196229, 0.00333848, 20.8294, 97.3976, 0, 0.00105417, 0.00114899, 0.00202178, 8.35858, 62.2201, 0, 0.00105477, -78.8896, -21.7097, -191.593, -53.4422, -16.6191, -116.599, -0.000124604, 0.00111304, -0.00256878, -0.000141548, -0.000141548, -0.000141548
6127, 1,0.0022121, -0.000947988, 0.000698584, 31.1893, -58.5205, 0.0126438, 5.33849, 256.925, 0.304385, 0.00102224, 0.00265571, 0.00411112, 38.395, 116.051, 0, 0.00102545, 0.00177147, 0.00273241, 24.1026, 79.0192, 0, 0.00102607, -86.7389, -12.0116, -249.402, -54.1418, -12.9953, -169.92, 0.000172456, 0.00161859, -0.0036737, 0.000274845, 0.000274845, 0.000274845
6128, 1,0.00259624, -0.00112601, 0.000809282, 40.8583, -64.4726, 0.0179217, -5.32864, 252.743, 0.530238, 0.000988213, 0.00305281, 0.00512021, 46.2855, 124.771, 0.00390168, 0.000991972, 0.00215786, 0.00357732, 36.0901, 85.6542, 0.00130773, 0.000992605, -127.474, 20.6063, -267.444, -75.6471, 9.69918, -191.015, -0.000399683, 0.00251145, -0.00413992, 7.81254E-05, 7.81254E-05, 7.81254E-05
6129, 1,0.00282317, -0.00108246, 0.000891896, 101.522, -60.4975, 0.00712154, 412.324, -102.019, 0.000448412, 0.00108955, 0.0035149, 0.00442354, 125.237, 54.7568, 0, 0.00108678, 0.00213849, 0.00266436, 78.0565, 30.1902, 0, 0.00108721, -47.6058, -31.3224, -85.3421, -30.1455, -22.0832, -38.3419, -0.000311793, 0.000250293, -0.000827499, -0.00032759, -0.00032759, -0.00032759
6130, 1,0.00144056, -0.000772975, 0.000567243, 24.1522, -46.9091, 0.00262791, 23.6552, 134.872, 0, 0.0010535, 0.00180158, 0.00277206, 31.0716, 73.334, 0, 0.00105456, 0.00107989, 0.00164131, 17.2362, 45.7341, 0, 0.00105503, -46.7658, -8.35921, -164.877, -29.3981, -5.24524, -102.559, 0.000155806, 0.00101255, -0.00235826, 8.76598E-05, 8.76598E-05, 8.76598E-05
6131, 1,0.00165592, -0.00079093, 0.000560995, 24.712, -48.278, 0.0104915, 17.5681, 235.085, 0.235105, 0.00102257, 0.00198615, 0.00325885, 29.4441, 86.0454, 0, 0.00102564, 0.00132617, 0.00214362, 19.9986, 56.7303, 0, 0.00102613, -61.4826, -0.651905, -196.002, -38.6636, -1.31646, -130.211, 0.000218398, 0.00138347, -0.00299763, 0.000235996, 0.000235996, 0.000235996
6132, 1,0.00173092, -0.000904085, 0.000638703, 12.4487, -54.205, 0.0174866, 4.5494, 235.578, 0.524235, 0.000988741, 0.00202366, 0.00378394, 15.2743, 106.767, 0, 0.000992377, 0.00146218, 0.00263319, 10.769, 75.4389, 0, 0.000992882, -91.9634, -9.54121, -218.797, -53.9395, -19.1033, -153.274, 6.58116E-05, 0.00151049, -0.0033078, 0.000366787, 0.000366787, 0.000366787
6133, 1,0.00193889, -0.000967568, 0.000786082, 43.3148, -54.6843, 0.013838, 444.484, -118.289, 0.125316, 0.00109051, 0.00254272, 0.00346395, 63.1887, 77.0439, 0, 0.00108691, 0.00133559, 0.00190219, 23.463, 53.632, 0, 0.00108732, -56.0234, -72.1533, -102.955, -43.9713, -50.8488, -66.0758, -0.000212178, -0.000243539, -0.000795219, -0.000322549, -0.000322549, -0.000322549
6134, 1,0.00110371, -0.000684609, 0.000497988, 22.1777, -41.7641, 0.00142147, 13.0347, 72.4688, 0, 0.00105406, 0.00141158, 0.00222925, 27.6245, 53.148, 0, 0.00105439, 0.000799239, 0.00124565, 16.8129, 28.182, 0, 0.00105482, -22.1325, -7.56788, -129.744, -9.9432, 0.533273, -75.1361, 0.00033917, 0.000712856, -0.00191448, 0.000203726, 0.000203726, 0.000203726
6135, 1,0.00108304, -0.00068669, 0.000473927, 11.333, -42.1133, 0.00803371, 26.8839, 226.266, 0.141834, 0.00102234, 0.00132924, 0.00233583, 13.5484, 66.6276, 0, 0.00102532, 0.000839935, 0.00140635, 9.2064, 40.6692, 0, 0.00102575, -52.0076, -4.98779, -142.887, -35.5855, -1.97352, -84.4485, 9.31679E-05, 0.000977924, -0.00215173, 2.85274E-05, 2.85274E-05, 2.85274E-05
6136, 1,0.00158029, -0.000754194, 0.000521636, 28.4803, -45.6887, 0.0168191, -2.23217, 251.159, 0.484321, 0.000989438, 0.00184325, 0.00317714, 31.1166, 76.3049, 0, 0.000993748, 0.00132274, 0.00218902, 25.9927, 48.75, 0, 0.000994193, -61.3392, 6.3342, -173.91, -32.8628, 2.80459, -116.192, 0.000241956, 0.00136529, -0.00284432, 0.000399021, 0.000399021, 0.000399021
6137, 1,0.00182556, -0.00089838, 0.000714449, 49.8269, -51.6862, 0.0239544, 470.588, -153.339, 0.321921, 0.00109323, 0.00235372, 0.00315121, 65.9694, 62.7452, 0, 0.00108881, 0.0012993, 0.00174069, 33.7424, 38.7621, 0, 0.00108924, -33.4837, -74.2614, -80.4904, -24.3053, -47.4598, -44.5211, -2.39299E-05, -0.000508938, -0.000486219, -0.000201063, -0.000201063, -0.000201063
6138, 1,0.00103741, -0.000658875, 0.000481947, 29.6942, -40.4197, 0.00182106, 95.6544, -13.1792, 0, 0.00105789, 0.00132819, 0.00202266, 34.4167, 39.1843, 0, 0.00105699, 0.000757351, 0.00108404, 25.4286, 14.5411, 0, 0.00105741, -3.26756, -13.3245, -100.961, 5.64102, -1.58373, -47.6805, 0.000509181, 0.000365114, -0.00151025, 0.000309807, 0.000309807, 0.000309807
6139, 1,0.000925694, -0.000624483, 0.000426563, 14.1203, -38.6835, 0.0072018, 21.8404, 231.108, 0.113528, 0.00102408, 0.00113094, 0.00195237, 14.8007, 52.595, -5.42101E-20, 0.00102731, 0.000721698, 0.00112337, 13.547, 27.9371, -5.42101E-20, 0.00102772, -40.0886, -7.48402, -110.212, -27.0525, -1.40529, -55.3536, 0.000118193, 0.000700446, -0.00167159, 1.58858E-06, 1.58858E-06, 1.58858E-06
6140, 1,0.0012057, -0.000660469, 0.000448188, 25.1771, -40.5672, 0.0153894, -0.489779, 244.268, 0.441117, 0.000991293, 0.00143029, 0.00238019, 26.2476, 57.4487, 0, 0.00099559, 0.000981831, 0.00152301, 24.3272, 31.7855, 0, 0.000996005, -46.6015, -1.40285, -124.342, -24.7916, -0.684161, -69.8808, 0.000229346, 0.00090828, -0.00206881, 0.000276079, 0.000276079, 0.000276079
6141, 1,0.00167176, -0.000842763, 0.000659027, 59.9843, -49.0846, 0.0297561, 473.485, -154.007, 0.430581, 0.00109517, 0.00213237, 0.00276886, 73.0358, 38.0895, 0, 0.0010909, 0.00122616, 0.00150556, 47.496, 14.0766, 0, 0.00109133, -6.87287, -64.8269, -42.5687, 0.972786, -36.7995, -6.40296, 0.000174813, -0.00070311, -9.0605E-05, -2.82138E-05, -2.82138E-05, -2.82138E-05
6142, 1,0.00100115, -0.000638182, 0.000464651, 21.8379, -39.2207, 0.00380447, 230.653, -68.582, 0, 0.00106084, 0.0012839, 0.00204205, 26.2762, 47.5349, 0, 0.00105884, 0.000726438, 0.00113591, 17.797, 23.4384, 0, 0.00105926, -6.03469, -35.1394, -101.431, 1.31518, -22.1762, -49.454, 0.000580519, 2.87983E-05, -0.00138078, 0.000357091, 0.000357091, 0.000357091
6143, 1,0.000731347, -0.000595142, 0.00040988, 9.3695, -36.9896, 0.00705068, 30.6304, 225.954, 0.102246, 0.00102652, 0.000930777, 0.00171117, 9.75979, 46.9005, 0, 0.00102973, 0.000541381, 0.000927316, 9.44033, 23.1568, 0, 0.00103013, -23.8087, -17.1568, -99.736, -13.1072, -9.64303, -46.7202, 0.00035535, 0.000411603, -0.00152759, 0.000203271, 0.000203271, 0.000203271
6144, 1,0.000839584, -0.000589003, 0.00039578, 4.24843, -36.5676, 0.0148436, -3.26289, 251.028, 0.41461, 0.0009928, 0.00103304, 0.00187998, 4.70264, 58.4461, 0, 0.000997129, 0.000646689, 0.00112037, 3.91345, 34.7083, 0, 0.000997513, -42.9833, -16.3855, -115.97, -25.0325, -14.023, -65.0694, 0.000269337, 0.000629053, -0.00184592, 0.000265435, 0.000265435, 0.000265435
6145, 1,0.00173585, -0.0008167, 0.00063645, 53.7511, -47.6427, 0.0313412, 475.602, -154.976, 0.459615, 0.00109674, 0.00211774, 0.00281684, 63.4508, 45.511, 0, 0.00109223, 0.0014088, 0.00172688, 46.5963, 21.9446, 0, 0.00109265, -11.8105, -96.5043, -28.2182, -4.30237, -70.7149, 9.18353, 0.000246237, -0.00125992, 0.00027451, 4.3182E-05, 4.3182E-05, 4.3182E-05
6146, 1,0.000895227, -0.000619303, 0.000449964, 25.125, -37.8335, 0.00571824, 348.502, -105.399, 0, 0.00106326, 0.00116185, 0.00185103, 29.1757, 35.898, 0, 0.00106083, 0.000640774, 0.000996839, 21.7195, 13.0667, 0, 0.00106122, 8.0725, -35.3669, -80.3998, 13.9633, -22.6001, -30.5633, 0.000696, -0.000165419, -0.00111321, 0.000462066, 0.000462066, 0.000462066
6147, 1,0.00085334, -0.000570562, 0.000396338, 7.39608, -35.3131, 0.00628409, 27.3858, 227.655, 0.0767778, 0.00102748, 0.001062, 0.00181624, 8.90609, 54.9892, 0, 0.00103054, 0.000654316, 0.00105895, 6.38812, 32.7397, 0, 0.00103091, -21.5087, -31.9358, -111.523, -12.1761, -25.3988, -60.6441, 0.000502089, 0.000230711, -0.0016248, 0.000344604, 0.000344604, 0.000344604
6148, 1,0.000860413, -0.000528907, 0.000355086, 9.07784, -33.0561, 0.0148487, 2.83316, 247.201, 0.407155, 0.000993914, 0.00103412, 0.00187295, 9.46937, 50.1355, 0, 0.000998274, 0.000688378, 0.00117711, 8.70363, 28.4927, 0, 0.000998625, -34.8479, -4.66418, -110.894, -18.8236, -2.62681, -64.0277, 0.000267047, 0.000774005, -0.00185388, 0.000255596, 0.000255596, 0.000255596
6149, 1,0.00169458, -0.000759956, 0.000586015, 51.1432, -44.5071, 0.0284476, 468.234, -144.126, 0.404539, 0.00109807, 0.00207, 0.00275836, 60.7209, 44.2552, 0, 0.00109397, 0.0013426, 0.00166944, 42.6987, 21.7352, 0, 0.00109437, -8.66274, -76.2046, -47.8983, -1.07294, -53.1047, -11.0279, 0.00033976, -0.000859149, -0.000199241, 0.000153926, 0.000153926, 0.000153926
6150, 1,0.000947021, -0.000591537, 0.000431611, 25.5818, -35.8862, 0.00671241, 394.541, -104.179, 0, 0.00106484, 0.0011801, 0.00182595, 28.9246, 35.7742, 0, 0.00106243, 0.000743604, 0.00105099, 23.5965, 14.595, 0, 0.00106279, 0.752688, -35.6816, -72.3938, 5.8042, -24.2441, -25.3449, 0.00053955, -0.000177903, -0.000942259, 0.000314054, 0.000314054, 0.000314054
6151, 1,0.00087606, -0.000531969, 0.000373574, 8.90206, -32.7694, 0.00520491, 26.9211, 227.08, 0.0385498, 0.00102876, 0.00107707, 0.00182756, 10.8489, 53.6402, 0, 0.00103175, 0.000684414, 0.00111819, 7.4276, 33.3921, 0, 0.00103209, -15.4584, -32.8093, -112.653, -7.73454, -27.2416, -65.2, 0.000582722, 0.000191674, -0.0016446, 0.000423202, 0.000423202, 0.000423202
6152, 1,0.000808273, -0.000487758, 0.000328725, 6.29632, -30.4522, 0.0136329, 3.94192, 243.405, 0.366637, 0.000995103, 0.000968138, 0.00184523, 6.3843, 52.1838, 0, 0.00099921, 0.000649532, 0.00120343, 6.21711, 32.5151, 0, 0.000999529, -34.1613, -10.8744, -111.516, -20.0932, -10.0362, -67.4158, 0.000269244, 0.000684962, -0.00180045, 0.000248356, 0.000248356, 0.000248356
6153, 1,0.00137352, -0.000701663, 0.000537901, 39.1799, -41.1051, 0.0260054, 477.665, -161.472, 0.360069, 0.0011, 0.00173476, 0.00233471, 48.5471, 39.0617, 0, 0.00109571, 0.00102232, 0.00129049, 30.3158, 18.149, 0, 0.00109608, -7.04043, -58.5434, -51.6014, -0.381844, -35.4721, -18.593, 0.000321167, -0.00057997, -0.000375397, 0.000140216, 0.000140216, 0.000140216
6154, 1,0.00090902, -0.000547853, 0.000400772, 19.341, -33.1525, 0.00704355, 408.573, -101.973, 0, 0.00106654, 0.00113583, 0.00177058, 23.0004, 40.4584, 0, 0.00106407, 0.000702237, 0.00102999, 16.5761, 21.0381, 0, 0.00106441, -7.17018, -38.8378, -75.3671, -2.74675, -27.9042, -32.4634, 0.000447768, -0.000172055, -0.000932311, 0.000236612, 0.000236612, 0.000236612
6155, 1,0.000750419, -0.00048927, 0.000347302, 13.1727, -30.0581, 0.00425794, 45.6898, 202.031, 0.00414302, 0.00103086, 0.000940035, 0.00160981, 15.2645, 39.4077, 2.62188E-07, 0.00103359, 0.000572019, 0.000957966, 11.6966, 21.0466, 2.62188E-07, 0.00103389, -2.86356, -25.0196, -90.34, 2.93856, -19.4522, -46.6261, 0.000606324, 0.000131313, -0.00137696, 0.00043636, 0.00043636, 0.00043636
6156, 1,0.000700605, -0.000439936, 0.000298727, 6.375, -27.4903, 0.0120599, 4.9653, 239.656, 0.311737, 0.000996769, 0.000854402, 0.00157365, 7.09134, 43.841, 0, 0.00100076, 0.000549046, 0.000985879, 5.7665, 26.2218, 0, 0.00100105, -26.7801, -9.46389, -95.2791, -15.5151, -8.55848, -54.5917, 0.000253064, 0.000581539, -0.00154561, 0.000206315, 0.000206315, 0.000206315
6157, 1,0.00126823, -0.000664013, 0.000512124, 37.6354, -38.6808, 0.0243374, 476.334, -160.397, 0.32838, 0.0011019, 0.0016112, 0.00212768, 46.6364, 32.8031, 0, 0.00109781, 0.000939655, 0.00114867, 29.4023, 13.429, 0, 0.00109816, -1.66425, -56.4885, -40.2566, 3.70461, -33.7078, -10.2839, 0.000368452, -0.00065556, -0.000245357, 0.000183429, 0.000183429, 0.000183429
6158, 1,0.000762027, -0.000501042, 0.00036672, 18.0899, -30.3245, 0.00708397, 420.419, -115.309, 0, 0.00106893, 0.000981458, 0.0015132, 21.9743, 31.7515, 0, 0.00106638, 0.000554668, 0.000810148, 14.6712, 13.9228, 0, 0.00106669, -1.80913, -29.5354, -63.91, 1.58655, -17.738, -25.617, 0.00042955, -0.000114458, -0.000830368, 0.000221458, 0.000221458, 0.000221458
6159, 1,0.000632766, -0.000435806, 0.00030904, 6.17792, -26.9175, 0.00355898, 20.2173, 198.927, 0, 0.00103298, 0.000805041, 0.00142623, 8.19971, 40.0139, 0, 0.00103564, 0.000468572, 0.000829238, 4.4636, 23.3347, 0, 0.00103592, -5.49737, -26.0357, -88.5086, -0.958799, -19.5355, -49.5098, 0.000547353, 0.00012064, -0.0013172, 0.000377521, 0.000377521, 0.000377521
6160, 1,0.000688873, -0.000392364, 0.000267122, 8.15863, -24.6604, 0.0108382, -8.3398, 248.235, 0.278628, 0.000998535, 0.000822264, 0.00150404, 8.69904, 40.0636, 0, 0.00100266, 0.000557797, 0.000983247, 7.87115, 24.2281, 0, 0.00100291, -22.4944, -6.79399, -90.9023, -13.2066, -5.77823, -53.6995, 0.000251074, 0.000580311, -0.0014812, 0.000191712, 0.000191712, 0.000191712
6161, 1,0.00128605, -0.000629579, 0.000489887, 38.9436, -36.3885, 0.022262, 478.169, -164.803, 0.289068, 0.00110398, 0.00161256, 0.002091, 47.7258, 29.8503, 0, 0.00109993, 0.0009786, 0.00117475, 31.129, 12.0376, 0, 0.00110025, -0.364076, -59.0538, -30.1331, 4.05255, -37.0881, -3.07719, 0.00038303, -0.000777311, -9.02086E-05, 0.000201099, 0.000201099, 0.000201099
6162, 1,0.000806627, -0.000473912, 0.000351963, 18.4326, -28.4281, 0.00652429, 381.551, -98.6526, 0, 0.0010707, 0.00101383, 0.00150808, 22.2834, 32.5967, 0, 0.00106842, 0.000616738, 0.000859995, 15.3581, 16.3437, 0, 0.0010687, -1.66195, -37.362, -58.7661, 0.569201, -26.1156, -23.4846, 0.000453886, -0.000268737, -0.000714137, 0.000245606, 0.000245606, 0.000245606
6163, 1,0.000640556, -0.000398222, 0.000284645, 11.2322, -24.5432, 0.00314556, 19.4624, 173.462, 0, 0.00103524, 0.000799796, 0.00132667, 13.2277, 33.2033, 0, 0.00103759, 0.000488252, 0.000780434, 9.53948, 18.1841, 0, 0.00103785, 1.59674, -25.7593, -75.4472, 4.91513, -19.2212, -40.2462, 0.000576623, 2.31912E-05, -0.00113854, 0.000407714, 0.000407714, 0.000407714
6164, 1,0.000546059, -0.000338334, 0.000228453, 0.897868, -21.5466, 0.00943056, -11.9416, 252.401, 0.223662, 0.00100033, 0.000658966, 0.001289, 0.894913, 40.5163, 0, 0.00100436, 0.00043495, 0.000839123, 0.944638, 26.4264, 0, 0.00100459, -21.2691, -13.9544, -86.3253, -13.8563, -11.6758, -53.7471, 0.000249281, 0.000439649, -0.00134615, 0.000179158, 0.000179158, 0.000179158
6165, 1,0.00124254, -0.000593407, 0.000465089, 35.0226, -34.0572, 0.018769, 464.49, -144.926, 0.221002, 0.00110536, 0.00155483, 0.00201648, 43.6518, 31.3281, 0, 0.00110184, 0.000949309, 0.00115293, 27.3727, 15.0326, 0, 0.00110213, -1.54597, -62.8022, -29.6361, 1.82953, -41.4225, -5.50486, 0.000409964, -0.000847099, -7.14459E-05, 0.000228261, 0.000228261, 0.000228261
6166, 1,0.000711298, -0.000437301, 0.000327047, 16.0887, -26.0957, 0.00570036, 330.219, -82.1109, 0, 0.00107244, 0.0009065, 0.0013459, 19.9574, 28.2762, 0, 0.00107052, 0.000534356, 0.000745739, 13.0309, 13.5849, 0, 0.00107077, -0.762238, -36.6308, -47.4356, 0.547647, -25.0304, -16.2721, 0.000413194, -0.000324411, -0.000547685, 0.000209605, 0.000209605, 0.000209605
6167, 1,0.000599233, -0.000355892, 0.000255261, 10.9937, -21.9336, 0.00276189, 19.0441, 149.594, 0, 0.00103763, 0.00075086, 0.00123639, 13.2303, 30.4106, 0, 0.00103964, 0.00044958, 0.000732988, 8.8723, 17.0547, 0, 0.00103986, -0.487529, -22.8729, -67.8714, 1.92934, -16.4247, -36.6688, 0.000478472, 4.19518E-05, -0.00101383, 0.000317209, 0.000317209, 0.000317209
6168, 1,0.000516182, -0.000296936, 0.000202479, 6.1077, -18.9689, 0.00793746, -1.35482, 240.633, 0.16286, 0.0010025, 0.000623565, 0.00115554, 6.64991, 30.4782, 0, 0.00100632, 0.000409102, 0.000753459, 5.64981, 18.169, 0, 0.00100652, -8.74034, -7.61772, -75.0765, -3.14745, -5.07875, -46.2808, 0.000329045, 0.000418608, -0.00124197, 0.000249858, 0.000249858, 0.000249858
6169, 1,0.00129651, -0.000564815, 0.000447694, 40.6384, -32.1523, 0.0159425, 464.523, -147.43, 0.166696, 0.00110743, 0.00159415, 0.00196795, 49.0971, 27.2414, 0, 0.00110403, 0.00102338, 0.00116199, 33.4452, 12.3919, 0, 0.00110429, -0.645724, -63.4421, -17.6365, 1.71664, -42.5969, 3.7046, 0.00038316, -0.000930657, 0.000105107, 0.000201545, 0.000201545, 0.000201545
6170, 1,0.000661779, -0.000399327, 0.000300389, 12.8524, -23.7335, 0.00465963, 270.134, -67.6091, 0, 0.00107425, 0.000851453, 0.00129901, 16.9706, 29.1117, 0, 0.00107257, 0.000482453, 0.000729933, 9.14538, 15.9412, 0, 0.0010728, -0.346304, -38.2875, -48.7013, 0.33526, -26.927, -21.2319, 0.000439804, -0.000347387, -0.000564913, 0.000246542, 0.000246542, 0.000246542
6171, 1,0.000551411, -0.000316969, 0.000229635, 11.3557, -19.4678, 0.00236041, 20.6752, 121.868, 0, 0.00103973, 0.000692065, 0.00110137, 13.6888, 26.0966, 0, 0.00104135, 0.000411971, 0.000646541, 9.10706, 14.3956, 0, 0.00104154, 1.98509, -19.957, -60.3177, 3.21114, -13.2054, -33.1927, 0.000457975, 3.28988E-05, -0.000914265, 0.000297868, 0.000297868, 0.000297868
6172, 1,0.000514553, -0.000251428, 0.000171617, 2.76389, -16.1555, 0.00672419, -0.13996, 244.116, 0.110532, 0.00100423, 0.000595583, 0.0011203, 3.10095, 32.9186, 0, 0.00100794, 0.000435403, 0.000789901, 2.53658, 22.3959, 0, 0.00100812, -12.8767, -9.67896, -76.2001, -8.53171, -7.13569, -51.5204, 0.000265156, 0.000409104, -0.00120815, 0.000188587, 0.000188587, 0.000188587
6173, 1,0.00125886, -0.00053005, 0.000423812, 43.6432, -30.0143, 0.0136515, 462.844, -146.848, 0.122265, 0.00110944, 0.00154622, 0.00187517, 52.1515, 21.0307, 0, 0.00110623, 0.000993801, 0.00110903, 36.274, 7.54721, 0, 0.00110647, 3.05734, -58.3524, -7.7969, 4.80844, -37.9615, 10.5114, 0.000372622, -0.000919473, 0.00020516, 0.000198877, 0.000198877, 0.000198877
6174, 1,0.000608205, -0.000364477, 0.000276613, 14.2322, -21.552, 0.00397986, 234.249, -62.5966, 0, 0.00107617, 0.00078925, 0.00115828, 18.4565, 23.3366, 0, 0.00107467, 0.000434149, 0.000626398, 10.2935, 11.6368, 0, 0.00107488, 2.87965, -33.0194, -39.87, 2.72751, -21.3768, -16.2611, 0.000419707, -0.000325732, -0.000472798, 0.000231941, 0.000231941, 0.000231941
6175, 1,0.000490274, -0.000279715, 0.000205013, 9.62593, -17.0865, 0.00210743, 21.8546, 104.21, 0, 0.00104205, 0.000619332, 0.000985392, 12.0171, 23.6029, 0, 0.00104341, 0.000362281, 0.000578718, 7.30954, 13.5346, 0, 0.00104358, 2.88264, -20.1161, -53.5753, 3.16969, -13.2213, -30.5522, 0.000435625, -1.30317E-05, -0.000805517, 0.000281634, 0.000281634, 0.000281634
6176, 1,0.000386712, -0.000209054, 0.000143315, 3.53179, -13.4421, 0.00550979, 9.18429, 233.393, 0.0625899, 0.00100628, 0.000462156, 0.000873697, 3.83643, 24.288, 0, 0.00100984, 0.000319108, 0.000595974, 3.40139, 15.5798, 0, 0.00100998, -4.75513, -9.33723, -58.7718, -1.90752, -6.08234, -38.7496, 0.000294867, 0.000269555, -0.000958227, 0.000215706, 0.000215706, 0.000215706
6177, 1,0.00123779, -0.00050184, 0.000406074, 45.2013, -28.2085, 0.0121737, 462.46, -147.785, 0.093589, 0.00111152, 0.00151464, 0.00179976, 53.7089, 17.6371, 0, 0.0011084, 0.000984887, 0.00107584, 37.9211, 5.44902, 0, 0.00110861, 3.23596, -57.6481, 1.50092, 4.33625, -37.5798, 16.8965, 0.000328919, -0.000958599, 0.000343004, 0.000161352, 0.000161352, 0.000161352
6178, 1,0.000642508, -0.000337882, 0.000260807, 18.6958, -19.7769, 0.00360941, 211.647, -55.6694, 0, 0.00107801, 0.000816053, 0.00110941, 23.0763, 18.8498, 0, 0.00107671, 0.000477427, 0.000616233, 14.7194, 8.5835, 0, 0.00107689, 6.12684, -31.8408, -30.8353, 5.13014, -20.3711, -10.5095, 0.000420557, -0.000370173, -0.000356424, 0.000237663, 0.000237663, 0.000237663
6179, 1,0.000434725, -0.000244206, 0.000181683, 7.60324, -14.7947, 0.00184751, 15.9436, 95.6504, 0, 0.00104395, 0.000553758, 0.000889514, 10.1431, 21.6596, 0, 0.00104521, 0.000315794, 0.000526888, 5.08321, 13.209, 0, 0.00104535, 1.80311, -20.0478, -46.7342, 1.33676, -13.2474, -27.7164, 0.000381509, -4.492E-05, -0.000687983, 0.000237407, 0.000237407, 0.000237407
6180, 1,0.000418795, -0.000168401, 0.000116825, 5.446, -10.7983, 0.00451372, 2.9621, 235.337, 0.0288434, 0.00100813, 0.000482726, 0.000851875, 5.91854, 22.7363, 0, 0.00101168, 0.000355678, 0.000623002, 5.03921, 15.8419, 0, 0.00101179, -1.05664, -10.8648, -56.2874, 0.812473, -7.80195, -40.5361, 0.000345996, 0.000200624, -0.000915226, 0.000275158, 0.000275158, 0.000275158
6181, 1,0.00119321, -0.000475686, 0.000388899, 45.751, -26.5393, 0.0112122, 462.007, -148.067, 0.0748482, 0.00111341, 0.00146195, 0.00169534, 54.2968, 14.3055, 0, 0.00111037, 0.00094908, 0.00100735, 38.4777, 3.30033, 0, 0.00111057, 4.81126, -55.3077, 7.58002, 5.29655, -35.266, 20.0684, 0.000314611, -0.000963178, 0.000415916, 0.000152327, 0.000152327, 0.000152327
6182, 1,0.000613178, -0.000310883, 0.000244125, 18.8556, -17.994, 0.00358219, 214.061, -60.5643, 0, 0.00108025, 0.000779828, 0.00102791, 23.4268, 15.9709, 0, 0.00107891, 0.000455623, 0.000569774, 14.732, 7.09319, 0, 0.00107907, 6.05759, -32.0248, -21.9454, 4.50328, -20.583, -5.19985, 0.000375688, -0.000419701, -0.000215331, 0.000202993, 0.000202993, 0.000202993
6183, 1,0.000404606, -0.000213657, 0.000163308, 7.88984, -12.738, 0.00155321, 11.416, 82.9863, 0, 0.00104608, 0.000517418, 0.000799855, 10.735, 18.3242, 0, 0.00104718, 0.000291896, 0.000473996, 5.06029, 11.4854, 0, 0.0010473, 2.88887, -20.3542, -37.5073, 1.65223, -13.669, -22.4394, 0.000352455, -0.000108266, -0.000541469, 0.000217796, 0.000217796, 0.000217796
6184, 1,0.000357775, -0.000127066, 8.96401E-05, 4.25559, -8.1051, 0.00379642, 8.21786, 224.089, 0.00342845, 0.00101021, 0.000409778, 0.000728432, 4.89376, 19.2226, 0, 0.00101358, 0.000305875, 0.000553482, 3.67726, 14.1711, 0, 0.00101366, -0.297465, -9.53532, -47.835, 0.562931, -6.48045, -36.5959, 0.000307164, 0.000162201, -0.000780947, 0.00024436, 0.00024436, 0.00024436
6185, 1,0.0012193, -0.000455826, 0.000377536, 49.4294, -25.2032, 0.0106425, 462.318, -149.311, 0.0638435, 0.00111548, 0.0014804, 0.00166691, 57.9986, 11.0386, 1.69407E-21, 0.00111249, 0.000985232, 0.00101399, 42.2675, 1.1251, 1.69407E-21, 0.00111266, 6.45625, -55.4784, 15.9063, 6.4279, -35.6428, 25.8396, 0.000300732, -0.00101896, 0.000538576, 0.000144654, 0.000144654, 0.000144654
6186, 1,0.0006079, -0.000286091, 0.00022942, 19.8717, -16.3271, 0.00354351, 213.361, -62.0168, 0, 0.00108221, 0.000769622, 0.000979214, 24.7081, 13.6556, 0, 0.00108088, 0.000455279, 0.000551161, 15.491, 6.12219, 0, 0.00108102, 6.21931, -32.2031, -14.9829, 4.18078, -20.9268, -1.62055, 0.000343567, -0.000462106, -0.000103248, 0.000181874, 0.000181874, 0.000181874
6187, 1,0.00038611, -0.000184153, 0.000145951, 9.14353, -10.7381, 0.0014703, 15.3406, 72.535, 0, 0.00104822, 0.000493778, 0.000716625, 12.3462, 14.5527, 0, 0.00104921, 0.00027853, 0.000425402, 5.95296, 9.31849, 0, 0.0010493, 4.43525, -19.3301, -28.7631, 2.55067, -12.7158, -17.7903, 0.000326012, -0.000150215, -0.000411887, 0.000203225, 0.000203225, 0.000203225
6188, 1,0.000302696, -8.59631E-05, 6.26242E-05, 2.21588, -5.43724, 0.00345023, 7.33726, 208.589, 0, 0.00101234, 0.000338898, 0.000610633, 2.91601, 17.0967, 0, 0.00101549, 0.000268678, 0.000498436, 1.54032, 13.9108, 0, 0.00101554, -1.1445, -8.97741, -41.1682, -1.11628, -5.91401, -34.702, 0.000255389, 0.000134968, -0.00066745, 0.000204716, 0.000204716, 0.000204716
6189, 1,0.00119071, -0.000434899, 0.000364748, 49.8864, -23.843, 0.0100906, 461.074, -147.917, 0.0530072, 0.00111738, 0.00144652, 0.00159235, 58.5862, 8.62065, 0, 0.00111446, 0.000962561, 0.000966622, 42.6338, -0.263644, 0, 0.00111462, 5.89911, -53.7727, 22.0117, 5.4896, -33.9285, 29.2299, 0.00025228, -0.00102152, 0.000628813, 0.000104368, 0.000104368, 0.000104368
6190, 1,0.000620459, -0.000263971, 0.000217031, 22.848, -14.807, 0.00352188, 213.297, -63.2335, 0, 0.00108426, 0.000779202, 0.000935501, 28.0179, 9.93015, 0, 0.00108297, 0.000470858, 0.000533174, 18.1459, 3.68887, 0, 0.00108308, 7.64105, -30.7016, -6.72994, 5.17157, -19.5363, 3.29816, 0.00031565, -0.000491027, 1.40379E-05, 0.000165261, 0.000165261, 0.000165261
6191, 1,0.000366315, -0.000157767, 0.000131719, 9.58721, -8.89087, 0.0013957, 17.3634, 65.0526, 0, 0.0010503, 0.000471724, 0.000648937, 13.285, 11.8492, 0, 0.0010512, 0.000261163, 0.000386657, 5.90503, 8.21246, 0, 0.00105127, 5.00984, -19.1329, -21.4245, 2.57627, -12.7009, -14.5128, 0.000295848, -0.000192124, -0.00029595, 0.000186811, 0.000186811, 0.000186811
6192, 1,0.000243851, -5.57717E-05, 4.6376E-05, 1.21164, -3.25435, 0.00322009, 7.71901, 193.415, 0, 0.00101442, 0.000268341, 0.000484595, 2.08075, 13.7271, 0, 0.00101738, 0.00022324, 0.000426358, 0.501983, 12.4308, 0, 0.0010174, -0.456012, -9.10436, -31.6208, -1.14751, -6.23401, -29.911, 0.00021576, 7.50129E-05, -0.000513191, 0.000179876, 0.000179876, 0.000179876
6193, 1,0.00121587, -0.000418459, 0.000355402, 52.8095, -22.7474, 0.00984515, 460.785, -147.805, 0.0482733, 0.00111937, 0.00146791, 0.00157166, 61.6479, 6.10244, 0, 0.0011165, 0.000991719, 0.000967959, 45.4427, -1.89159, 0, 0.00111665, 5.93481, -52.8755, 28.6334, 5.2472, -33.1147, 33.5422, 0.00021551, -0.00104258, 0.000727508, 7.58622E-05, 7.58622E-05, 7.58622E-05
6194, 1,0.000648846, -0.000244566, 0.000207105, 25.8854, -13.4349, 0.00359472, 218.136, -65.0328, 0, 0.00108634, 0.000806611, 0.000916964, 31.4666, 7.02391, 0, 0.00108507, 0.000500106, 0.000535369, 20.7768, 2.0249, 0, 0.00108516, 8.33001, -29.8839, 0.482167, 5.47247, -18.9155, 7.36838, 0.000285807, -0.000521389, 0.000121405, 0.000146851, 0.000146851, 0.000146851
6195, 1,0.000360324, -0.000135836, 0.000121898, 11.2804, -7.26228, 0.00127707, 16.6247, 58.4572, 0, 0.00105218, 0.000467586, 0.000593436, 15.6631, 8.35349, 0, 0.00105303, 0.000253651, 0.000351826, 6.92254, 6.29659, 0, 0.00105307, 6.05242, -18.1302, -12.9827, 3.16158, -11.8993, -10.152, 0.000263355, -0.00022916, -0.000169702, 0.000169642, 0.000169642, 0.000169642
6196, 1,0.000198808, 5.29215E-05, 4.75085E-05, 1.1131, 2.79157, 0.00299473, 3.50537, 184.821, 0, 0.00101634, 0.000212638, 0.000372865, 2.29322, 9.95673, 0, 0.00101923, 0.000195718, 0.000370775, 0.612233, 10.5792, 0, 0.00101922, 0.634994, -7.85619, -22.649, -0.674957, -5.27886, -25.7838, 0.000178984, 3.80982E-05, -0.000378329, 0.000160444, 0.000160444, 0.000160444
6197, 1,0.00121326, -0.000405605, 0.000349105, 53.254, -21.8379, 0.00977928, 458.35, -143.995, 0.0468447, 0.0011213, 0.00146194, 0.00153734, 62.2183, 5.01089, 0, 0.00111853, 0.0009947, 0.000955557, 45.8967, -2.15022, 0, 0.00111866, 4.59532, -53.7, 34.072, 3.68733, -33.7658, 36.5291, 0.000172514, -0.00107942, 0.000825074, 4.13709E-05, 4.13709E-05, 4.13709E-05
6198, 1,0.00067804, -0.000228069, 0.000199712, 29.4665, -12.2217, 0.00372846, 226.801, -68.1423, 0, 0.00108839, 0.000836675, 0.000896289, 35.5246, 3.39155, 0, 0.00108712, 0.000528755, 0.000531369, 23.9076, -0.424743, 0, 0.00108719, 9.05219, -28.2653, 9.03846, 5.90133, -17.3969, 12.7698, 0.000245061, -0.000546872, 0.000246578, 0.000118547, 0.000118547, 0.000118547
6199, 1,0.000359967, -0.000119236, 0.0001174, 12.8645, -5.88949, 0.00114592, 14.3521, 53.152, 0, 0.00105425, 0.000474123, 0.000553249, 18.1656, 5.38803, 0, 0.00105506, 0.000247003, 0.00032239, 7.61094, 4.90165, 0, 0.00105507, 6.5877, -17.5281, -5.22371, 3.29851, -11.5419, -6.46159, 0.000228333, -0.000266572, -4.91526E-05, 0.00015099, 0.00015099, 0.00015099
6200, 1,0.000160077, 8.68989E-05, 6.6144E-05, 1.4809, 5.05879, 0.00281995, 2.80091, 175.237, 0, 0.00101831, 0.000169568, 0.00026805, 3.26935, 6.13042, 0, 0.00102111, 0.000166825, 0.000312443, 0.552543, 8.70562, 0, 0.00102107, 1.68619, -6.53001, -13.5474, -0.152081, -4.33678, -21.628, 0.000140324, 1.65393E-06, -0.000241148, 0.000141493, 0.000141493, 0.000141493
6201, 1,0.00129536, -0.000394929, 0.00034423, 59.7634, -21.0847, 0.00978388, 460.287, -147.095, 0.0471317, 0.00112354, 0.00154423, 0.00157324, 68.9967, 1.25735, 0, 0.00112076, 0.00107516, 0.00100071, 52.0567, -5.21079, 0, 0.00112088, 5.4679, -51.9436, 42.7036, 4.4852, -32.2341, 43.3812, 0.00013382, -0.00110155, 0.000946821, 1.20375E-05, 1.20375E-05, 1.20375E-05
6202, 1,0.000683432, -0.000213267, 0.000193565, 30.2787, -11.1104, 0.0038546, 234.129, -69.9288, 0, 0.00109048, 0.000845195, 0.000876379, 36.9001, 2.0861, 0, 0.00108921, 0.00053045, 0.000522165, 24.1383, -0.599669, 0, 0.00108925, 8.64418, -28.6209, 13.7184, 5.26028, -17.8323, 14.3711, 0.000216189, -0.000577221, 0.000326981, 0.000102607, 0.000102607, 0.000102607
6203, 1,0.0003788, 0.000128892, 0.000118734, 15.9265, 6.55103, 0.00103106, 13.7167, 46.719, 0, 0.00105613, 0.000505876, 0.000531429, 22.4193, 1.712, 0, 0.0010569, 0.000253267, 0.000299169, 9.49057, 2.77499, 0, 0.00105688, 7.36862, -15.9271, 3.42253, 3.74275, -10.204, -1.86371, 0.000186757, -0.000294259, 7.97535E-05, 0.000126734, 0.000126734, 0.000126734
6204, 1,0.000121872, 0.000129213, 9.27132E-05, 1.87858, 7.77161, 0.00266347, 2.82463, 165.716, 0, 0.00102017, 0.000144858, 0.000182589, 5.21147, 2.37807, 0, 0.00102288, 0.000134018, 0.000252206, 0.577801, 6.93334, 0, 0.0010228, 2.53524, -5.17443, -4.49503, 0.239321, -3.44106, -17.5983, 9.86207E-05, -3.34255E-05, -0.000103488, 0.000121362, 0.000121362, 0.000121362
6205, 1,0.0013244, -0.000386235, 0.000340296, 62.8528, -20.4491, 0.00985011, 460.852, -147.865, 0.0484931, 0.00112566, 0.00157383, 0.00156935, 72.3336, -1.14779, 0, 0.00112291, 0.00110349, 0.00100575, 54.9047, -6.97493, 0, 0.00112302, 6.38079, -50.8171, 47.8797, 5.26413, -31.0477, 46.7084, 0.000116881, -0.00111498, 0.00101622, 2.42205E-06, 2.42205E-06, 2.42205E-06
6206, 1,0.000715563, -0.000202413, 0.000191, 33.9689, -10.2105, 0.00405158, 246.776, -74.3527, 0, 0.00109256, 0.000881979, 0.000867927, 41.1994, -1.27594, 0, 0.00109127, 0.000558546, 0.00052156, 27.2657, -2.88901, 0, 0.0010913, 9.40126, -26.9489, 21.3754, 5.79692, -16.1783, 19.0485, 0.000179468, -0.00059649, 0.000437522, 7.81977E-05, 7.81977E-05, 7.81977E-05
6207, 1,0.000406053, 0.000147377, 0.000125333, 18.8392, 7.9946, 0.000953924, 14.4629, 40.8292, 0, 0.00105802, 0.000551289, 0.000528998, 26.7643, -1.19927, 0, 0.00105874, 0.000262795, 0.000284472, 10.9857, 1.39793, 0, 0.00105869, 7.54742, -15.0017, 11.0521, 3.64489, -9.58559, 1.74691, 0.000144123, -0.000323794, 0.000199157, 0.000102475, 0.000102475, 0.000102475
6208, 1,0.000101531, 0.000174738, 0.000122264, 3.24528, 10.6656, 0.00254145, 3.26983, 157.082, 0, 0.00102208, 0.000186719, 0.000164229, 10.4416, -1.5475, 0, 0.00102472, 0.000106884, 0.000196822, 0.997298, 5.01348, 0, 0.00102461, 3.46225, -3.45973, 4.63997, 0.761634, -2.28149, -13.5206, 5.56372E-05, -6.32498E-05, 3.30102E-05, 0.000101472, 0.000101472, 0.000101472
6209, 1,0.00135595, -0.000381301, 0.000339568, 65.1433, -20.0282, 0.0100299, 460.676, -147.366, 0.0520226, 0.00112766, 0.00160589, 0.00157875, 74.8227, -2.3644, 0, 0.00112493, 0.00113573, 0.00102396, 57.0702, -7.6578, 0, 0.00112502, 6.11411, -51.7321, 52.7112, 4.90688, -31.7637, 49.8302, 9.3973E-05, -0.00115387, 0.00109777, -1.3978E-05, -1.3978E-05, -1.3978E-05
6210, 1,0.000746785, -0.000193005, 0.000189524, 36.6078, -9.3946, 0.00425952, 258.317, -76.5885, 0, 0.00109467, 0.000919844, 0.000867472, 44.5328, -3.26327, 0, 0.00109337, 0.0005829, 0.000523501, 29.2069, -3.8483, 0, 0.00109338, 8.74629, -26.2419, 27.2854, 5.01371, -15.5769, 22.1081, 0.000134521, -0.000614722, 0.000532945, 4.68105E-05, 4.68105E-05, 4.68105E-05
6211, 1,0.000452923, 0.000170529, 0.000136681, 23.197, 9.65574, 0.000906536, 16.7471, 34.7331, 0, 0.00106003, 0.00062161, 0.000549305, 32.7948, -4.77593, 0, 0.00106071, 0.000286136, 0.000281219, 13.6657, -0.660192, 0, 0.00106064, 8.41418, -13.5048, 19.4184, 4.26865, -8.41412, 6.12605, 0.000105858, -0.00035142, 0.000323077, 8.30609E-05, 8.30609E-05, 8.30609E-05
6212, 1,0.000128851, 0.00022185, 0.000153216, 6.80245, 13.6501, 0.00243354, 2.82705, 150.388, 0, 0.00102391, 0.000308633, 0.000227297, 19.0616, -5.31245, 0, 0.0010265, 9.28377E-05, 0.000151931, 1.51625, 3.27444, 0, 0.00102635, 4.09035, -1.71171, 13.5587, 1.04522, -1.18285, -9.68569, 8.5533E-06, -8.92015E-05, 0.000167132, 7.90937E-05, 7.90937E-05, 7.90937E-05
6213, 1,0.0013768, -0.000377569, 0.000339408, 66.8947, -19.6829, 0.0104147, 459.771, -145.388, 0.0594456, 0.0011299, 0.00162861, 0.00157999, 76.8169, -3.69179, 0, 0.00112721, 0.00115532, 0.00102958, 58.6229, -8.52767, 0, 0.0011273, 5.86272, -51.4215, 56.6341, 4.57277, -31.2337, 52.244, 7.12546E-05, -0.00117133, 0.0011595, -3.14043E-05, -3.14043E-05, -3.14043E-05
6214, 1,0.000786182, 0.000194253, 0.000190151, 40.443, 9.38906, 0.00457214, 276.165, -80.6461, 0, 0.00109665, 0.000967377, 0.000876081, 49.1139, -6.37034, 0, 0.00109532, 0.000614133, 0.000531231, 32.3031, -5.97329, 0, 0.00109532, 9.7161, -24.6458, 34.0407, 5.89366, -14.0803, 26.1065, 0.000107548, -0.000633227, 0.000628831, 3.34241E-05, 3.34241E-05, 3.34241E-05
6215, 1,0.000514742, 0.000196487, 0.000150904, 27.928, 11.448, 0.000863189, 19.6205, 28.0691, 0, 0.00106202, 0.000709841, 0.000589967, 39.3348, -7.9379, 0, 0.00106264, 0.000321158, 0.00029218, 16.5714, -2.31599, 0, 0.00106254, 8.75762, -12.1953, 27.2514, 4.40024, -7.50428, 10.052, 6.35152E-05, -0.00037662, 0.000441921, 6.00127E-05, 6.00127E-05, 6.00127E-05
6216, 1,0.0002151, 0.000269779, 0.000184879, 13.262, 16.6809, 0.00233099, 1.57143, 145.294, 0, 0.00102582, 0.000466845, 0.000325279, 29.4207, -9.23521, 0, 0.0010284, 8.78066E-05, 0.000116003, 2.51616, 1.3908, 0, 0.00102822, 4.64192, 0.496849, 22.5669, 1.31238, 0.288705, -5.77348, -4.28461E-05, -0.000107631, 0.000300611, 5.38963E-05, 5.38963E-05, 5.38963E-05
6217, 1,0.00146629, -0.000378554, 0.000343776, 73.2685, -19.5881, 0.0112127, 463.343, -150.242, 0.0752785, 0.00113196, 0.00171851, 0.00162577, 83.3198, -6.76322, 0, 0.0011292, 0.00124728, 0.00108338, 65.0218, -11.2143, 0, 0.00112928, 5.68034, -51.3155, 65.9248, 4.41216, -30.835, 60.0657, 2.35144E-05, -0.00121977, 0.0013055, -7.29505E-05, -7.29505E-05, -7.29505E-05
6218, 1,0.00080754, 0.000201539, 0.000190157, 41.8177, 10.0971, 0.00509121, 308.889, -91.5391, 0, 0.00109881, 0.000998528, 0.000889982, 51.3088, -7.43224, 0, 0.00109731, 0.000623854, 0.000538114, 32.7726, -6.0959, 0, 0.00109728, 9.67038, -24.0793, 36.7056, 5.73619, -13.779, 26.3305, 9.40937E-05, -0.000642207, 0.000668488, 3.23225E-05, 3.23225E-05, 3.23225E-05
6219, 1,0.000593637, 0.000224395, 0.0001672, 33.457, 13.3312, 0.000840404, 25.3558, 18.8176, 0, 0.00106408, 0.000817258, 0.000648039, 46.7703, -11.1153, 0, 0.0010646, 0.000370869, 0.000315868, 20.1659, -4.00298, 0, 0.00106448, 8.81895, -11.0205, 35.5475, 4.30089, -6.7883, 14.4963, 1.61087E-05, -0.00040554, 0.000569799, 3.2701E-05, 3.2701E-05, 3.2701E-05
6220, 1,0.000327912, 0.00031762, 0.000216449, 20.571, 19.7101, 0.00225431, 1.24601, 140.876, 0, 0.00102772, 0.00063418, 0.000434233, 39.9332, -12.771, 0, 0.00103029, 0.000101001, 0.000103186, 4.28622, -0.100087, 0, 0.00103008, 4.85594, 2.46194, 30.9952, 1.27829, 1.41311, -2.39113, -9.48778E-05, -0.000125187, 0.000427571, 2.89506E-05, 2.89506E-05, 2.89506E-05
6221, 1,0.00148274, -0.000375469, 0.000343517, 73.5831, -19.3243, 0.0118021, 461.407, -146.246, 0.08646, 0.00113402, 0.00174054, 0.00164429, 84.026, -6.48981, 0, 0.00113131, 0.00125609, 0.0010935, 64.8402, -10.6318, 0, 0.00113139, 3.78666, -51.9131, 67.5959, 2.6766, -31.478, 60.6969, -1.01186E-05, -0.00123029, 0.00134521, -9.86361E-05, -9.86361E-05, -9.86361E-05
6222, 1,0.000900118, 0.000213629, 0.000195221, 49.0503, 11.0153, 0.00574016, 349.693, -105.103, 0, 0.00110104, 0.00110142, 0.000935711, 59.351, -11.7278, 0, 0.00109938, 0.000706938, 0.000578064, 39.2491, -9.49429, 0, 0.00109934, 10.8218, -21.2233, 45.5848, 6.73686, -11.0251, 32.7711, 5.53067E-05, -0.000653697, 0.000788454, 4.27957E-06, 4.27957E-06, 4.27957E-06
6223, 1,0.000657893, 0.000253524, 0.000184758, 37.9123, 15.2667, 0.000893858, 34.4887, 9.88537, 0, 0.00106622, 0.000910721, 0.000699034, 53.1592, -13.6986, 0, 0.00106663, 0.000405899, 0.000331376, 22.692, -5.11008, 0, 0.00106648, 8.84096, -9.68017, 41.9351, 4.18461, -5.90992, 17.0556, -2.24432E-05, -0.000421215, 0.000665939, 1.45168E-05, 1.45168E-05, 1.45168E-05
6224, 1,0.000457382, 0.000365941, 0.000248478, 29.2924, 22.7632, 0.0022486, 5.29398, 135.116, 0, 0.00102966, 0.000813519, 0.000549941, 51.712, -17.1748, 0, 0.00103221, 0.000153016, 0.000121666, 8.81615, -2.45569, 0, 0.00103196, 5.80383, 5.43555, 40.2849, 2.00649, 3.51826, 1.84232, -0.000144087, -0.000134748, 0.000557799, 7.496E-06, 7.496E-06, 7.496E-06
6225, 1,0.00150507, -0.000376808, 0.000346473, 75.2886, -19.2966, 0.0128046, 463.84, -149.127, 0.106128, 0.00113626, 0.0017662, 0.00164329, 85.9509, -7.63359, 0, 0.00113348, 0.00127627, 0.00109105, 66.4079, -11.5356, 0, 0.00113355, 3.24572, -50.6684, 70.3234, 2.10311, -29.913, 62.4167, -3.5006E-05, -0.00122561, 0.00138396, -0.000120784, -0.000120784, -0.000120784
6226, 1,0.000952902, 0.000224907, 0.000199721, 51.7624, 11.8757, 0.00631523, 382.237, -112.384, 0, 0.00110318, 0.00116549, 0.000975774, 62.9219, -12.5986, 0, 0.0011014, 0.000748204, 0.000608789, 41.0896, -9.50569, 0, 0.00110134, 9.05939, -22.1138, 50.8502, 5.00168, -12.1995, 35.7149, 5.08913E-06, -0.000689801, 0.000888902, -3.1941E-05, -3.1941E-05, -3.1941E-05
6227, 1,0.000737018, 0.000283065, 0.000202867, 43.6295, 17.2087, 0.001003, 42.4624, 6.17243, 0, 0.00106811, 0.00101947, 0.000763377, 60.8157, -16.9397, 0, 0.00106851, 0.000455329, 0.000359217, 26.4735, -6.89518, 0, 0.00106834, 9.45341, -7.80387, 49.1696, 4.67043, -4.56963, 20.5847, -5.97251E-05, -0.000434705, 0.000769306, -2.4143E-06, -2.4143E-06, -2.4143E-06
6228, 1,0.000570241, 0.000413668, 0.00027995, 36.4662, 25.7836, 0.00232634, 10.1218, 133.467, 0, 0.00103149, 0.000975001, 0.00065753, 61.9054, -20.4716, 0, 0.00103407, 0.000204024, 0.00015236, 12.5094, -3.70528, 0, 0.00103379, 5.67692, 7.57137, 48.1665, 1.70617, 4.65897, 4.75069, -0.000199134, -0.00014265, 0.000674251, -1.87494E-05, -1.87494E-05, -1.87494E-05
6229, 1,0.00154909, -0.00037954, 0.000350578, 78.6978, -19.351, 0.0143134, 463.633, -147.268, 0.135291, 0.00113847, 0.00181497, 0.0016665, 89.6332, -9.87893, 0, 0.00113572, 0.00131577, 0.00110812, 69.5766, -13.5961, 0, 0.00113579, 3.95824, -48.8786, 74.5571, 2.83664, -27.9375, 65.8892, -4.94767E-05, -0.00122773, 0.00143697, -0.000132461, -0.000132461, -0.000132461
6230, 1,0.00103386, 0.000237458, 0.000205827, 56.7602, 12.7848, 0.0070605, 418.877, -114.256, 0, 0.00110518, 0.00125804, 0.00103479, 68.7698, -14.7028, 0, 0.0011034, 0.000817822, 0.000658064, 45.2541, -10.7904, 0, 0.00110333, 8.81534, -22.5804, 57.8735, 4.78506, -12.9009, 40.4869, -3.0053E-05, -0.000738207, 0.00100659, -5.36652E-05, -5.36652E-05, -5.36652E-05
6231, 1,0.000825689, 0.000312793, 0.000221362, 48.7438, 19.156, 0.00114926, 49.1466, 6.5156, 0, 0.00107004, 0.00113785, 0.00083346, 67.8718, -18.8919, 0, 0.00107048, 0.000514298, 0.00039217, 29.6511, -7.40896, 0, 0.00107028, 8.55822, -7.25907, 55.3765, 3.67813, -4.57229, 23.121, -0.000107913, -0.000457341, 0.000871806, -3.00041E-05, -3.00041E-05, -3.00041E-05
6232, 1,0.000717015, 0.00046113, 0.000311294, 46.2568, 28.7807, 0.00242755, 12.6522, 136.425, 0, 0.00103329, 0.00117031, 0.000780884, 74.7064, -25.0932, 0, 0.001036, 0.000289621, 0.00019988, 18.8536, -6.29475, 0, 0.00103568, 7.02926, 9.75299, 58.4975, 2.89326, 5.91836, 10.0726, -0.000246914, -0.000168057, 0.000822449, -3.76521E-05, -3.76521E-05, -3.76521E-05
6233, 1,0.00156474, -0.000383106, 0.000354979, 79.3998, -19.4675, 0.0167211, 467.178, -151.024, 0.182114, 0.00114088, 0.00183593, 0.00168042, 90.5882, -10.6467, 0, 0.00113797, 0.00132643, 0.00111401, 70.097, -14.2278, 0, 0.00113803, 4.11438, -48.3718, 76.1977, 3.05103, -27.1692, 66.8017, -4.97943E-05, -0.00123514, 0.00145709, -0.00013023, -0.00013023, -0.00013023
6234, 1,0.00108911, 0.000247395, 0.000209603, 59.2941, 13.5821, 0.00868037, 441.778, -120.051, 0.0245875, 0.00110729, 0.00132535, 0.00108535, 72.1768, -15.2911, 0, 0.00110537, 0.00085952, 0.000695326, 46.8577, -10.5904, 0, 0.00110529, 7.13155, -23.2265, 61.9682, 3.14673, -13.9618, 42.5862, -5.95691E-05, -0.000771848, 0.00107925, -7.0222E-05, -7.0222E-05, -7.0222E-05
6235, 1,0.000969733, 0.000343127, 0.000240678, 57.9107, 21.1423, 0.00177234, 90.1802, -9.0557, 0, 0.00107219, 0.00131219, 0.000939389, 79.0102, -22.8657, 0, 0.00107243, 0.000628006, 0.000459121, 36.8587, -9.96718, 0, 0.0010722, 9.07612, -5.60994, 65.1311, 4.07042, -3.35731, 29.1884, -0.000153416, -0.000491779, 0.00101619, -5.61134E-05, -5.61134E-05, -5.61134E-05
6236, 1,0.000804476, 0.000508147, 0.000342438, 52.6015, 31.7456, 0.00252647, 11.9802, 143.581, 0, 0.00103509, 0.00130484, 0.000873542, 83.9985, -28.8387, 0, 0.00103799, 0.000329902, 0.000216568, 22.2804, -8.02365, 0, 0.00103764, 7.61884, 12.7199, 66.1773, 3.40415, 7.77406, 12.8928, -0.000298737, -0.000162804, 0.000929823, -5.88322E-05, -5.88322E-05, -5.88322E-05
6237, 1,0.00163059, -0.000384405, 0.000357534, 81.9025, -19.4756, 0.0201973, 464.649, -144.006, 0.248538, 0.00114312, 0.0019139, 0.00175078, 93.7028, -11.2052, 0, 0.00114023, 0.00137436, 0.00115649, 71.7282, -14.6777, 0, 0.0011403, 2.45771, -47.0486, 78.2065, 1.63004, -26.1779, 68.5808, -7.80392E-05, -0.00122696, 0.00148604, -0.000153159, -0.000153159, -0.000153159
6238, 1,0.00113007, 0.000256177, 0.000212679, 63.9266, 14.3482, 0.0115617, 450.829, -130.178, 0.0812314, 0.00110954, 0.00137824, 0.00107953, 77.6693, -20.0128, 0, 0.00110745, 0.000886884, 0.000675478, 50.6004, -14.5507, 0, 0.00110735, 8.74326, -14.9638, 66.2589, 4.63391, -5.83659, 44.8548, -7.4488E-05, -0.000686572, 0.00108537, -7.69695E-05, -7.69695E-05, -7.69695E-05
6239, 1,0.00103661, 0.000370952, 0.000258242, 61.7215, 23.0076, 0.00289388, 165.219, -38.5986, 0, 0.0010746, 0.00140737, 0.00100517, 84.7185, -24.8582, 0, 0.00107436, 0.000666077, 0.0004899, 38.7364, -10.5671, 0, 0.00107411, 8.29522, -5.47331, 71.7528, 3.3489, -3.97286, 32.3253, -0.000197394, -0.00052863, 0.00112927, -7.72478E-05, -7.72478E-05, -7.72478E-05
6240, 1,0.000916691, 0.000551558, 0.00037055, 60.7306, 34.5295, 0.0026383, 9.79102, 153.847, 0, 0.00103679, 0.00146406, 0.000974542, 95.0652, -33.3668, 0, 0.00103995, 0.000382475, 0.000248619, 26.9589, -10.5682, 0, 0.00103956, 8.59647, 14.9836, 76.5203, 4.31015, 8.79519, 18.5993, -0.00035179, -0.000186167, 0.00107973, -8.16737E-05, -8.16737E-05, -8.16737E-05
6241, 1,0.00171371, -0.000399066, 0.000371635, 81.1614, -20.1086, 0.026949, 470.898, -149.523, 0.376831, 0.00114575, 0.00200047, 0.00186007, 93.0401, -6.53721, 0, 0.00114236, 0.00145828, 0.00126602, 71.2164, -9.92015, 0, 0.00114242, -2.69485, -56.448, 78.7545, -3.6389, -35.0502, 68.4495, -7.66977E-05, -0.00137165, 0.00155338, -0.000156126, -0.000156126, -0.000156126
6242, 1,0.00118521, 0.000268949, 0.000220168, 68.3859, 15.2851, 0.0155809, 462.706, -145.296, 0.15989, 0.00111196, 0.00144555, 0.0010954, 82.9124, -24.0244, 0, 0.00110951, 0.000930386, 0.000678092, 54.4071, -17.8261, 0, 0.0011094, 9.04831, -11.2427, 74.2676, 5.18448, -2.21231, 50.5061, -0.000120539, -0.000686539, 0.00119633, -0.000107719, -0.000107719, -0.000107719
6243, 1,0.00104501, 0.000397438, 0.000274238, 61.4158, 24.7978, 0.00412754, 239.462, -59.7343, 0, 0.00107682, 0.00143994, 0.00102804, 86.112, -24.867, 0, 0.00107622, 0.000653058, 0.000485385, 36.8471, -9.21396, 0, 0.00107594, 8.9361, -4.7256, 70.3905, 3.88063, -3.88835, 27.6496, -0.000182126, -0.000523505, 0.00110899, -4.27061E-05, -4.27061E-05, -4.27061E-05
6244, 1,0.000989843, 0.000599049, 0.000402855, 63.556, 37.5068, 0.00282664, 7.69954, 169.041, 0, 0.00103846, 0.00158024, 0.00106808, 100.664, -33.4259, 0, 0.00104188, 0.000425349, 0.000291182, 27.5565, -8.6627, 0, 0.00104146, 4.67906, 16.5227, 79.0758, 0.375957, 9.33177, 16.2804, -0.000434346, -0.00015778, 0.00113488, -0.000133394, -0.000133394, -0.000133394
6245, 1,0.00187306, -0.000408402, 0.00038005, 88.4306, -20.4851, 0.0357796, 486.375, -169.288, 0.540316, 0.001149, 0.00217138, 0.00193657, 100.892, -12.1932, 0, 0.00114471, 0.00160403, 0.00132081, 77.8988, -15.4901, 0, 0.00114477, 0.0199296, -47.2299, 83.7895, -1.12555, -25.6823, 73.2783, -0.000130972, -0.00128348, 0.00161121, -0.000214656, -0.000214656, -0.000214656
6246, 1,0.00118615, 0.000276765, 0.000223411, 67.3802, 15.9548, 0.0196444, 477.971, -167.353, 0.239506, 0.00111463, 0.0014563, 0.00109415, 82.6119, -25.1482, 0, 0.0011116, 0.000920445, 0.00066668, 52.7119, -18.2839, 0, 0.00111147, 7.77622, -9.15677, 76.825, 4.33558, -0.640932, 51.1569, -0.0001782, -0.000677807, 0.00126349, -0.000146102, -0.000146102, -0.000146102
6247, 1,0.00111564, 0.000424761, 0.00029219, 66.7447, 26.6053, 0.00549691, 324.355, -86.5366, 0, 0.00107921, 0.00153702, 0.00108659, 93.1742, -28.0967, 0, 0.00107819, 0.000698434, 0.000510375, 40.5351, -11.1395, 0, 0.00107789, 11.0576, -2.61328, 75.8457, 6.01576, -2.32676, 29.7294, -0.000186152, -0.00054208, 0.00118403, -2.55353E-05, -2.55353E-05, -2.55353E-05
6248, 1,0.00125451, 0.00064071, 0.00043074, 82.1848, 40.2145, 0.0027669, 6.10236, 167.221, 0, 0.00104044, 0.00188992, 0.00127233, 122.145, -42.4314, 0, 0.00104399, 0.000630403, 0.000428417, 42.7405, -15.7418, 0, 0.00104354, 6.57639, 21.0404, 99.6775, 2.2122, 12.9039, 32.1092, -0.000531201, -0.000209914, 0.00143001, -0.000201198, -0.000201198, -0.000201198
6249, 1,0.0020854, -0.00042099, 0.00039476, 93.7097, -21.1418, 0.0420498, 485.253, -163.456, 0.651121, 0.00115146, 0.00240534, 0.00218836, 107.099, -10.6731, 0, 0.00114687, 0.00178908, 0.00152253, 82.0168, -13.8975, 0, 0.00114693, 0.196294, -55.4395, 87.2626, -0.668636, -34.2406, 76.6017, -0.000171028, -0.00143086, 0.00177431, -0.000242542, -0.000242542, -0.000242542
6250, 1,0.00111049, 0.000287851, 0.000230519, 60.7226, 16.7275, 0.0222579, 471.895, -155.019, 0.288298, 0.00111657, 0.00139181, 0.00104523, 76.6707, -22.8389, 0, 0.00111364, 0.000834108, 0.000601791, 45.494, -15.39, 0, 0.0011135, 5.60695, -8.44922, 71.359, 2.46854, 0.145691, 43.5557, -0.000222006, -0.000639996, 0.00123227, -0.000172601, -0.000172601, -0.000172601
6251, 1,0.00115695, 0.000450693, 0.000310191, 68.0626, 28.2727, 0.00681727, 391.296, -92.3338, 0, 0.00108129, 0.00160556, 0.00113726, 96.2059, -27.8976, 0, 0.00108016, 0.000710912, 0.000522393, 40.0852, -9.80098, 0, 0.00107984, 6.37935, -1.71705, 79.0306, 1.61809, -2.10445, 29.8893, -0.000280604, -0.000533087, 0.00126631, -9.57861E-05, -9.57861E-05, -9.57861E-05
6252, 1,0.00136769, 0.000673903, 0.000451515, 86.6527, 42.4833, 0.00239524, 7.80936, 141.027, 0, 0.00104297, 0.00204145, 0.0013775, 129.116, -42.0978, 0, 0.00104607, 0.000694209, 0.000476836, 44.2285, -13.6395, 0, 0.00104559, 4.33066, 15.1106, 106.852, -0.111617, 5.60414, 35.4261, -0.000564816, -0.000341613, 0.00158989, -0.000209119, -0.000209119, -0.000209119
6253, 1,0.00221715, -0.000442179, 0.000417624, 107.041, -22.2857, 0.0454981, 483.906, -159.713, 0.711722, 0.00115386, 0.00255279, 0.0022545, 120.692, -19.3466, 0, 0.00114927, 0.00191014, 0.00156261, 95.6915, -22.4422, 0, 0.00114933, 5.59467, -50.8373, 103.282, 4.76827, -28.7013, 91.2597, -0.000211849, -0.00144436, 0.00196958, -0.000275291, -0.000275291, -0.000275291
6254, 1,0.00122808, 0.000304374, 0.000241814, 66.1786, 17.7967, 0.0252418, 464.782, -141.608, 0.344167, 0.00111854, 0.0015234, 0.00120625, 82.9952, -22.5073, 0, 0.00111578, 0.000938586, 0.000745634, 50.0951, -14.3581, 0, 0.00111563, 5.70937, -14.4214, 76.2341, 2.65111, -6.0289, 46.4521, -0.000231123, -0.000768929, 0.00136508, -0.000166701, -0.000166701, -0.000166701
6255, 1,0.00138581, 0.000484636, 0.000335458, 81.3368, 30.3564, 0.0101159, 414.767, -110.524, 0.0619319, 0.00108373, 0.00187002, 0.00130525, 111.493, -31.5134, 1.0842E-19, 0.00108228, 0.000902057, 0.000643125, 51.4036, -12.2898, 1.0842E-19, 0.00108194, -0.411963, 2.13784, 92.8142, -4.64894, 1.582, 39.9364, -0.000474514, -0.000535536, 0.0015214, -0.000260652, -0.000260652, -0.000260652
6256, 1,0.00162093, 0.000721155, 0.000482172, 101.935, 45.369, 0.00179579, 12.3775, 96.9398, 0, 0.00104583, 0.00234176, 0.00158648, 147.259, -47.8701, 0, 0.00104829, 0.000900618, 0.000629855, 56.6837, -17.8155, 0, 0.00104778, 5.4791, 17.8198, 120.312, 1.17701, 8.04611, 44.2234, -0.000622374, -0.000393417, 0.00179292, -0.000239584, -0.000239584, -0.000239584
6257, 1,0.00219805, -0.000455833, 0.00043344, 105.229, -22.93, 0.0459946, 463.246, -136.963, 0.723904, 0.00115539, 0.00256719, 0.00223376, 120.559, -18.6797, 0, 0.00115144, 0.00185239, 0.00147448, 92.0912, -21.5167, 0, 0.00115149, 0.757924, -43.9489, 99.2301, 0.10171, -21.9499, 86.3983, -0.000308856, -0.00125998, 0.00187144, -0.000361935, -0.000361935, -0.000361935
6258, 1,0.00150424, 0.000322318, 0.000253338, 87.3677, 18.9364, 0.028421, 466.567, -146.324, 0.405417, 0.00112102, 0.00181276, 0.00138382, 104.649, -30.1859, 0, 0.00111813, 0.00120356, 0.000915825, 71.0962, -21.3484, 0, 0.00111797, 5.66055, -6.05509, 90.9522, 2.45793, 2.36069, 59.2264, -0.000354164, -0.000717866, 0.00156159, -0.000280393, -0.000280393, -0.000280393
6259, 1,0.00176209, 0.000526723, 0.000363163, 105.796, 32.8814, 0.0138431, 414.136, -123.316, 0.140824, 0.00108624, 0.00228626, 0.00160555, 138.23, -39.8987, 0, 0.00108458, 0.00124013, 0.000894648, 73.7607, -19.4344, 0, 0.00108422, -4.2657, 8.91266, 115.049, -7.90085, 8.17269, 58.0312, -0.000676773, -0.000545022, 0.0018692, -0.000430611, -0.000430611, -0.000430611
6260, 1,0.00210573, 0.000796721, 0.000535074, 131.671, 49.9518, 0.00129989, 14.8732, 62.1096, 0, 0.00104868, 0.00290204, 0.00198428, 181.552, -58.7403, 0, 0.00105073, 0.00130993, 0.000915086, 81.878, -26.1005, 0, 0.00105018, 2.91669, 23.3306, 149.974, -0.951014, 13.1333, 66.1191, -0.000838988, -0.000461859, 0.00225437, -0.00040732, -0.00040732, -0.00040732
6261, 1,0.00265462, -0.000503946, 0.000484096, 128.914, -25.1894, 0.0488186, 460.01, -144.06, 0.778531, 0.00115793, 0.00305261, 0.00262981, 145.34, -19.6201, 0, 0.00115352, 0.00228937, 0.0018314, 115.134, -22.2625, 0, 0.00115357, -5.68512, -57.0516, 121.597, -6.32359, -35.3864, 108.498, -0.000468414, -0.00151939, 0.0023056, -0.000516014, -0.000516014, -0.000516014
6262, 1,0.00189157, 0.000338028, 0.00026178, 115.646, 19.7592, 0.0306049, 459.094, -141.3, 0.448487, 0.00112317, 0.00221058, 0.00163924, 133.417, -40.7902, 0, 0.00112049, 0.0015818, 0.00117402, 98.845, -31.7733, 0, 0.00112032, 5.1385, 4.02951, 113.203, 2.65042, 12.2078, 80.4618, -0.000535427, -0.00065753, 0.00185454, -0.000442516, -0.000442516, -0.000442516
6263, 1,0.00239888, 0.000591173, 0.000408177, 149.151, 36.5169, 0.0154632, 412.946, -118.434, 0.171862, 0.00108836, 0.00298454, 0.00212209, 185.049, -57.0061, 0, 0.00108705, 0.00181689, 0.00131507, 113.671, -34.9608, 0, 0.00108666, -4.60401, 22.305, 153.317, -7.04832, 21.1959, 90.7348, -0.000948608, -0.00052764, 0.00240122, -0.000652249, -0.000652249, -0.000652249
6264, 1,0.00281873, 0.000925715, 0.000629716, 177.716, 58.1334, 0.000947941, 12.953, 42.8376, 0, 0.00105113, 0.00374133, 0.00260011, 235.588, -78.1847, 0, 0.0010532, 0.00189915, 0.00134999, 120.096, -40.0129, 0, 0.00105255, -2.37422, 37.8697, 199.059, -5.74959, 25.7287, 100.06, -0.00125122, -0.000465903, 0.00298611, -0.000722894, -0.000722894, -0.000722894
6265, 1,0.00272741, -0.000558011, 0.000538695, 140.784, -27.9248, 0.0505763, 458.979, -141.823, 0.808478, 0.00116013, 0.00316406, 0.00268206, 158.418, -27.843, 0, 0.0011558, 0.00233645, 0.0018278, 126.729, -30.8567, 0, 0.00115586, 1.14993, -50.8264, 133.206, 1.11058, -28.9382, 120.398, -0.000470329, -0.00147689, 0.00239845, -0.000508677, -0.000508677, -0.000508677
6266, 1,0.00252396, 0.000380438, 0.000289131, 153.764, 21.913, 0.0315463, 456.608, -140.48, 0.467322, 0.00112535, 0.00286842, 0.00216573, 172.952, -47.2161, 0, 0.00112274, 0.00219306, 0.00166422, 135.558, -37.7061, 0, 0.00112257, -6.54854, 5.98565, 142.211, -7.3831, 13.7857, 106.716, -0.00088605, -0.000686922, 0.00233885, -0.000748983, -0.000748983, -0.000748983
6267, 1,0.00323349, 0.000705652, 0.000501409, 198.821, 43.3376, 0.0155346, 413.306, -120.862, 0.173763, 0.00109071, 0.00393123, 0.0028104, 241.607, -72.8217, -5.42101E-20, 0.00108963, 0.00253997, 0.00183102, 156.329, -46.831, -5.42101E-20, 0.00108917, -13.049, 22.012, 209.502, -13.1333, 18.2922, 135.334, -0.00137779, -0.000767048, 0.00332646, -0.000969009, -0.000969009, -0.000969009
6268, 1,0.00379189, 0.00108544, 0.000745684, 244.606, 68.5124, 0.000936284, 17.5302, 36.5025, 0, 0.00105361, 0.00487349, 0.00336512, 312.82, -110.384, 0, 0.00105612, 0.00271332, 0.00188442, 176.629, -64.6467, 0, 0.00105534, 3.80509, 52.9848, 274.362, 1.09894, 38.0856, 154.756, -0.00162229, -0.000655777, 0.0040695, -0.000961444, -0.000961444, -0.000961444
6269, 1,0.00312855, -0.000640342, 0.000621855, 168.617, -32.1248, 0.0492861, 459.214, -147.062, 0.788884, 0.00116273, 0.00362602, 0.00286765, 188.729, -34.8117, 0, 0.00115843, 0.00269577, 0.00195642, 152.968, -38.7125, 0, 0.00115851, -13.6374, -34.438, 152.511, -12.6577, -14.5342, 143.329, -0.000900362, -0.00120402, 0.00266885, -0.000928704, -0.000928704, -0.000928704
6270, 1,0.00320791, 0.000459425, 0.00034763, 201.32, 26.7589, 0.0300255, 461.107, -152.325, 0.441447, 0.00112826, 0.00362687, 0.0027829, 225.399, -66.3391, 0, 0.00112578, 0.00280274, 0.00214487, 178.107, -53.564, 0, 0.00112554, -4.13159, 21.2513, 181.898, -3.37263, 24.8784, 139.186, -0.00114039, -0.000626472, 0.0028431, -0.000916321, -0.000916321, -0.000916321
6271, 1,0.00418247, 0.000880913, 0.000640156, 259.011, 54.0599, 0.0139974, 424.699, -138.603, 0.14412, 0.00109413, 0.00504707, 0.00370611, 312.182, -96.2344, 0, 0.00109316, 0.00332615, 0.00247533, 206.281, -63.4925, 0, 0.00109258, -23.7088, 32.7955, 279.616, -21.5429, 25.6864, 186.334, -0.00197456, -0.000883337, 0.00441943, -0.00141126, -0.00141126, -0.00141126
6272, 1,0.00475124, 0.00126919, 0.000880522, 293.86, 80.2436, 0.00124319, 24.7591, 44.804, 0, 0.00105641, 0.00601517, 0.004245, 373.721, -119.727, 0, 0.00105924, 0.00349104, 0.0024966, 214.271, -65.8272, 0, 0.00105831, -17.3739, 42.7265, 333.828, -18.7213, 25.7506, 190.452, -0.00221088, -0.00101806, 0.00517196, -0.00139352, -0.00139352, -0.00139352
6273, 1,0.00406776, -0.000732978, 0.000722524, 232.92, -35.7109, 0.0453967, 456.017, -152.011, 0.725913, 0.00116516, 0.00464274, 0.00352489, 257.954, -59.3447, 0, 0.00116146, 0.00356813, 0.00257828, 212.355, -61.3126, 0, 0.00116149, -11.8426, -3.44465, 193.321, -12.8108, 5.56616, 191.182, -0.00123686, -0.000924399, 0.00312399, -0.00127503, -0.00127503, -0.00127503
6274, 1,0.00404127, 0.000606955, 0.000465828, 247.524, 36.0626, 0.0261512, 450.35, -149.987, 0.37357, 0.00113078, 0.00458384, 0.00352188, 280.033, -77.4943, 0, 0.00112873, 0.0035197, 0.00267977, 216.119, -58.0928, 0, 0.00112837, -19.375, 18.7889, 233.069, -18.2964, 16.7338, 175.841, -0.00163753, -0.000825086, 0.00371995, -0.00130082, -0.00130082, -0.00130082
6275, 1,0.00575762, 0.00111275, 0.000812205, 318.936, 68.1619, 0.0113918, 420.877, -125.068, 0.089489, 0.00109718, 0.00684312, 0.00512819, 385.823, -101.253, 0.00674018, 0.00109665, 0.00468387, 0.00357466, 252.633, -58.7532, 0.00674018, 0.00109589, -42.165, 8.95182, 336.973, -41.5858, 0.58259, 217.263, -0.0026118, -0.00154305, 0.00580407, -0.00192924, -0.00192924, -0.00192924
6276, 1,0.00728409, 0.00150877, 0.00106272, 375.458, 92.9821, 0.00158974, 37.5596, 49.7683, 0, 0.00105961, 0.00875998, 0.00619559, 467.428, -167.89, 0.0305538, 0.00106341, 0.00582468, 0.00414746, 284.173, -104.595, 0.0305538, 0.0010623, 5.16152, 75.0649, 423.444, 4.64813, 54.4655, 254.672, -0.00329507, -0.00154065, 0.00760754, -0.00231455, -0.00231455, -0.00231455
6277, 1,0.00620669, -0.000970614, 0.000933134, 247.843, -37.6844, 0.0415527, 430.662, -129.583, 0.663881, 0.00116676, 0.00684626, 0.00563465, 273.674, -55.399, 0.0395504, 0.00116394, 0.00566159, 0.00437023, 225.257, -61.6316, 0.0389806, 0.00116406, 0.593813, -38.8297, 204.433, 6.78586, -22.2186, 200.327, -0.00136025, -0.00243405, 0.00471336, -0.00146389, -0.00146389, -0.00146389
6278, 1,0.00647938, 0.000850023, 0.000646198, 326.372, 46.6598, 0.0231445, 371.085, -121.034, 0.346421, 0.00113317, 0.00721454, 0.00515393, 369.75, -126.249, 0.0301417, 0.00113277, 0.0057756, 0.00407557, 284.129, -100.74, 0.0301417, 0.00113229, 20.7645, 19.6043, 338.377, 20.7584, 19.5721, 261.889, -0.00216182, -0.00219944, 0.00644485, -0.00175043, -0.00175043, -0.00175043
6279, 1,0.00911808, 0.00137063, 0.000992644, 392.571, 81.1814, 0.0101925, 431.36, -132.868, 0.0636382, 0.00110056, 0.010454, 0.00770853, 473.15, -180.212, 0.0672118, 0.00110145, 0.00779359, 0.00580635, 312.333, -126.483, 0.0672118, 0.00110045, 43.8469, 66.1842, 430.603, 37.9297, 56.3531, 285.166, -0.00336295, -0.00270088, 0.00910213, -0.00264373, -0.00264373, -0.00264373
6280, 1,0.00920268, 0.0017273, 0.00122596, 361.38, 103.67, 0.0014711, 21.1646, 62.7032, 0, 0.00106302, 0.0108933, 0.00782332, 464.455, -161.806, 0.0724275, 0.00106702, 0.00752817, 0.00546922, 258.791, -90.419, 0.0724275, 0.00106573, 4.21451, 58.0162, 423.189, 2.50228, 34.1158, 234.639, -0.00424783, -0.00254284, 0.00952713, -0.0031245, -0.0031245, -0.0031245
6281, 1,0.00637841, 0.000867831, 0.000866892, 245.168, 30.1987, 0.0405365, 397.219, -102.31, 0.655158, 0.00116861, 0.00684688, 0.00552495, 265.673, -63.4423, 0.0464959, 0.00116679, 0.00602611, 0.00468763, 228.22, -63.6523, 0.0464959, 0.00116679, 5.41393, -58.7095, 243.622, 7.13092, -40.2203, 224.046, -0.00153141, -0.00355923, 0.00614738, -0.0016111, -0.0016111, -0.0016111
6282, 1,0.00960048, 0.00106274, 0.000773513, 356.713, 56.4709, 0.025961, 311.881, -85.1428, 0.423737, 0.00113547, 0.0105175, 0.00748146, 411.17, -154.527, 0.0874354, 0.00113641, 0.00871602, 0.006369, 303.059, -117.121, 0.0874354, 0.00113568, 63.3395, 16.9098, 383.331, 51.534, 16.6886, 283.139, -0.00255167, -0.00434608, 0.00953381, -0.00217378, -0.00217378, -0.00217378
6283, 1,0.0118355, 0.0015464, 0.00110989, 393.336, 90.5587, 0.0142641, 398.372, -110.011, 0.152025, 0.00110454, 0.013342, 0.00974175, 483.539, -194.764, 0.124642, 0.00110613, 0.0103402, 0.00765, 303.372, -130.028, 0.124642, 0.00110489, 79.2915, 54.0095, 450.991, 60.381, 44.5572, 285.145, -0.00372319, -0.00485948, 0.0119795, -0.00306623, -0.00306623, -0.00306623
6284, 1,0.0122779, 0.0018995, 0.00132944, 362.665, 110.368, 0.00178833, 66.748, 21.0685, 0, 0.00106582, 0.0141464, 0.0102161, 472.795, -174.943, 0.137466, 0.00106947, 0.0104202, 0.00771391, 252.76, -97.4244, 0.137466, 0.00106801, 39.207, 62.8596, 422.762, 27.705, 37.8307, 226.737, -0.00491313, -0.00394267, 0.0119307, -0.0038133, -0.0038133, -0.0038133
6285, 1,0.011602, -0.00414824, 0.00284271, -1.37453, -181.027, 0.0233291, -17.705, 158.392, 0.784574, 0.00102641, 0.0130372, 0.0207054, -2.37709, 267.81, 0.313442, 0.0010257, 0.0101782, 0.0151882, -0.168194, 140.353, 0.287146, 0.00102832, -253.763, -45.4789, -504.188, -126.952, -26.9826, -267.125, -0.000976782, 0.0107788, -0.0150689, 0.000140722, 0.000140722, 0.000140722
6286, 1,0.0119021, -0.00391575, 0.00263681, -12.5632, -189.845, 0.0317087, -24.0061, 249.835, 0.937099, 0.000994488, 0.0132118, 0.0202892, -15.7984, 310.656, 0.284242, 0.000996985, 0.0105983, 0.0151089, -9.20602, 169.271, 0.268142, 0.00099974, -279.213, -43.3975, -609.356, -151.308, -26.5513, -329.953, -0.000213022, 0.0119067, -0.0176845, 0.000382576, 0.000382576, 0.000382576
6287, 1,0.0115544, -0.00381182, 0.00258954, -3.83376, -188.588, 0.0359333, -3.39947, 300.033, 1, 0.000964412, 0.0128115, 0.0196957, -6.56657, 296.474, 0.273412, 0.000969576, 0.0103154, 0.0147324, -0.785188, 156.829, 0.261419, 0.000972193, -241.826, -42.6797, -604.916, -123.007, -23.9227, -323.557, 0.00119653, 0.0110884, -0.0179611, 0.00176081, 0.00176081, 0.00176081
6288, 1,0.00986982, -0.00371507, 0.0024958, -1.9931, -182.518, 0.0348767, -8.73168, 329.315, 1, 0.000930333, 0.0110584, 0.0178863, -5.25741, 270.973, 0.244488, 0.000936868, 0.00868836, 0.0130553, 1.40198, 140.47, 0.229691, 0.00093919, -260.603, -21.0355, -531.279, -127.613, -9.27823, -284.518, -0.000724206, 0.0103616, -0.014728, 0.000456196, 0.000456196, 0.000456196
6289, 1,0.00875749, -0.00340748, 0.00235838, 16.1102, -166.962, 0.0200591, 3.49186, 125.291, 0.699483, 0.0010892, 0.00996095, 0.0163455, 20.9557, 222.613, 0.224207, 0.00108834, 0.00757439, 0.0118387, 11.6948, 114.501, 0.213339, 0.00109054, -157.363, -27.9749, -482.501, -70.0045, -18.8626, -254.636, 0.00163884, 0.00786801, -0.0136356, 0.00218436, 0.00218436, 0.00218436
6290, 1,0.00857863, -0.00321355, 0.00220503, 11.2524, -168.555, 0.0259788, 5.92551, 196.429, 0.819473, 0.00105461, 0.00962997, 0.0156021, 14.8332, 242.909, 0.196252, 0.00105614, 0.00753697, 0.0114026, 7.89606, 131.371, 0.190297, 0.0010583, -161.168, -11.8104, -555.747, -83.3871, -8.3082, -302.419, 0.00219288, 0.00861391, -0.0152328, 0.00220705, 0.00220705, 0.00220705
6291, 1,0.00917164, -0.00319584, 0.00219155, 11.0584, -168.548, 0.0319543, -1.06964, 255.771, 0.967272, 0.00102161, 0.0101927, 0.0162723, 14.842, 248.497, 0.208831, 0.00102617, 0.00816009, 0.0121306, 7.48273, 136.423, 0.204893, 0.00102829, -188.955, -12.3714, -544.166, -100.219, -9.63162, -299.419, 0.00143824, 0.00911453, -0.0151163, 0.00172358, 0.00172358, 0.00172358
6292, 1,0.00906774, -0.0031657, 0.00214067, 3.83748, -165.557, 0.0345449, 10.5026, 292.538, 1, 0.000986559, 0.010087, 0.0167413, 6.69541, 238.734, 0.230463, 0.00099279, 0.0080607, 0.0126325, 1.19686, 130.288, 0.227596, 0.000994801, -228.916, -17.1734, -470.113, -115.729, -15.115, -260.019, -0.000556214, 0.00906667, -0.0129551, 0.000622379, 0.000622379, 0.000622379
6293, 1,0.00540994, -0.00279469, 0.00192787, 28.3017, -161.333, 0.0158741, 0.194919, 125.824, 0.542038, 0.0010913, 0.00639338, 0.0106464, 36.3546, 217.272, 0.0802244, 0.0010905, 0.00445246, 0.00697143, 21.2477, 116.152, 0.0799769, 0.00109237, -125.004, -43.7351, -483.075, -52.955, -32.1542, -263.348, 0.00149892, 0.00421268, -0.00940213, 0.00164937, 0.00164937, 0.00164937
6294, 1,0.0054933, -0.00270036, 0.00187777, 9.70952, -153.429, 0.0216848, 0.937983, 196.785, 0.693456, 0.00105636, 0.00648096, 0.0112482, 17.0534, 217.833, 0.101967, 0.00105791, 0.00453732, 0.00764582, 3.26416, 122.154, 0.100911, 0.00105965, -93.165, -30.9514, -529.383, -43.8175, -23.0791, -299.565, 0.00296573, 0.00504625, -0.0117595, 0.00267802, 0.00267802, 0.00267802
6295, 1,0.00588337, -0.00266708, 0.00184503, 15.6586, -150.774, 0.0287292, 6.86238, 240.253, 0.888106, 0.00102411, 0.00671746, 0.0116772, 18.9054, 208.389, 0.117259, 0.00102832, 0.00505835, 0.00820631, 12.6477, 113.583, 0.115566, 0.00103002, -141.441, -13.1111, -470.616, -74.4213, -7.34408, -258.984, 0.0014046, 0.00576241, -0.0107844, 0.00137499, 0.00137499, 0.00137499
6296, 1,0.00605909, -0.00262179, 0.00177452, 0.89835, -148.71, 0.0332141, 2.54099, 274.679, 1, 0.000988873, 0.00690027, 0.0120739, 2.63881, 225.477, 0.127345, 0.00099497, 0.00522116, 0.00864413, -0.709612, 128.591, 0.125681, 0.000996657, -211.209, -24.7857, -440.436, -113.826, -18.8988, -253.048, -0.000368329, 0.00606956, -0.00963878, 0.000354888, 0.000354888, 0.000354888
6297, 1,0.00378985, -0.00248195, 0.00170658, 48.6397, -150.407, 0.0133878, 16.5492, 112.01, 0.423461, 0.00109376, 0.00465933, 0.00805344, 54.078, 188.951, 0.0227643, 0.00109304, 0.00296401, 0.00481607, 45.4394, 94.3762, 0.0227643, 0.00109474, -58.7765, -59.604, -448.471, 2.37362, -38.5704, -246.932, 0.0019409, 0.00225906, -0.00730547, 0.00184361, 0.00184361, 0.00184361
6298, 1,0.00313657, -0.00233956, 0.00162065, 27.833, -140.776, 0.0183642, 4.55351, 190.727, 0.575236, 0.00105881, 0.00401995, 0.0073052, 36.179, 182.558, 0.0143525, 0.00106048, 0.00227525, 0.00410514, 20.2858, 96.1181, 0.0130293, 0.00106198, -75.5733, -29.9955, -442.105, -33.3398, -18.3246, -236.69, 0.00153194, 0.00267384, -0.00719157, 0.00104822, 0.00104822, 0.00104822
6299, 1,0.00441194, -0.00230725, 0.00160312, 32.568, -134.745, 0.0250566, -1.01329, 250.512, 0.775204, 0.00102646, 0.00528756, 0.00900393, 40.4501, 181.354, 0.0569157, 0.00103071, 0.00354909, 0.00585695, 24.9292, 97.5897, 0.055142, 0.00103216, -84.567, -21.4937, -438.002, -34.9747, -10.6766, -247.118, 0.0019534, 0.00367702, -0.00866887, 0.00174191, 0.00174191, 0.00174191
6300, 1,0.00383451, -0.00226246, 0.00152969, 6.13716, -133.56, 0.0319494, -7.98569, 260.628, 0.999533, 0.0009912, 0.00457927, 0.0085126, 7.77725, 202.214, 0.0497994, 0.000997353, 0.00309504, 0.00552618, 4.81543, 116.047, 0.0478146, 0.00099879, -178.261, -32.7634, -395.617, -98.5089, -24.1995, -225.432, -4.53846E-05, 0.00366495, -0.00699335, 0.000307992, 0.000307992, 0.000307992
6301, 1,0.00272018, -0.00221929, 0.0015235, 33.413, -138.102, 0.0070644, 25.5871, 92.7909, 0.195603, 0.00109693, 0.00346839, 0.00638384, 36.3353, 175.538, 0, 0.00109566, 0.00201158, 0.0034959, 32.6728, 88.4618, 0, 0.00109721, -47.276, -82.4366, -396.902, 6.1273, -58.1696, -213.343, 0.00159762, 0.00122899, -0.00567519, 0.00135626, 0.00135626, 0.00135626
6302, 1,0.00278072, -0.00209839, 0.00144383, 30.5872, -128.955, 0.0156926, -4.5855, 199.047, 0.488287, 0.00106174, 0.00356474, 0.00642798, 37.2839, 174.103, 0.00131185, 0.00106345, 0.00199938, 0.00355752, 24.0423, 93.8363, 0.000762775, 0.00106484, -68.6844, -54.3524, -399.273, -31.3867, -40.4622, -209.66, 0.0013643, 0.00179164, -0.00598274, 0.00087371, 0.00087371, 0.00087371
6303, 1,0.00286781, -0.00202081, 0.00139566, 36.2783, -123.454, 0.0226392, -2.6948, 253.081, 0.690855, 0.0010294, 0.00362227, 0.00640835, 42.5934, 166.455, 0.0021652, 0.0010335, 0.00212488, 0.00365355, 30.0964, 88.9834, 0.00113363, 0.00103481, -73.5765, -26.7282, -399.06, -30.4336, -13.6993, -222.817, 0.0013157, 0.00228086, -0.00629997, 0.000983183, 0.000983183, 0.000983183
6304, 1,0.00310246, -0.00198743, 0.00134393, 25.3508, -120.124, 0.0301618, -2.49203, 253.457, 0.940736, 0.000994569, 0.00378788, 0.00684585, 27.6998, 176.22, 0.014663, 0.00100033, 0.00242609, 0.00420706, 23.0692, 98.429, 0.0129487, 0.0010016, -120.851, -40.0407, -367.769, -56.0624, -30.2849, -208.94, 0.000713795, 0.00236575, -0.00596131, 0.000857212, 0.000857212, 0.000857212
6305, 1,0.00289658, -0.00202372, 0.00138082, 37.1796, -126.591, 0.00281121, 51.3505, 63.0903, 0.0281347, 0.00110074, 0.00359212, 0.00637069, 39.766, 175.679, -3.38813E-21, 0.00109875, 0.00221994, 0.00369426, 35.7942, 94.569, -3.38813E-21, 0.00110019, -48.5724, -90.4671, -387.998, 0.276211, -65.7769, -218.206, 0.00160128, 0.00104718, -0.00549922, 0.00136052, 0.00136052, 0.00136052
6306, 1,0.00230968, -0.00191751, 0.0013125, 17.2666, -119.137, 0.0130887, 20.9602, 183.948, 0.362359, 0.00106545, 0.00301491, 0.00569473, 22.6744, 161.044, 0, 0.00106666, 0.00160773, 0.00308674, 12.6726, 86.0507, 0, 0.00106796, -66.3658, -51.8515, -364.913, -33.3529, -37.1577, -187.641, 0.00117561, 0.00160273, -0.00539125, 0.000685228, 0.000685228, 0.000685228
6307, 1,0.00257261, -0.00183, 0.00125922, 28.0455, -113.689, 0.0212114, -4.996, 250.763, 0.654503, 0.00103372, 0.00324605, 0.0057576, 33.1789, 158.534, 0, 0.0010377, 0.00191064, 0.00328066, 23.1818, 86.7107, 0, 0.00103891, -55.1678, -43.136, -377.298, -18.6041, -29.8542, -211.674, 0.00154098, 0.00176966, -0.00588236, 0.00116924, 0.00116924, 0.00116924
6308, 1,0.00223635, -0.00174699, 0.00117763, 2.8889, -109.12, 0.028353, -5.63084, 258.41, 0.879518, 0.000997945, 0.00281359, 0.00545485, 4.15992, 171.49, 0, 0.0010034, 0.00166089, 0.00315028, 1.88698, 100.931, 0, 0.00100455, -124.535, -43.5739, -346.361, -71.3366, -35.0097, -196.448, 0.000408361, 0.00197345, -0.00516337, 0.000405355, 0.000405355, 0.000405355
6309, 1,0.00243879, -0.00185213, 0.00125724, 35.4216, -116.17, 0.00168802, 70.4656, 17.0436, 0, 0.00110477, 0.00308487, 0.00559671, 37.8378, 145.425, 0, 0.00110247, 0.00180491, 0.00312061, 33.8063, 70.0059, 0, 0.00110382, -41.9119, -52.4133, -341.95, 0.802084, -27.186, -183.634, 0.00131426, 0.00133569, -0.00500973, 0.00103154, 0.00103154, 0.00103154
6310, 1,0.00244699, -0.00176807, 0.00121214, 18.4444, -110.105, 0.0100611, 16.686, 199.993, 0.244407, 0.00106898, 0.00308838, 0.00556994, 22.7454, 165.559, 0, 0.00107012, 0.00181691, 0.00318787, 14.7081, 95.6711, 0, 0.00107134, -44.7831, -67.6445, -384.248, -15.6735, -52.496, -218.844, 0.00169395, 0.00131926, -0.00569944, 0.00120254, 0.00120254, 0.00120254
6311, 1,0.00193887, -0.00166426, 0.00113613, 2.54427, -103.886, 0.0187387, -0.448795, 250.707, 0.551006, 0.0010369, 0.00252551, 0.00493267, 5.57153, 151.341, 0, 0.00104045, 0.00138023, 0.00270087, 0.751455, 84.9068, 0, 0.00104157, -73.9761, -40.4248, -339.622, -42.5916, -27.6237, -184.505, 0.000979535, 0.00169812, -0.00513289, 0.000584385, 0.000584385, 0.000584385
6312, 1,0.00227776, -0.00159467, 0.00107473, 21.2745, -99.9696, 0.0266989, -7.91461, 258.744, 0.832866, 0.00100181, 0.00281584, 0.00521306, 22.5716, 145.692, 0, 0.00100732, 0.00175007, 0.00311083, 20.1677, 80.7296, 0, 0.00100838, -77.4875, -35.9108, -323.678, -31.4624, -27.9316, -182.795, 0.000941738, 0.00174364, -0.00504849, 0.00087578, 0.00087578, 0.00087578
6313, 1,0.00182833, -0.00171433, 0.00115969, -0.850084, -107.545, 0.00262715, 138.658, -15.0569, 0, 0.00110891, 0.00241561, 0.00455957, 1.07089, 150.939, 0, 0.00110592, 0.00124576, 0.00226721, -2.39088, 80.7054, 0, 0.00110719, -79.3513, -66.6905, -306.775, -42.8017, -41.2143, -158.1, 0.000627155, 0.00107487, -0.00415131, 0.000294123, 0.000294123, 0.000294123
6314, 1,0.00218437, -0.00162809, 0.00111631, 21.2635, -101.538, 0.00732535, 20.3474, 211.151, 0.130741, 0.0010719, 0.00274956, 0.0049431, 23.931, 142.668, 0, 0.00107338, 0.00163968, 0.00279382, 19.3984, 77.7626, 0, 0.00107451, -21.2325, -56.254, -350.516, 2.99716, -40.2101, -196.075, 0.00181981, 0.00117054, -0.00530519, 0.00130429, 0.00130429, 0.00130429
6315, 1,0.00202741, -0.00153227, 0.00104225, 17.0702, -95.6805, 0.0152692, -0.925695, 245.792, 0.435378, 0.00104056, 0.00257436, 0.00476715, 20.0697, 135.934, 0, 0.00104375, 0.00148392, 0.00269743, 14.1239, 74.7103, 0, 0.00104479, -47.7004, -40.3359, -319.767, -20.4949, -28.8116, -174.824, 0.001248, 0.00143642, -0.0048898, 0.000848116, 0.000848116, 0.000848116
6316, 1,0.00180807, -0.00144683, 0.000975529, -4.09146, -90.8486, 0.0236463, -3.30936, 259.529, 0.710107, 0.00100507, 0.00227177, 0.00443632, -3.626, 147.308, 0, 0.00100969, 0.00134448, 0.0025484, -4.24954, 88.2441, 0, 0.00101066, -92.0279, -39.9161, -309.981, -54.4291, -32.0834, -178.22, 0.00059077, 0.00167673, -0.00465715, 0.000441303, 0.000441303, 0.000441303
6317, 1,0.00187321, -0.00160622, 0.0010914, 16.5688, -100.389, 0.00418837, 253.332, -71.8522, 0, 0.00111292, 0.00243064, 0.00451058, 18.7615, 129.473, 0, 0.00110929, 0.00133254, 0.00238263, 15.4278, 64.5165, 0, 0.00111046, -40.779, -63.6493, -283.991, -8.69196, -41.2465, -143.611, 0.00111067, 0.00077976, -0.00399139, 0.000766187, 0.000766187, 0.000766187
6318, 1,0.00158255, -0.00149565, 0.00101835, 8.28789, -93.388, 0.00462833, 33.0568, 195.412, 0.0325986, 0.00107532, 0.00210723, 0.00407473, 10.7531, 120.489, 0, 0.00107669, 0.00107836, 0.00207991, 6.48644, 60.3833, 0, 0.00107774, -29.5037, -43.3566, -288.607, -8.59326, -27.4226, -145.134, 0.00128155, 0.00106837, -0.00430495, 0.000771984, 0.000771984, 0.000771984
6319, 1,0.00187708, -0.0014142, 0.000964398, 15.8534, -88.2889, 0.0124438, 1.89275, 243.537, 0.326437, 0.00104374, 0.00236033, 0.00436479, 17.9476, 124.662, 0, 0.00104668, 0.00140591, 0.0024971, 14.0714, 68.1953, 0, 0.00104764, -27.5752, -39.5431, -306.869, -5.46123, -28.1645, -170.96, 0.00146294, 0.00125365, -0.00473918, 0.00103162, 0.00103162, 0.00103162
6320, 1,0.00170378, -0.00131621, 0.000884728, 6.05399, -82.8069, 0.0205746, -4.54838, 259.056, 0.608568, 0.00100855, 0.00212814, 0.0041674, 6.45621, 124.8, 0, 0.00101294, 0.00127979, 0.00243906, 5.99968, 70.7915, 0, 0.00101382, -66.5413, -28.9694, -278.891, -34.0025, -21.5796, -156.792, 0.000720263, 0.00153855, -0.00428348, 0.000545217, 0.000545217, 0.000545217
6321, 1,0.00163531, -0.00148258, 0.00100761, 13.1664, -92.5812, 0.00559642, 341.232, -102.241, 0, 0.00111677, 0.00214837, 0.00402081, 15.0107, 117.361, 0, 0.0011128, 0.00114043, 0.00206145, 12.3552, 57.4464, 0, 0.00111388, -31.3151, -64.8134, -255.955, -4.10875, -42.6049, -125.626, 0.00112947, 0.000539853, -0.00357375, 0.000760712, 0.000760712, 0.000760712
6322, 1,0.00164718, -0.00138429, 0.000943242, 11.5189, -86.3121, 0.00338313, 24.154, 183.733, 0, 0.00107888, 0.00212917, 0.00397732, 13.6838, 118.419, 3.38813E-21, 0.00108003, 0.00117761, 0.00214317, 9.91245, 63.0474, 3.38813E-21, 0.001081, -20.1232, -55.836, -279.298, -2.22385, -41.327, -145.591, 0.00143498, 0.000762096, -0.00411859, 0.000936827, 0.000936827, 0.000936827
6323, 1,0.00147924, -0.00128587, 0.000872881, 4.90976, -80.4574, 0.0105334, 2.67297, 246.281, 0.248434, 0.0010468, 0.00191503, 0.00377066, 7.00033, 113.028, 5.42101E-20, 0.00104974, 0.0010705, 0.00207294, 4.60486, 61.2509, 5.42101E-20, 0.00105062, -33.6039, -35.192, -270.289, -15.0036, -23.9483, -144.801, 0.00112098, 0.00114938, -0.0041043, 0.00069056, 0.00069056, 0.00069056
6324, 1,0.0016058, -0.00120187, 0.000809933, 4.83585, -75.6998, 0.0181214, -6.54702, 260.446, 0.523864, 0.0010116, 0.00199508, 0.00386766, 5.26648, 117.573, 0, 0.00101572, 0.00121952, 0.00229612, 4.4229, 68.2714, 0, 0.00101654, -49.9894, -33.5408, -269.189, -22.9313, -26.3087, -155.574, 0.000908, 0.0013133, -0.00412885, 0.000693058, 0.000693058, 0.000693058
6325, 1,0.00147365, -0.00136308, 0.00092842, 9.07677, -84.9583, 0.0065936, 400.023, -119.04, 0, 0.00111997, 0.00194635, 0.00368392, 10.9079, 109.289, 0, 0.00111583, 0.00102152, 0.00188962, 8.34325, 54.4392, 0, 0.00111682, -27.6611, -65.0298, -235.175, -4.99128, -43.8426, -114.484, 0.00109164, 0.000387146, -0.00325227, 0.000706419, 0.000706419, 0.000706419
6326, 1,0.00148323, -0.00126308, 0.000861895, 13.269, -78.7677, 0.00285803, 22.892, 151.843, 0, 0.00108236, 0.00192157, 0.00358498, 15.139, 103.514, 0, 0.0010832, 0.00105896, 0.00191677, 12.019, 52.9477, 0, 0.00108409, -10.2642, -48.3527, -251.924, 3.9676, -34.085, -128.726, 0.00139955, 0.000681013, -0.00376026, 0.000900125, 0.000900125, 0.000900125
6327, 1,0.00140989, -0.00116297, 0.000787438, 4.86176, -72.9356, 0.00891035, -6.30661, 257.248, 0.18828, 0.0010494, 0.00181591, 0.0035194, 6.54302, 107.89, 0, 0.00105246, 0.00100745, 0.00195778, 3.2704, 60.7629, 0, 0.00105327, -30.029, -40.0143, -253.627, -14.5275, -29.1273, -138.634, 0.00108628, 0.000963623, -0.00380055, 0.00066507, 0.00066507, 0.00066507
6328, 1,0.00150521, -0.00108594, 0.000733322, 7.02862, -68.5246, 0.0160382, -2.64389, 261.94, 0.435637, 0.00101455, 0.00185096, 0.00351976, 7.26775, 106.8, 0, 0.00101849, 0.00116014, 0.00210721, 7.05377, 62.1929, 0, 0.00101923, -44.3421, -25.9981, -250.061, -22.1507, -19.1291, -145.299, 0.000813895, 0.00129674, -0.00384346, 0.000572145, 0.000572145, 0.000572145
6329, 1,0.00130501, -0.00123962, 0.000844935, 7.35913, -77.1507, 0.007202, 438.752, -133.079, 0, 0.00112316, 0.00173634, 0.00329972, 9.07763, 97.8903, 0, 0.00111895, 0.000892395, 0.00166586, 6.57347, 48.117, 0, 0.00111986, -22.064, -61.5855, -210.021, -3.60668, -40.9028, -99.8415, 0.00104397, 0.000262346, -0.00289492, 0.000649451, 0.000649451, 0.000649451
6330, 1,0.00141654, -0.00114199, 0.000780647, 15.7325, -71.2046, 0.00263302, 46.0585, 106.163, 0, 0.00108616, 0.00181798, 0.00332911, 17.6438, 93.2898, 0, 0.00108639, 0.00102887, 0.00181625, 14.4682, 47.5721, 0, 0.00108719, -3.05017, -42.4986, -234.32, 7.92613, -28.8242, -121.818, 0.00138731, 0.000634706, -0.00353586, 0.000896013, 0.000896013, 0.000896013
6331, 1,0.00121999, -0.00104616, 0.000708708, -0.11672, -65.6402, 0.00685904, -3.04504, 249.636, 0.114155, 0.00105237, 0.00157746, 0.0030739, 1.12314, 99.9342, 0, 0.00105522, 0.00086649, 0.00167726, -1.24769, 57.5525, 0, 0.00105594, -26.3757, -44.8914, -228.536, -14.6115, -34.046, -124, 0.00101702, 0.000729575, -0.00336815, 0.000592934, 0.000592934, 0.000592934
6332, 1,0.001252, -0.000967624, 0.000652797, 1.9825, -61.2197, 0.01308, -3.92298, 261.123, 0.33308, 0.00101758, 0.00155781, 0.00304591, 2.07784, 94.6837, 0, 0.00102132, 0.000946285, 0.00178668, 2.01275, 54.7724, 0, 0.00102199, -33.8404, -28.6389, -221.572, -15.8844, -21.5856, -126.847, 0.000809107, 0.00104628, -0.00339161, 0.000553877, 0.000553877, 0.000553877
6333, 1,0.00124039, -0.00112033, 0.000765522, 9.30809, -69.5935, 0.00738457, 452.291, -140.314, 0.000125188, 0.00112615, 0.00163158, 0.00301708, 11.0785, 88.0057, 0, 0.00112199, 0.000868233, 0.00154397, 8.43031, 43.2408, 0, 0.0011228, -16.3666, -58.3693, -189.281, -1.69718, -38.6579, -89.3673, 0.00101872, 0.000160885, -0.0026079, 0.000622851, 0.000622851, 0.000622851
6334, 1,0.00125199, -0.00102103, 0.000697966, 12.3129, -63.6299, 0.00248081, 70.3278, 63.483, 0, 0.00108988, 0.00161313, 0.00298698, 14.0945, 84.9529, 0, 0.0010895, 0.000900525, 0.00162662, 10.966, 44.0856, 0, 0.00109022, -2.30711, -40.5051, -212.047, 5.66693, -27.36, -110.564, 0.00127171, 0.000531976, -0.00318229, 0.000793768, 0.000793768, 0.000793768
6335, 1,0.00115265, -0.000944547, 0.000644564, 10.9463, -58.9975, 0.00509403, 9.71821, 230.06, 0.0488784, 0.00105538, 0.00148093, 0.00277316, 12.5275, 79.1018, 0, 0.00105808, 0.000833836, 0.00152426, 9.79018, 41.5114, 0, 0.00105872, -3.47951, -35.2968, -198.529, 4.67462, -25.7069, -103.502, 0.00116335, 0.000590303, -0.00303717, 0.000739336, 0.000739336, 0.000739336
6336, 1,0.00113987, -0.000850027, 0.000572413, 3.53449, -53.8383, 0.0103235, -2.23308, 257.474, 0.233967, 0.00102053, 0.00141138, 0.00269777, 3.72224, 83.6996, 0, 0.00102406, 0.000868788, 0.00158472, 3.558, 48.5967, 0, 0.00102464, -31.047, -25.0171, -195.035, -16.7715, -18.4384, -110.58, 0.000672532, 0.000934952, -0.00296542, 0.000416701, 0.000416701, 0.000416701
6337, 1,0.00114525, -0.00100403, 0.000688678, 11.5176, -62.205, 0.0075059, 455.995, -145.235, 0.00251687, 0.00112904, 0.00149647, 0.00270595, 13.2515, 76.4882, 0, 0.00112498, 0.000814929, 0.0013931, 10.7323, 36.7142, 0, 0.00112571, -8.21989, -55.0747, -166.17, 2.87528, -36.3304, -76.6875, 0.00101537, 3.99122E-05, -0.00229676, 0.00062248, 0.00062248, 0.00062248
6338, 1,0.00106781, -0.000906395, 0.00062171, 9.86074, -56.3542, 0.0024036, 92.872, 27.6806, 0, 0.0010936, 0.00138926, 0.00258496, 11.5371, 74.0534, 0, 0.00109278, 0.000757188, 0.00138024, 8.64623, 38.03, 0, 0.00109342, 1.10263, -38.4847, -184.778, 5.93796, -25.7986, -94.2292, 0.00117339, 0.00038966, -0.00276482, 0.00070572, 0.00070572, 0.00070572
6339, 1,0.00114039, -0.000832681, 0.000571779, 13.716, -51.8522, 0.00381334, 28.44, 203.036, 0.00100305, 0.00105862, 0.00143029, 0.00260978, 15.2347, 72.1108, 0, 0.00106087, 0.000862517, 0.00151807, 12.741, 39.3039, 0, 0.00106144, 4.7724, -33.8526, -187.252, 9.99623, -25.3046, -102.603, 0.00122489, 0.000495111, -0.00289007, 0.000814948, 0.000814948, 0.000814948
6340, 1,0.00095028, -0.000732125, 0.000491773, -0.262626, -46.4074, 0.00801505, -3.60954, 254.198, 0.15397, 0.0010234, 0.00118533, 0.00235512, -0.0272861, 74.7609, 0, 0.00102679, 0.000715951, 0.00139242, -0.248758, 44.4423, 0, 0.00102729, -25.168, -26.2908, -172.824, -13.9418, -20.1265, -99.2585, 0.000643933, 0.000745811, -0.0026026, 0.000399949, 0.000399949, 0.000399949
6341, 1,0.000997154, -0.000889428, 0.000613042, 10.0994, -54.9271, 0.00775353, 458.701, -148.588, 0.00738703, 0.00113198, 0.00131034, 0.00235606, 11.8961, 66.1118, 0, 0.00112803, 0.000707529, 0.00120033, 9.34687, 31.2609, 0, 0.00112867, -4.62003, -52.3757, -141.34, 3.2257, -34.5415, -62.4668, 0.000931924, -7.40313E-05, -0.00193104, 0.000547877, 0.000547877, 0.000547877
6342, 1,0.000973008, -0.000794855, 0.000548851, 11.1531, -49.2424, 0.00248997, 111.356, 7.77573, 0, 0.00109686, 0.00125821, 0.00227266, 12.9448, 63.4208, 0, 0.00109587, 0.000701189, 0.00122122, 9.94176, 32.2215, 0, 0.00109643, 7.09263, -36.1311, -161.224, 9.05853, -24.1474, -81.5757, 0.00113403, 0.000261417, -0.00242471, 0.00068204, 0.00068204, 0.00068204
6343, 1,0.000966617, -0.000712664, 0.00048991, 9.15675, -44.3492, 0.00313029, 14.674, 180.196, 0, 0.00106175, 0.0012195, 0.0022398, 10.6854, 64.7402, 0, 0.00106374, 0.000721838, 0.00129476, 7.97882, 36.7107, 0, 0.00106422, 3.27295, -33.3316, -164.162, 6.00422, -25.1219, -91.0143, 0.00107437, 0.000379198, -0.00250405, 0.000687587, 0.000687587, 0.000687587
6344, 1,0.000840666, -0.00062229, 0.000420196, 3.9947, -39.335, 0.00634035, -1.74193, 245.636, 0.0963729, 0.00102628, 0.00104824, 0.00204768, 4.43502, 61.6457, 0, 0.00102958, 0.000636918, 0.00122797, 3.69601, 36.1387, 0, 0.00103, -10.8911, -23.9964, -150.05, -2.93006, -18.5808, -86.9052, 0.000736205, 0.000566787, -0.00230302, 0.000499587, 0.000499587, 0.000499587
6345, 1,0.000882173, -0.00077748, 0.000539408, 10.4436, -47.8159, 0.0080167, 459.796, -149.555, 0.0125078, 0.00113478, 0.00115775, 0.00202771, 12.2995, 55.4821, 0, 0.00113099, 0.000633353, 0.00102717, 9.75653, 25.4568, 0, 0.00113154, -1.36002, -48.8605, -116.226, 3.61478, -31.8968, -48.0883, 0.000836073, -0.000173565, -0.00156321, 0.000467429, 0.000467429, 0.000467429
6346, 1,0.000871112, -0.000683011, 0.000475128, 11.4347, -42.1377, 0.00265265, 132.084, -10.0215, 0, 0.0011003, 0.00112083, 0.00197497, 13.3442, 53.9299, 0, 0.00109915, 0.00063496, 0.0010711, 10.1141, 27.5183, 0, 0.00109963, 10.3266, -33.3849, -138.732, 9.841, -22.2074, -70.1884, 0.00105293, 0.000161365, -0.00208959, 0.000624871, 0.000624871, 0.000624871
6347, 1,0.000830491, -0.000599384, 0.000415028, 10.8847, -37.1499, 0.00271764, 26.9322, 137.682, 0, 0.00106506, 0.00104744, 0.00188496, 12.492, 51.1464, 0, 0.00106656, 0.000622219, 0.0010895, 9.65039, 27.915, 0, 0.00106696, 8.82021, -26.662, -135.597, 9.03325, -19.1056, -73.6726, 0.000977337, 0.000292935, -0.00210019, 0.000613353, 0.000613353, 0.000613353
6348, 1,0.000746433, -0.000504338, 0.000341933, 2.15773, -31.8675, 0.00511044, -2.37352, 242.296, 0.0522688, 0.00102904, 0.000904807, 0.00179065, 2.67765, 54.3429, 5.42101E-20, 0.00103231, 0.000589028, 0.00113594, 2.00645, 33.6854, 5.42101E-20, 0.00103266, -8.22793, -19.4974, -135.303, -2.95652, -14.93, -83.1695, 0.000677646, 0.000525339, -0.00208452, 0.000460899, 0.000460899, 0.000460899
6349, 1,0.000792773, -0.000669064, 0.000468543, 11.9932, -40.9137, 0.00830392, 460.64, -150.216, 0.018126, 0.00113772, 0.00103178, 0.00173153, 13.8961, 45.0004, -1.73472E-18, 0.00113409, 0.000584131, 0.000882846, 11.4152, 19.7012, -1.73472E-18, 0.00113456, 2.52419, -45.1002, -92.4253, 4.98014, -29.0478, -35.0359, 0.000754461, -0.000264129, -0.00122097, 0.00040721, 0.00040721, 0.00040721
6350, 1,0.000782548, -0.000574242, 0.000404272, 13.3385, -35.1833, 0.0029184, 158.253, -28.5254, 0, 0.00110346, 0.000998382, 0.00168012, 15.435, 43.1548, 0, 0.00110218, 0.000580989, 0.000920306, 11.8565, 21.5129, 0, 0.00110256, 14.1841, -29.7536, -113.895, 11.472, -19.401, -56.6098, 0.000964256, 6.01273E-05, -0.00172486, 0.000564533, 0.000564533, 0.000564533
6351, 1,0.000727322, -0.000487045, 0.000340987, 9.27638, -29.994, 0.00242302, 35.1345, 107.775, 0, 0.00106829, 0.000910061, 0.00161241, 11.0486, 44.0832, 0, 0.00106939, 0.000551899, 0.000960754, 7.81344, 25.6573, 0, 0.00106971, 9.59819, -25.6018, -116.246, 7.68688, -18.9906, -65.668, 0.000882606, 0.000191339, -0.00178927, 0.000549856, 0.000549856, 0.000549856
6352, 1,0.000608956, -0.000389832, 0.000266042, 2.796, -24.5418, 0.0040274, 5.04418, 227.507, 0.0138884, 0.00103194, 0.00074058, 0.00142759, 3.22605, 43.3836, 0, 0.00103506, 0.000481146, 0.000915743, 2.4946, 27.6061, 0, 0.00103532, -2.40195, -19.4739, -108.275, 0.28327, -15.529, -67.5725, 0.000631425, 0.000333475, -0.00166861, 0.0004372, 0.0004372, 0.0004372
6353, 1,0.000749774, -0.000565542, 0.000402161, 16.6755, -34.2534, 0.00870797, 461.465, -150.722, 0.0260289, 0.00114039, 0.00095265, 0.00147671, 18.6422, 33.0479, 0, 0.00113696, 0.000583099, 0.000780433, 16.3161, 12.4467, 0, 0.00113734, 7.5672, -39.9991, -66.7119, 7.76204, -25.0183, -20.084, 0.000674418, -0.0003499, -0.000861227, 0.00035359, 0.00035359, 0.00035359
6354, 1,0.000728003, -0.000470384, 0.00033815, 15.6256, -28.473, 0.00333909, 190.287, -45.0126, 0, 0.0011067, 0.000913146, 0.00143326, 18.0528, 33.9008, 0, 0.00110528, 0.000558349, 0.000811214, 13.8633, 16.9935, 0, 0.00110559, 16.8793, -27.2743, -91.3074, 12.137, -17.8531, -45.2642, 0.000875394, -4.18938E-05, -0.00138383, 0.000507547, 0.000507547, 0.000507547
6355, 1,0.000637578, -0.000377721, 0.000270327, 12.4507, -22.9778, 0.00213799, 40.3227, 82.4729, 0, 0.00107139, 0.000789716, 0.00130701, 14.5718, 31.3605, 0, 0.00107228, 0.000491912, 0.000792749, 10.5988, 17.7624, 0, 0.00107251, 14.1706, -19.7169, -88.5352, 10.2573, -13.8831, -49.6614, 0.000779281, 0.000104439, -0.00139262, 0.000480615, 0.000480615, 0.000480615
6356, 1,0.000514653, -0.000272291, 0.000187956, 4.08297, -17.0873, 0.00353003, 11.1708, 209.917, 0, 0.00103487, 0.000612914, 0.00115507, 4.70065, 33.1972, 0, 0.00103785, 0.000419001, 0.00079125, 3.56248, 22.3646, 0, 0.00103803, 1.91904, -14.563, -86.9475, 2.50513, -11.7422, -57.8567, 0.000562073, 0.000266379, -0.00136689, 0.00040186, 0.00040186, 0.00040186
6357, 1,0.000712419, -0.000467092, 0.000339941, 19.6595, -27.8873, 0.00926377, 462.638, -151.65, 0.0369283, 0.00114327, 0.000881282, 0.00124271, 21.7053, 23.7251, 0, 0.00113996, 0.000585258, 0.000692525, 19.5427, 7.67602, 0, 0.00114026, 9.72605, -36.4882, -44.4131, 7.92761, -22.2996, -8.65607, 0.000575342, -0.000429183, -0.000531603, 0.000284287, 0.000284287, 0.000284287
6358, 1,0.000691172, -0.000373304, 0.00027814, 20.1022, -22.0983, 0.00391782, 229.795, -61.4423, 0, 0.00111003, 0.00085174, 0.00119472, 23.1336, 22.6456, 0, 0.00110852, 0.000546827, 0.000696841, 17.7664, 10.4321, 0, 0.00110874, 19.6693, -22.9786, -64.6275, 13.1492, -14.4607, -29.9848, 0.000757324, -0.00013722, -0.000987813, 0.000426005, 0.000426005, 0.000426005
6359, 1,0.000599364, -0.000276152, 0.000207302, 15.7581, -16.3323, 0.00189954, 43.5401, 62.7844, 0, 0.00107433, 0.000728974, 0.00108278, 18.6098, 21.6397, 0, 0.00107505, 0.000474506, 0.000688703, 13.1043, 12.8773, 0, 0.0010752, 17.0394, -16.8669, -65.0916, 11.3463, -12.064, -37.9141, 0.000687089, 2.28018E-06, -0.00104055, 0.000427259, 0.000427259, 0.000427259
6360, 1,0.000392754, -0.000155429, 0.000111068, 3.70653, -9.66456, 0.00314558, 6.57216, 191.624, 0, 0.00103775, 0.000455255, 0.000826503, 4.50619, 23.1883, 0, 0.00104059, 0.000332861, 0.000611216, 2.98375, 17.3496, 0, 0.00104068, 4.0411, -11.6742, -61.9319, 2.67684, -9.75251, -44.9733, 0.000448343, 0.000162028, -0.000986423, 0.000326008, 0.000326008, 0.000326008
6361, 1,0.00074523, -0.000378161, 0.000286539, 26.5295, -22.01, 0.0100015, 462.976, -151.07, 0.0513065, 0.00114634, 0.000882982, 0.00108252, 28.6961, 13.3709, 0, 0.0011432, 0.000653216, 0.000669596, 26.6166, 1.7696, 0, 0.00114342, 12.3384, -32.6083, -19.8428, 8.83199, -19.2529, 5.11211, 0.000470418, -0.000519975, -0.000167865, 0.000213493, 0.000213493, 0.000213493
6362, 1,0.000716294, -0.000287491, 0.000228816, 27.3704, -16.2858, 0.00458788, 275.289, -80.0827, 0, 0.00111308, 0.000864552, 0.00104075, 31.553, 11.4871, 0, 0.00111143, 0.000582287, 0.000638863, 23.8075, 3.91031, 0, 0.00111157, 22.7549, -18.4048, -38.8113, 14.7204, -10.9728, -15.4785, 0.000646219, -0.000224982, -0.000607894, 0.000356057, 0.000356057, 0.000356057
6363, 1,0.0006102, -0.000189377, 0.000159279, 21.715, -10.3967, 0.00176436, 51.1562, 43.7568, 0, 0.00107734, 0.000734259, 0.000922901, 26.0828, 11.3764, 0, 0.00107791, 0.00048871, 0.000614848, 17.4631, 7.44288, 0, 0.00107797, 19.8245, -12.9336, -41.0203, 12.5324, -9.1851, -25.676, 0.000584045, -8.52284E-05, -0.000683475, 0.000366729, 0.000366729, 0.000366729
6364, 1,0.000309851, -5.67023E-05, 5.25229E-05, 5.95462, -3.06783, 0.00279494, 7.30553, 168.384, 0, 0.00104066, 0.00035269, 0.000551104, 7.64713, 12.1599, 0, 0.0010433, 0.000269874, 0.00045724, 4.38504, 11.3552, 0, 0.00104332, 7.32235, -7.1809, -36.6212, 4.27976, -6.36925, -31.976, 0.000342884, 7.42164E-05, -0.000614221, 0.000264661, 0.000264661, 0.000264661
6365, 1,0.000858267, -0.000300996, 0.000243974, 39.4199, -16.7353, 0.010878, 466.555, -155.795, 0.0686838, 0.00114914, 0.000978235, 0.000999412, 42.2488, 0.48112, 0, 0.00114611, 0.000780534, 0.000687318, 38.7809, -6.71309, 0, 0.00114625, 16.7675, -26.6301, 8.4192, 11.8741, -14.0939, 22.3591, 0.000363777, -0.000605736, 0.000233688, 0.000146935, 0.000146935, 0.000146935
6366, 1,0.000819227, -0.000218603, 0.000196559, 36.5065, -11.3148, 0.00524847, 317.822, -95.2715, 0, 0.00111647, 0.000976656, 0.0010124, 42.8199, 2.899, 0, 0.00111469, 0.000671229, 0.000660505, 30.6292, -0.0811005, 0, 0.00111475, 24.1415, -14.8897, -17.9488, 14.7042, -8.73525, -5.72567, 0.000538774, -0.000293531, -0.000292556, 0.000291554, 0.000291554, 0.000291554
6367, 1,0.000690519, 0.000151868, 0.000143383, 31.2927, 7.48616, 0.00173489, 64.1489, 24.1771, 0, 0.00108021, 0.000840101, 0.000854177, 38.6349, 0.564084, 0, 0.00108062, 0.000542336, 0.000570699, 24.0414, 1.44501, 0, 0.00108061, 22.0654, -8.61553, -15.1422, 13.3735, -5.90883, -11.7997, 0.000460065, -0.00017335, -0.000295942, 0.000289203, 0.000289203, 0.000289203
6368, 1,0.000298603, 0.000118297, 8.2388E-05, 11.0185, 7.13018, 0.00245109, 7.12431, 146.819, 0, 0.00104352, 0.000374776, 0.000402524, 16.0882, 1.56423, 0, 0.00104598, 0.00024023, 0.000337869, 6.82937, 5.832, 0, 0.00104591, 9.91437, -2.99325, -11.6138, 5.37216, -3.41621, -19.452, 0.000229734, -1.36553E-05, -0.000241286, 0.000199941, 0.000199941, 0.000199941
6369, 1,0.00102117, -0.000237868, 0.000214768, 51.2586, -12.2253, 0.011352, 464.743, -152.171, 0.0776982, 0.00115222, 0.00115687, 0.00103594, 56.3855, -7.14846, 0, 0.00114938, 0.000914011, 0.000746791, 47.6506, -10.0733, 0, 0.00114943, 15.9845, -23.7041, 29.1649, 10.0057, -12.4522, 32.6663, 0.000225887, -0.000668558, 0.000558204, 5.34845E-05, 5.34845E-05, 5.34845E-05
6370, 1,0.0010394, 0.000207903, 0.000193471, 54.4429, 10.4186, 0.00601208, 367.273, -113.26, 0, 0.00111952, 0.00123246, 0.00107624, 64.1284, -9.95256, 0, 0.00111765, 0.000853866, 0.00072339, 45.1407, -8.38892, 0, 0.00111762, 27.5991, -8.46313, 10.7217, 16.8598, -3.21922, 11.5262, 0.000407874, -0.000367258, 0.000120595, 0.000204846, 0.000204846, 0.000204846
6371, 1,0.000856485, 0.000214497, 0.000167564, 44.3972, 12.2788, 0.00185487, 83.1318, 5.97499, 0, 0.00108322, 0.00106821, 0.000921164, 56.4633, -9.40235, 0, 0.00108349, 0.000646735, 0.000590586, 32.4856, -3.71997, 0, 0.00108339, 23.7448, -4.56426, 9.02652, 13.8401, -3.07802, 0.397851, 0.000337328, -0.000253359, 6.85117E-05, 0.000216682, 0.000216682, 0.000216682
6372, 1,0.000450591, 0.00023347, 0.000157546, 23.9794, 14.5077, 0.00211996, 6.96341, 126.038, 0, 0.00104635, 0.000652742, 0.000507309, 36.9945, -9.24013, 0, 0.00104865, 0.00028259, 0.00028875, 12.7068, 0.133412, 0, 0.00104849, 12.1175, 1.64738, 13.9555, 6.26447, -0.103417, -6.56129, 0.000105044, -9.4982E-05, 0.00014003, 0.000128168, 0.000128168, 0.000128168
6373, 1,0.00127442, 0.000219212, 0.000208711, 71.3547, 10.8573, 0.0121044, 468.074, -156.815, 0.0926545, 0.00115527, 0.00144934, 0.00116367, 79.91, -19.6907, 0, 0.00115255, 0.00111906, 0.000854146, 63.8807, -18.4016, 0, 0.00115252, 20.9596, -16.2236, 54.3363, 13.8771, -6.01549, 47.3431, 0.00013313, -0.000714893, 0.000900815, 3.89306E-06, 3.89306E-06, 3.89306E-06
6374, 1,0.00125917, 0.000265157, 0.000215338, 69.5835, 14.8649, 0.00672544, 412.666, -128.911, 0, 0.00112269, 0.00151488, 0.00120344, 83.927, -18.7883, 0, 0.00112068, 0.00100842, 0.000793986, 55.5263, -12.7291, 0, 0.00112057, 27.4575, -5.55439, 34.4618, 15.7358, -1.53783, 23.9892, 0.000263615, -0.000451303, 0.00049227, 0.000110903, 0.000110903, 0.000110903
6375, 1,0.00112369, 0.000305245, 0.000219465, 62.938, 18.4061, 0.00220973, 113.308, -12.4406, 0, 0.00108612, 0.00142491, 0.00110851, 81.0521, -20.0519, 0, 0.00108626, 0.000825535, 0.000676829, 45.0524, -9.56568, 0, 0.00108607, 25.6928, 0.35677, 34.1063, 14.6528, 0.630771, 13.4134, 0.000210452, -0.000325556, 0.000440377, 0.000141672, 0.000141672, 0.000141672
6376, 1,0.000745326, 0.00035531, 0.000238479, 43.9932, 22.2221, 0.00179232, 6.31781, 106.135, 0, 0.00104916, 0.00108578, 0.000767128, 65.5143, -20.0442, 0, 0.00105131, 0.000426431, 0.000341625, 23.5594, -5.52181, 0, 0.00105106, 13.9385, 6.49253, 39.7015, 6.95436, 3.27397, 6.33711, -2.78854E-05, -0.000171737, 0.000525012, 5.26017E-05, 5.26017E-05, 5.26017E-05
6377, 1,0.00157533, 0.000269788, 0.000226763, 91.0801, 14.8781, 0.0132228, 467.896, -155.311, 0.114248, 0.00115828, 0.00180978, 0.00136343, 104.033, -28.8836, 9.7183E-07, 0.0011557, 0.0013558, 0.000995798, 78.9841, -23.4826, 9.7183E-07, 0.0011556, 22.179, -14.0269, 78.4987, 14.2561, -4.68663, 60.8782, 1.22411E-05, -0.000820733, 0.00127672, -7.0139E-05, -7.0139E-05, -7.0139E-05
6378, 1,0.00153427, 0.000341201, 0.000255535, 88.8882, 20.1812, 0.00752888, 451.779, -138.389, 0.00256468, 0.00112555, 0.00186941, 0.00140729, 108.66, -29.4124, 0, 0.00112356, 0.00120253, 0.000908379, 69.3582, -18.8922, 0, 0.00112337, 30.6744, 0.282086, 57.2807, 17.9819, 2.9622, 35.7325, 0.000165095, -0.000503737, 0.000815619, 6.24173E-05, 6.24173E-05, 6.24173E-05
6379, 1,0.00144752, 0.00040911, 0.00028465, 84.5387, 25.1547, 0.00282073, 157.24, -33.0177, 0, 0.0010891, 0.00185286, 0.00135808, 109.408, -31.1434, 0, 0.00108907, 0.00104519, 0.00079503, 59.9066, -15.8433, 0, 0.0010888, 26.9059, 5.41216, 61.1122, 14.8909, 4.44855, 28.1903, 6.13117E-05, -0.000402505, 0.000846426, 4.78765E-05, 4.78765E-05, 4.78765E-05
6380, 1,0.00109713, 0.000479343, 0.000320992, 66.7701, 30.0558, 0.00149806, 7.32692, 86.1587, 0, 0.00105197, 0.00156756, 0.00107592, 96.3737, -30.8794, 0, 0.00105397, 0.00063953, 0.000464476, 37.8463, -11.1636, 0, 0.00105363, 15.7364, 11.5651, 65.3368, 7.7535, 6.74853, 18.9887, -0.000161957, -0.000244029, 0.00090718, -2.0613E-05, -2.0613E-05, -2.0613E-05
6381, 1,0.00187659, 0.000334874, 0.000259883, 111.28, 19.5559, 0.0146894, 469.375, -156.301, 0.142709, 0.00116129, 0.00218345, 0.00157638, 129.216, -38.9727, 0, 0.00115883, 0.00158204, 0.0011251, 94.0978, -29.5392, 0, 0.00115865, 21.338, -7.87725, 103.457, 12.7599, 0.415407, 75.4424, -0.000160669, -0.000860456, 0.00165303, -0.000193866, -0.000193866, -0.000193866
6382, 1,0.00190522, 0.00043047, 0.000308284, 111.8, 26.1343, 0.0091787, 460.651, -148.644, 0.0349881, 0.00112849, 0.00232939, 0.00169822, 137.448, -38.8537, 0, 0.00112643, 0.00148469, 0.00109221, 86.4454, -23.899, 0, 0.00112615, 32.0454, 4.51282, 80.0028, 18.3139, 6.17513, 47.2079, 5.64309E-05, -0.000577529, 0.00115124, 1.55009E-06, 1.55009E-06, 1.55009E-06
6383, 1,0.00176011, 0.000517495, 0.00035482, 104.953, 32.1283, 0.00376263, 222.415, -61.0278, 0, 0.0010922, 0.00227445, 0.00161807, 136.816, -41.3008, 0, 0.00109185, 0.00124848, 0.000913486, 73.3233, -21.1646, 0, 0.00109149, 27.6985, 9.677, 86.5268, 14.8741, 7.22698, 41.3928, -8.09714E-05, -0.000482377, 0.00123337, -3.52643E-05, -3.52643E-05, -3.52643E-05
6384, 1,0.00147667, 0.000604948, 0.000404599, 91.0157, 37.9797, 0.00124886, 10.0432, 66.7568, 0, 0.0010548, 0.00207487, 0.00140782, 128.612, -41.9151, 0, 0.00105667, 0.000887598, 0.00062075, 53.9512, -16.9551, 0, 0.00105624, 17.2973, 17.0489, 91.3992, 8.40693, 10.5631, 31.8953, -0.000303741, -0.00031071, 0.00129471, -9.87624E-05, -9.87624E-05, -9.87624E-05
6385, 1,0.0021974, 0.000410219, 0.000303589, 131.555, 24.6831, 0.0162362, 470.563, -156.852, 0.172633, 0.00116444, 0.00258395, 0.00181981, 154.771, -47.6027, 0, 0.00116206, 0.00182177, 0.0012708, 109.051, -34.2073, 0, 0.00116181, 20.3542, -3.0683, 125.522, 11.108, 4.30042, 87.2136, -0.000315504, -0.000905228, 0.00199265, -0.00030068, -0.00030068, -0.00030068
6386, 1,0.00227691, 0.000524502, 0.000367874, 135.283, 32.3025, 0.0108921, 462.012, -148.349, 0.0683299, 0.00113126, 0.00279579, 0.00199845, 167.112, -49.2134, 0, 0.00112933, 0.00176135, 0.00127266, 103.747, -29.8505, 0, 0.00112898, 31.2829, 8.51919, 107.838, 16.7701, 8.93661, 63.8449, -0.000112205, -0.000668285, 0.00157869, -0.000114485, -0.000114485, -0.000114485
6387, 1,0.00209924, 0.000629035, 0.000427454, 127.094, 39.25, 0.00482192, 291.312, -86.5073, 0, 0.00109523, 0.00272477, 0.00190572, 166.041, -51.9415, 0, 0.00109462, 0.00147677, 0.00105628, 88.4177, -26.9588, 0, 0.00109418, 29.5218, 15.1187, 111.184, 15.9017, 11.1822, 53.7927, -0.000208993, -0.000543941, 0.0015956, -0.000103702, -0.000103702, -0.000103702
6388, 1,0.00185909, 0.000731299, 0.000488628, 115.198, 45.9494, 0.00101967, 14.224, 46.5545, 0, 0.00105768, 0.00258463, 0.00174477, 160.784, -52.6338, 0, 0.00105938, 0.00114096, 0.000785465, 70.0889, -22.4006, 0, 0.00105886, 18.2344, 22.2398, 117.427, 8.54748, 14.0106, 44.6437, -0.000452338, -0.000378493, 0.001685, -0.00018091, -0.00018091, -0.00018091
6389, 1,0.00256288, 0.000489033, 0.000351309, 155.385, 29.9472, 0.0183876, 471.591, -156.739, 0.214102, 0.00116752, 0.00303237, 0.0021119, 184.039, -58.4207, 0, 0.00116525, 0.00210258, 0.00145754, 127.373, -41.1223, 0, 0.00116493, 22.0375, 1.82958, 151.395, 12.1587, 8.08759, 103.121, -0.000445614, -0.000983855, 0.00237688, -0.000383126, -0.000383126, -0.000383126
6390, 1,0.00259028, 0.00062364, 0.000432125, 156.326, 38.664, 0.0123887, 465.549, -152.429, 0.0976745, 0.00113408, 0.00320781, 0.00225179, 194.464, -59.6938, 0, 0.00113221, 0.00197658, 0.00139894, 118.53, -35.9461, 0, 0.00113178, 31.2855, 14.765, 133.031, 16.2274, 13.9566, 77.6544, -0.000278861, -0.000708649, 0.00195579, -0.000223582, -0.000223582, -0.000223582
6391, 1,0.00245783, 0.000742466, 0.000501852, 149.751, 46.4507, 0.00593515, 361.671, -110.441, 0, 0.00109827, 0.00319649, 0.00221477, 195.867, -61.968, 0, 0.0010974, 0.00172254, 0.00121678, 103.938, -32.1382, 0, 0.00109687, 30.1196, 20.0244, 135.76, 15.7627, 14.6205, 66.0315, -0.000353838, -0.000605562, 0.00196476, -0.000187668, -0.000187668, -0.000187668
6392, 1,0.00225161, 0.000857943, 0.000572746, 140.17, 53.9445, 0.000783177, 18.2607, 25.5819, 0, 0.00106057, 0.00310435, 0.00208928, 193.754, -63.7923, 0, 0.00106211, 0.00140528, 0.000958878, 87.0351, -28.2651, 0, 0.0010615, 19.2513, 27.6903, 144.435, 8.86041, 17.6797, 58.2552, -0.000605496, -0.000447077, 0.0020878, -0.000265487, -0.000265487, -0.000265487
6393, 1,0.00290578, 0.000570453, 0.00040192, 175.092, 35.3283, 0.0214402, 472.939, -156.6, 0.272597, 0.00117061, 0.00345975, 0.00240786, 209.226, -64.9585, 0, 0.00116834, 0.00235974, 0.00164473, 141.563, -43.8072, 0, 0.00116794, 20.3291, 2.24301, 172.304, 9.856, 7.51811, 114.048, -0.000573605, -0.00109217, 0.00271922, -0.000463698, -0.000463698, -0.000463698
6394, 1,0.00291518, 0.000724698, 0.00049858, 178.335, 45.1149, 0.0141716, 463.225, -146.799, 0.131917, 0.00113671, 0.00363299, 0.00251126, 222.851, -71.0837, 0, 0.00113509, 0.0022019, 0.00152777, 134.229, -42.9699, 0, 0.00113458, 32.9837, 21.393, 158.874, 17.4774, 19.3798, 92.0525, -0.000421786, -0.000760914, 0.00233578, -0.000307521, -0.000307521, -0.000307521
6395, 1,0.00284659, 0.000857459, 0.000577806, 173.867, 53.7297, 0.00717391, 428.453, -121.387, 0, 0.00110106, 0.00369984, 0.00254634, 227.218, -72.1042, 0, 0.00110018, 0.00199703, 0.00139687, 120.854, -37.423, 0, 0.00109956, 30.1271, 24.6676, 161.518, 15.0933, 17.903, 79.2726, -0.000510819, -0.000678988, 0.00235964, -0.000282505, -0.000282505, -0.000282505
6396, 1,0.00264943, 0.000985043, 0.000657083, 164.841, 61.9718, 0.000871286, 39.9639, 0.932736, 0, 0.00106356, 0.00362954, 0.00244199, 226.44, -74.4025, 0, 0.00106486, 0.00167517, 0.0011407, 103.688, -33.5583, 0, 0.00106415, 19.3616, 32.5291, 171.317, 8.35605, 20.7319, 71.5869, -0.000772355, -0.000519781, 0.00249951, -0.000361671, -0.000361671, -0.000361671
6397, 1,0.00320845, 0.000649738, 0.00045085, 196.972, 40.6276, 0.0257576, 475.242, -157.315, 0.354451, 0.00117377, 0.0038465, 0.00264222, 236.589, -77.3257, 0, 0.00117151, 0.00257627, 0.00176949, 157.895, -52.3639, 0, 0.00117104, 25.4654, 9.59492, 196.917, 14.603, 13.6306, 128.858, -0.000643988, -0.00115184, 0.00304981, -0.00048342, -0.00048342, -0.00048342
6398, 1,0.00321624, 0.000824761, 0.000564538, 195.551, 51.5678, 0.0176246, 466.984, -149.88, 0.198883, 0.00113958, 0.00403429, 0.00279245, 246.468, -77.3572, 0, 0.00113789, 0.00240274, 0.00167735, 145.094, -44.8949, 0, 0.00113729, 28.4684, 23.2878, 180.315, 12.5411, 19.9675, 102.176, -0.00059551, -0.000842462, 0.00269272, -0.00042259, -0.00042259, -0.00042259
6399, 1,0.00324209, 0.000972535, 0.000653644, 199.25, 61.0838, 0.0103452, 457.786, -142.764, 0.0576191, 0.00110414, 0.00420947, 0.00288221, 259.866, -83.3136, 0, 0.00110299, 0.00227917, 0.00158246, 139.049, -43.7785, 0, 0.00110228, 30.83, 31.0496, 188.061, 15.1798, 23.0163, 93.1394, -0.000645625, -0.000744652, 0.00274186, -0.00035485, -0.00035485, -0.00035485
6400, 1,0.00305315, 0.00111306, 0.000742418, 191.172, 70.0488, 0.00198017, 118.805, -34.9903, 0, 0.00106674, 0.00416095, 0.00279103, 260.793, -86.6342, 0, 0.00106764, 0.00195143, 0.00131916, 122.049, -40.4729, 0, 0.00106684, 20.9245, 39.3015, 199.677, 9.40329, 25.8144, 86.201, -0.000932864, -0.000579841, 0.00291852, -0.000449226, -0.000449226, -0.000449226
6401, 1,0.00356114, 0.000737, 0.000508115, 216.453, 46.3214, 0.0315151, 478.766, -159.308, 0.461779, 0.00117709, 0.00428613, 0.00294629, 261.625, -83.1086, 0, 0.00117459, 0.0028423, 0.00196168, 171.903, -54.3444, 0, 0.00117404, 22.5644, 8.1184, 218.643, 11.4173, 11.5764, 140.04, -0.000782173, -0.00130236, 0.00343217, -0.000569164, -0.000569164, -0.000569164
6402, 1,0.00367458, 0.000920646, 0.000627656, 226.131, 57.8835, 0.0231788, 471.401, -152.817, 0.305231, 0.00114259, 0.00459065, 0.00315224, 283.436, -92.119, 0, 0.00114088, 0.0027615, 0.00190914, 169.223, -55.2961, 0, 0.0011402, 33.872, 27.9401, 214.545, 17.3876, 23.3421, 125.159, -0.000683502, -0.00101035, 0.00318796, -0.000455204, -0.000455204, -0.000455204
6403, 1,0.0036658, 0.00108714, 0.000730139, 225.89, 68.4092, 0.0143973, 468.836, -155.791, 0.13688, 0.00110714, 0.00474834, 0.00323251, 293.81, -94.9649, 0, 0.00110581, 0.00258716, 0.0017795, 158.395, -50.5807, 0, 0.00110502, 31.0542, 36.2467, 217.594, 14.9505, 26.9405, 109.851, -0.000814012, -0.000842092, 0.00319665, -0.000457236, -0.000457236, -0.000457236
6404, 1,0.00337414, 0.00123775, 0.000824699, 211.68, 77.9632, 0.00357029, 221.456, -71.4409, 0, 0.00106995, 0.00460747, 0.00309519, 289.233, -95.9678, 0, 0.00107038, 0.00214601, 0.00145477, 134.609, -44.5047, 0, 0.00106948, 20.5511, 43.4384, 223.914, 8.59927, 27.971, 96.9438, -0.00108291, -0.00065214, 0.0032923, -0.000524572, -0.000524572, -0.000524572
6405, 1,0.00390591, 0.000819382, 0.000559966, 240.97, 51.9454, 0.0423708, 480.934, -155.926, 0.656236, 0.00118063, 0.00471673, 0.00320335, 291.748, -97.3251, -4.33681E-19, 0.00117779, 0.00309963, 0.00210475, 190.855, -64.7358, -4.33681E-19, 0.00117717, 25.3007, 19.8442, 246.83, 13.9485, 22.3321, 157.927, -0.000896698, -0.00133214, 0.00380679, -0.000632915, -0.000632915, -0.000632915
6406, 1,0.00400054, 0.00101861, 0.000692558, 244.958, 64.3083, 0.030533, 478.241, -159.163, 0.443267, 0.00114581, 0.00501589, 0.00343778, 308.69, -100.572, 0, 0.00114375, 0.00298738, 0.00206145, 181.636, -59.4071, 0, 0.00114298, 31.8869, 31.7946, 238.035, 15.1436, 25.8702, 137.208, -0.000851769, -0.00110516, 0.00358801, -0.00056247, -0.00056247, -0.00056247
6407, 1,0.00403103, 0.00119516, 0.000802576, 250.459, 75.4052, 0.0180177, 474.727, -162.478, 0.207493, 0.00111002, 0.00522383, 0.00352109, 325.5, -107.39, 0, 0.00110865, 0.00284022, 0.00192065, 175.735, -58.1701, 0, 0.00110776, 36.9377, 38.1738, 247.057, 20.4329, 27.1896, 126.888, -0.000883103, -0.00102794, 0.00365315, -0.000457989, -0.000457989, -0.000457989
6408, 1,0.00389786, 0.00136409, 0.000909276, 243.995, 85.9471, 0.00519684, 322.274, -102.902, 0, 0.00107308, 0.00525754, 0.0035307, 329.514, -108.404, 0, 0.00107317, 0.00254296, 0.00172055, 158.939, -51.6426, 0, 0.00107219, 19.5779, 47.0944, 258.539, 7.17675, 30.296, 117.455, -0.00129234, -0.000785629, 0.00383701, -0.000659769, -0.000659769, -0.000659769
6409, 1,0.00440252, 0.000907945, 0.000618277, 265.31, 57.9232, 0.0576674, 500.009, -176.645, 0.908616, 0.00118576, 0.00530265, 0.00359579, 321.886, -105.001, 0, 0.0011809, 0.00350644, 0.00238203, 209.495, -68.5064, 0, 0.0011802, 23.0065, 18.5636, 273.433, 11.5073, 20.7067, 173.305, -0.00110759, -0.00156373, 0.00437372, -0.000786819, -0.000786819, -0.000786819
6410, 1,0.00440019, 0.00111908, 0.000759804, 267.706, 70.9027, 0.0390232, 488.854, -171.469, 0.598294, 0.00114932, 0.00551636, 0.00377902, 337.926, -108.773, 0, 0.00114655, 0.00328596, 0.0022712, 197.967, -63.2545, 0, 0.0011457, 31.7752, 32.3301, 262.214, 14.7339, 25.6526, 149.377, -0.000987198, -0.00128269, 0.00403405, -0.000635789, -0.000635789, -0.000635789
6411, 1,0.00430794, 0.00130609, 0.000878733, 266.765, 82.5354, 0.0222081, 474.392, -158.947, 0.287888, 0.0011127, 0.00561348, 0.00379898, 349.037, -114.446, 0, 0.00111135, 0.00300287, 0.00204319, 184.732, -60.4342, 0, 0.00111037, 30.8097, 40.2681, 272.26, 14.3361, 27.5131, 139.453, -0.00111697, -0.00113522, 0.00410887, -0.000615336, -0.000615336, -0.000615336
6412, 1,0.00427093, 0.00148418, 0.000988641, 270.703, 93.6388, 0.00799649, 386.888, -116.163, 0.0333794, 0.00107589, 0.00575188, 0.00384133, 363.951, -123.346, 0, 0.00107597, 0.0027934, 0.0018772, 177.871, -61.3528, 0, 0.00107489, 30.8673, 51.0401, 288.131, 18.1503, 32.6325, 133.276, -0.00128386, -0.00096871, 0.00425405, -0.000575078, -0.000575078, -0.000575078
6413, 1,0.00476919, 0.00100585, 0.000686287, 292.386, 64.1997, 0.0666659, 576.292, -196.067, 1, 0.00119029, 0.00576392, 0.00387626, 355.023, -119.046, 0, 0.00118403, 0.00378048, 0.00253784, 230.657, -78.4995, 0, 0.00118326, 26.0426, 27.0579, 304.037, 14.6364, 28.7682, 192.094, -0.00136304, -0.00166138, 0.00495539, -0.00096723, -0.00096723, -0.00096723
6414, 1,0.00473474, 0.00121612, 0.000826211, 287.063, 77.1155, 0.0457937, 488.475, -166.365, 0.715354, 0.00115223, 0.00594972, 0.00408898, 363.649, -116.469, 0, 0.00114924, 0.00352052, 0.00244344, 210.861, -66.8856, 0, 0.00114831, 31.3998, 34.2989, 283.707, 14.6589, 26.4761, 159.522, -0.00117385, -0.001409, 0.00447229, -0.000748872, -0.000748872, -0.000748872
6415, 1,0.00471911, 0.00142167, 0.000958859, 294.106, 89.833, 0.0286965, 481.28, -165.742, 0.410477, 0.00111572, 0.00613951, 0.00415122, 383.533, -127.975, 2.11758E-22, 0.00111415, 0.00329979, 0.0022367, 205.047, -69.4475, 2.11758E-22, 0.00111309, 29.102, 50.0674, 304.756, 13.1933, 36.4981, 158.651, -0.00136552, -0.00119757, 0.00463939, -0.000780593, -0.000780593, -0.000780593
6416, 1,0.00482067, 0.00160694, 0.00107084, 302.948, 101.578, 0.0152659, 399.805, -136.424, 0.180201, 0.00107906, 0.00642445, 0.00428615, 404.019, -134.286, 0, 0.00107876, 0.00322006, 0.0021537, 202.388, -67.0532, 0, 0.00107758, 24.8025, 56.7961, 321.26, 11.7217, 37.4207, 152.017, -0.00156623, -0.00108482, 0.00483007, -0.000782893, -0.000782893, -0.000782893
6417, 1,0.00506743, 0.00110272, 0.000749744, 313.393, 70.4313, 0.0713066, 697.692, -227.203, 1, 0.00119454, 0.00616164, 0.00420076, 382.561, -126.786, 2.71051E-20, 0.00118706, 0.00397786, 0.00272298, 244.977, -81.938, 2.71051E-20, 0.0011862, 20.2194, 30.3254, 329.813, 8.39274, 31.0435, 206.378, -0.00160215, -0.00171745, 0.00537615, -0.00114279, -0.00114279, -0.00114279
6418, 1,0.00508138, 0.00134185, 0.000914155, 302.933, 84.0198, 0.0531505, 484.03, -154.731, 0.836764, 0.00115493, 0.00642082, 0.00444462, 386.213, -118.547, 0.00146064, 0.00115172, 0.00374363, 0.00262337, 220.201, -64.6461, 0.000871393, 0.00115071, 20.0175, 34.3209, 301.304, 3.64361, 25.9332, 164.362, -0.00149151, -0.00150635, 0.00492269, -0.000977431, -0.000977431, -0.000977431
6419, 1,0.00521935, 0.00154751, 0.00104759, 314.676, 96.5358, 0.0372321, 475.969, -157.44, 0.56798, 0.00111845, 0.00676415, 0.00465099, 410.564, -128.642, 0.00131171, 0.00111661, 0.00367675, 0.00256414, 219.345, -66.2756, 0.000639687, 0.00111548, 14.8552, 45.3987, 325.672, 0.066754, 31.8878, 166.872, -0.00172242, -0.00138488, 0.00519611, -0.0010393, -0.0010393, -0.0010393
6420, 1,0.00531701, 0.00172342, 0.00115132, 328.888, 108.879, 0.0221667, 387.947, -126.608, 0.318688, 0.00108151, 0.00703789, 0.00476314, 437.25, -139.721, 0, 0.00108126, 0.00359853, 0.00246595, 221.029, -68.0595, 0, 0.00108001, 10.0098, 56.2586, 352.893, -2.35652, 36.1821, 170.353, -0.00195221, -0.00122737, 0.00544684, -0.00108454, -0.00108454, -0.00108454
6421, 1,0.00593675, 0.00122316, 0.000832081, 337.177, 77.1136, 0.0763332, 839.354, -276.205, 1, 0.00119957, 0.00715103, 0.00489032, 413.349, -138.312, 0.0103667, 0.00119015, 0.00472701, 0.00325024, 261.576, -88.8511, 0.0103667, 0.00118919, 27.1909, 26.7633, 360.982, 15.3772, 26.5727, 224.603, -0.00184256, -0.00217907, 0.00627826, -0.00131517, -0.00131517, -0.00131517
6422, 1,0.00603092, 0.00148567, 0.00101338, 322.002, 90.9532, 0.0622179, 498.198, -173.384, 0.978572, 0.00115924, 0.00751173, 0.00524841, 412.12, -132.026, 0.017711, 0.00115458, 0.0045532, 0.00323176, 232.546, -73.7572, 0.0166866, 0.00115347, 26.2138, 46.833, 323.031, 10.5774, 37.1586, 173.536, -0.00186553, -0.00171566, 0.00574445, -0.00126586, -0.00126586, -0.00126586
6423, 1,0.0063379, 0.00169197, 0.0011449, 329.293, 102.925, 0.0465371, 461.525, -155.373, 0.740955, 0.00112161, 0.00802484, 0.00561577, 431.533, -133.124, 0.0199917, 0.00111924, 0.0046545, 0.00333717, 227.654, -66.506, 0.0185144, 0.00111801, 10.4217, 47.343, 341.606, -3.44554, 32.1334, 170.83, -0.00224748, -0.00170712, 0.00613894, -0.00147102, -0.00147102, -0.00147102
6424, 1,0.00629039, 0.00188803, 0.00127177, 345.44, 114.152, 0.0281154, 378.891, -125.683, 0.438491, 0.0010842, 0.00816854, 0.00556604, 458.887, -150.669, 0.0168649, 0.00108395, 0.00442048, 0.00304896, 232.689, -76.5288, 0.0148017, 0.00108263, 9.26351, 64.7112, 378.033, 0.204536, 43.6257, 185.756, -0.00251055, -0.00147602, 0.00645481, -0.00150052, -0.00150052, -0.00150052
6425, 1,0.00686733, 0.0013661, 0.000932461, 346.639, 84.6902, 0.0805128, 952.54, -311.052, 1, 0.00120401, 0.00822139, 0.00569439, 430.455, -141.029, 0.0254862, 0.0011931, 0.00551905, 0.00386076, 263.391, -86.4695, 0.0254862, 0.00119203, 23.1113, 22.2085, 377.767, 11.1952, 21.395, 226.818, -0.00229036, -0.00262196, 0.00723281, -0.00168731, -0.00168731, -0.00168731
6426, 1,0.00732495, 0.00164266, 0.00112628, 329.466, 98.0051, 0.066607, 567.117, -183.244, 1, 0.00116266, 0.00895108, 0.00630849, 426.539, -133.548, 0.0418361, 0.00115743, 0.00570792, 0.00408322, 233.167, -71.7319, 0.0411466, 0.00115624, 24.4448, 43.2715, 332.928, 10.594, 33.1894, 171.412, -0.00236793, -0.00216144, 0.00674765, -0.00166492, -0.00166492, -0.00166492
6427, 1,0.00815854, 0.00185655, 0.00126459, 346.495, 109.889, 0.0524204, 446.78, -145.758, 0.845682, 0.00112434, 0.0100043, 0.00700947, 455.898, -147.961, 0.0543732, 0.00112209, 0.00631891, 0.00449807, 237.557, -79.0562, 0.0535001, 0.0011208, 19.8916, 56.5143, 367.479, 10.8949, 41.1981, 185.076, -0.00297714, -0.00224056, 0.00769354, -0.00206827, -0.00206827, -0.00206827
6428, 1,0.00846, 0.00217392, 0.00148467, 348.312, 115.612, 0.034676, 371.419, -122.534, 0.566217, 0.00108675, 0.0106124, 0.00738899, 463.321, -155.692, 0.065096, 0.00108644, 0.00632168, 0.00449131, 233.899, -79.4536, 0.0545573, 0.00108504, 11.3385, 64.4097, 391.327, 3.24101, 40.782, 194.338, -0.00365074, -0.00229445, 0.00856687, -0.00240842, -0.00240842, -0.00240842
6429, 1,0.00833385, 0.00153522, 0.00105929, 357.494, 92.2496, 0.0840839, 1053.08, -345.38, 1, 0.00120864, 0.00984649, 0.00688705, 448.965, -146.462, 0.0523781, 0.00119633, 0.00683099, 0.00482304, 266.572, -87.388, 0.0523781, 0.00119515, 22.5199, 18.1601, 398.704, 11.4388, 17.6562, 233.069, -0.00296291, -0.00330833, 0.0087184, -0.00226689, -0.00226689, -0.00226689
6430, 1,0.00942746, 0.00183172, 0.00126329, 342.237, 105.983, 0.0699996, 661.142, -213.763, 1, 0.00116687, 0.0112283, 0.00802383, 447.523, -141.997, 0.0816807, 0.00116055, 0.00764044, 0.00555193, 237.575, -76.1464, 0.0816805, 0.00115925, 29.3895, 45.0934, 351.509, 16.7469, 33.8016, 177.891, -0.00310747, -0.00284586, 0.00836689, -0.00229041, -0.00229041, -0.00229041
6431, 1,0.0104356, 0.00218246, 0.00150718, 347.585, 113.438, 0.0561303, 438.849, -142.146, 0.910098, 0.00112711, 0.0125993, 0.00892, 460.644, -151.242, 0.105386, 0.00112476, 0.0082813, 0.00593628, 234.898, -78.3053, 0.095687, 0.00112334, 19.5713, 55.8896, 378.264, 9.9674, 36.6294, 188.319, -0.00412129, -0.00306705, 0.00979565, -0.00296402, -0.00296402, -0.00296402
6432, 1,0.010925, 0.00257546, 0.00178967, 347.459, 116.415, 0.0390656, 366.429, -117.795, 0.649001, 0.00108962, 0.0134733, 0.00956636, 463.439, -154.055, 0.121129, 0.00108927, 0.00839261, 0.00611265, 231.908, -76.515, 0.0972817, 0.00108778, 9.63554, 49.6649, 402.864, 1.90223, 27.0525, 200.59, -0.00493193, -0.00361955, 0.0112326, -0.00332709, -0.00332709, -0.00332709
6433, 1,0.01195, 0.00178066, 0.00124729, 362.218, 100.061, 0.0868633, 1133.59, -375.265, 1, 0.00121174, 0.0136689, 0.00973958, 461.63, -155.613, 0.12664, 0.00119841, 0.0102515, 0.00737659, 263.315, -90.3283, 0.12664, 0.00119704, 29.2799, 22.1401, 415.42, 16.721, 19.6482, 234.616, -0.00447439, -0.00489576, 0.0120866, -0.00370989, -0.00370989, -0.00370989
6434, 1,0.0131862, 0.00217324, 0.00151905, 347.448, 112.145, 0.0734386, 759.763, -249.385, 1, 0.00116925, 0.0153098, 0.0109182, 459.163, -149.173, 0.16, 0.00116167, 0.0110798, 0.00809828, 236.136, -77.6309, 0.154367, 0.00116019, 38.5977, 37.5571, 371.365, 22.1994, 24.9292, 185.764, -0.00434589, -0.00460745, 0.0116107, -0.00333229, -0.00333229, -0.00333229
6435, 1,0.013918, 0.00271719, 0.00190336, 353.628, 115.503, 0.0597608, 437.283, -145.909, 0.97051, 0.0011283, 0.0165966, 0.0117984, 468.768, -162.31, 0.184453, 0.00112579, 0.0112571, 0.00819004, 238.851, -85.7879, 0.158349, 0.00112421, 33.5233, 54.5517, 398.856, 20.3868, 35.4636, 201.513, -0.00559524, -0.00479945, 0.0133305, -0.00408495, -0.00408495, -0.00408495
6436, 1,0.0142364, 0.00310139, 0.00218133, 349.411, 117.175, 0.0416985, 368.292, -120.157, 0.697405, 0.00109186, 0.0173019, 0.0125737, 466.216, -157.093, 0.196352, 0.0010915, 0.0111898, 0.00837868, 232.971, -77.9252, 0.15566, 0.00108989, 12.7129, 44.6118, 413.955, 4.54239, 23.4093, 205.824, -0.00663466, -0.00523674, 0.0147343, -0.0045634, -0.0045634, -0.0045634
6437, 1,0.0178457, 0.00208496, 0.00147105, 360.899, 107.852, 0.0885673, 1178.37, -391.53, 1, 0.00121357, 0.0198375, 0.0141237, 468.426, -165.808, 0.245369, 0.00119999, 0.0158771, 0.0115732, 253.671, -94.4385, 0.245369, 0.00119838, 40.1854, 22.8057, 434.434, 26.4081, 20.5394, 236.368, -0.00686394, -0.00801311, 0.017994, -0.00601652, -0.00601652, -0.00601652
6438, 1,0.0193086, 0.00277252, 0.00195152, 360.166, 115.2, 0.0762117, 844.657, -284.987, 1, 0.00117079, 0.0220384, 0.0160595, 475.199, -173.285, 0.29215, 0.0011625, 0.016592, 0.0124991, 245.299, -94.4586, 0.269516, 0.00116069, 72.5946, 38.7556, 408.506, 45.3766, 26.66, 211.339, -0.00593188, -0.00844035, 0.0177313, -0.0046582, -0.0046582, -0.0046582
6439, 1,0.0195984, 0.00350392, 0.00246283, 359.612, 117.86, 0.0626039, 472.556, -166.999, 1, 0.00112947, 0.0230392, 0.0167883, 477.155, -173.795, 0.309868, 0.0011264, 0.0161841, 0.0120811, 242.393, -90.9707, 0.260184, 0.00112451, 52.4709, 47.8052, 421.11, 29.3856, 29.7646, 213.762, -0.00764178, -0.00818783, 0.0192391, -0.00577932, -0.00577932, -0.00577932
6440, 1,0.0198817, 0.00377286, 0.00266113, 352.336, 118.04, 0.0450236, 371.493, -121.534, 0.756544, 0.00109374, 0.0235969, 0.0175011, 470.046, -161.739, 0.318614, 0.0010935, 0.0161916, 0.0123643, 234.947, -79.5229, 0.258917, 0.00109166, 21.3581, 37.8856, 425.974, 8.41085, 18.5485, 211.609, -0.00915198, -0.0081997, 0.0205438, -0.00662786, -0.00662786, -0.00662786
6441, 1,0.0229174, 0.0027328, 0.00190797, 361.862, 114.41, 0.0896823, 1198.38, -403.135, 1, 0.00121561, 0.0255366, 0.0185372, 476.021, -175.146, 0.344124, 0.00120197, 0.0203274, 0.0150743, 247.959, -97.1534, 0.328538, 0.00120007, 48.8936, 23.8693, 452.676, 31.7887, 21.5288, 238.143, -0.00916111, -0.0111809, 0.0238591, -0.00797053, -0.00797053, -0.00797053
6442, 1,0.0253564, 0.0036716, 0.00255624, 360.832, 118.231, 0.0781977, 901.162, -304.158, 1, 0.00117177, 0.0289794, 0.0218067, 478.925, -177.374, 0.42517, 0.00116314, 0.0217497, 0.0168924, 242.876, -91.0219, 0.37585, 0.00116092, 79.4106, 20.2873, 432.423, 42.407, 10.106, 220.553, -0.00779586, -0.0133622, 0.0249312, -0.00616824, -0.00616824, -0.00616824
6443, 1,0.0269941, 0.00434242, 0.00309141, 371.252, 120.239, 0.0645517, 534.393, -194.353, 1, 0.00113042, 0.0312599, 0.0232624, 491.261, -195.123, 0.467623, 0.0011272, 0.0227569, 0.0173098, 251.481, -104.637, 0.395762, 0.00112483, 85.6955, 52.6642, 447.009, 49.1075, 35.7437, 229.059, -0.00960308, -0.0130917, 0.0269789, -0.00760242, -0.00760242, -0.00760242
6444, 1,0.0273274, 0.00444718, 0.00314668, 360.78, 118.652, 0.0502311, 385.376, -133.808, 0.845305, 0.0010955, 0.0317061, 0.0237827, 479.213, -174.912, 0.47309, 0.00109523, 0.0229732, 0.017676, 242.563, -90.0684, 0.397931, 0.00109306, 43.4683, 40.2928, 440.975, 24.0831, 23.6367, 222.485, -0.0118131, -0.0123435, 0.0280131, -0.00899878, -0.00899878, -0.00899878
6445, 1,0.0242181, 0.00361671, 0.00250655, 356.173, 118.526, 0.0886476, 1172.93, -393.636, 1, 0.00121724, 0.0276957, 0.0203775, 474.287, -169.007, 0.386523, 0.00120397, 0.0207857, 0.0155952, 238.458, -82.5973, 0.340079, 0.00120176, 37.4644, 10.1828, 459.373, 13.7774, 2.2508, 231.764, -0.0103398, -0.0127033, 0.0265393, -0.00843431, -0.00843431, -0.00843431
6446, 1,0.0284524, 0.0044581, 0.00318704, 361.334, 121.225, 0.0791271, 926.227, -310.757, 1, 0.00117369, 0.0328107, 0.0250366, 482.279, -181.38, 0.497445, 0.00116512, 0.024129, 0.0188851, 240.66, -87.0992, 0.424208, 0.00116253, 81.8418, 14.0278, 448.269, 35.6297, 2.30538, 223.363, -0.009072, -0.0162662, 0.0294121, -0.00727525, -0.00727525, -0.00727525
6447, 1,0.0302885, 0.00486503, 0.00355133, 370.824, 121.434, 0.0670481, 600.715, -212.59, 1, 0.00113215, 0.0350439, 0.0263314, 491.967, -194.899, 0.537688, 0.00112843, 0.0255742, 0.019561, 249.979, -101.473, 0.452419, 0.00112582, 88.9763, 41.1129, 454.608, 46.0937, 27.7071, 230.618, -0.0104454, -0.0159791, 0.0309428, -0.0085159, -0.0085159, -0.0085159
6448, 1,0.0298255, 0.00474964, 0.00336502, 362.116, 119.009, 0.0532836, 395.155, -139.523, 0.892916, 0.00109832, 0.034539, 0.0258795, 481.017, -176.536, 0.525319, 0.00109781, 0.0251248, 0.0192505, 243.319, -90.5044, 0.440972, 0.00109551, 53.8583, 30.8059, 444.944, 29.0552, 17.4756, 224.982, -0.0119736, -0.0146499, 0.0306763, -0.00914225, -0.00914225, -0.00914225
6449, 1,0.0010945, -0.00062797, 0.000484204, -5.12349, -36.3502, 0.00389998, 46.9582, 185.042, 0, 0.00206948, 0.00129039, 0.00251004, -2.77731, 86.3821, 0, 0.0020728, 0.000932147, 0.00171539, -5.97657, 68.3935, 0, 0.0020734, -71.3944, -12.5193, -175.233, -54.4648, -30.5256, -120.19, -7.55578E-05, 0.00109486, -0.00241999, -1.41277E-06, -1.41277E-06, -1.41277E-06
6450, 1,0.00223922, -0.000728654, 0.000689301, 71.6413, -35.8067, 0.0072248, 162.084, 125.512, 0.0528252, 0.00195553, 0.00288781, 0.00367467, 100.9, 47.8026, 0, 0.00195812, 0.00159149, 0.00229981, 42.4254, 44.0567, 0, 0.00195824, -64.1887, 94.079, -173.298, -49.9254, 39.124, -121.369, -0.000522813, 0.00274833, -0.00299981, -0.000280677, -0.000280677, -0.000280677
6451, 1,0.00278622, 0.000743985, 0.000739523, 107.522, 35.4619, 0.00965621, 225.331, 79.8605, 0.0952273, 0.00191957, 0.00353014, 0.0040687, 142.981, 32.0512, 0, 0.0019212, 0.00204235, 0.00258998, 72.0668, 32.8586, 0, 0.00192117, -63.7856, 134.352, -166.719, -46.7593, 66.9908, -118.807, -0.000759666, 0.00335249, -0.00311141, -0.000387284, -0.000387284, -0.000387284
6452, 1,0.00211705, 0.000554317, 0.000477634, 90.569, 29.9532, 0.00614483, 248.263, 55.841, 0.000348821, 0.00192501, 0.00266938, 0.0028187, 120.429, 7.67129, 0, 0.00192651, 0.00156577, 0.00186839, 60.7614, 17.7626, 0, 0.0019262, -35.4452, 112.416, -99.9851, -30.0694, 56.5222, -79.7405, -0.000581797, 0.00250595, -0.00204756, -0.000309463, -0.000309463, -0.000309463
6453, 1,0.00095427, 0.000338362, 0.000269382, 61.2074, 25.547, 0.00329795, 181.926, -34.7947, 0, 0.00190271, 0.00120362, 0.000843072, 82.5445, -34.333, 0, 0.0019027, 0.000732815, 0.0006191, 41.219, -8.64858, 0, 0.00190191, 16.4998, 67.0864, 19.4128, 1.63194, 35.0881, -10.7743, -0.000208751, 0.00088453, -0.000118428, -0.000118703, -0.000118703, -0.000118703
6454, 1,0.00239129, 0.000920248, 0.000638518, 157.255, 58.7636, 0.00661708, 407.657, -127.309, 0, 0.00188101, 0.00331068, 0.00227818, 215.992, -79.2962, 0, 0.00187954, 0.00147301, 0.00100332, 98.5533, -38.2071, 0, 0.00187829, 64.5994, 22.2387, 151.05, 32.5235, 13.2575, 68.8405, 3.61212E-05, -0.000777459, 0.00202746, 5.22536E-06, 5.22536E-06, 5.22536E-06
6455, 1,0.00206417, 0.000544969, 0.000502372, 80.4286, 28.0084, 0.00695729, 222.016, 83.0143, 0.0250103, 0.00195147, 0.0025988, 0.00294865, 107.924, 20.1202, 0, 0.0019535, 0.00153571, 0.00196816, 53.2606, 26.1737, 0, 0.0019533, -31.932, 90.5675, -118.996, -28.6352, 44.1287, -94.0148, -0.000308716, 0.00224229, -0.002259, -0.000144032, -0.000144032, -0.000144032
6456, 1,0.00154947, 0.000548613, 0.0003752, 90.304, 35.6378, 0.00654807, 349.675, -54.1712, 0, 0.00187994, 0.00205078, 0.00151431, 123.753, -35.7729, 0, 0.00187938, 0.00108037, 0.000955146, 58.3593, -9.66966, 0, 0.00187858, 19.6999, 61.4072, 26.2116, 0.729238, 33.0485, -4.76872, -0.000169443, 0.000747535, 2.68267E-06, -0.000159589, -0.000159589, -0.000159589
6457, 1,0.0030306, 0.0010619, 0.000727535, 189.433, 67.2435, 0.0209884, 441.61, -115.796, 0.264819, 0.00183527, 0.00409136, 0.00282054, 256.522, -82.2487, 0, 0.00183367, 0.00197107, 0.00138039, 122.508, -36.3431, 0, 0.0018323, 71.186, 4.36994, 171.19, 35.5989, -2.33102, 75.7615, 9.26976E-05, -0.00119799, 0.00243927, 6.36816E-05, 6.36816E-05, 6.36816E-05
6458, 1,0.00184369, -0.000537464, 0.000522567, 53.6497, -25.0495, 0.0105465, 171.603, 128.189, 0.137019, 0.00204935, 0.00232332, 0.00300392, 76.6546, 44.5545, 0, 0.00205249, 0.00137824, 0.00203222, 31.3286, 45.433, 0, 0.00205246, -56.8151, 66.6579, -143.506, -54.437, 28.3452, -110.207, -0.000429518, 0.00212133, -0.00241368, -0.000365967, -0.000365967, -0.000365967
6459, 1,0.00241224, 0.000741927, 0.000551289, 129.038, 43.5541, 0.024909, 435.36, -117.768, 0.354853, 0.00180695, 0.00310789, 0.00259779, 170.446, -30.0375, 0, 0.00180353, 0.00174705, 0.00161859, 89.0347, -7.20293, 0, 0.00180286, 23.0191, 54.9744, 12.119, 3.8729, 34.9358, -17.1999, -1.81713E-05, 0.000703418, -0.00019745, -6.33771E-05, -6.33771E-05, -6.33771E-05
6460, 1,0.00436636, 0.00133109, 0.000907447, 265.847, 82.9288, 0.0584236, 541.364, -245.709, 0.92848, 0.00175061, 0.00569311, 0.00393108, 348.657, -101.808, 0, 0.00173905, 0.00304325, 0.00212971, 183.137, -47.8712, 0, 0.00173753, 73.3946, -7.05296, 239.083, 33.8531, -10.2636, 120.024, -0.000292037, -0.00174182, 0.00368515, -0.000277423, -0.000277423, -0.000277423
6461, 1,0.0092144, 0.00175557, 0.00120414, 335.405, 101.47, 0.0738909, 765.258, -242.162, 1, 0.00159007, 0.0109424, 0.00775564, 436.737, -137.751, 0.0792201, 0.00157969, 0.00749825, 0.00543493, 234.192, -73.3697, 0.0780317, 0.00157796, 72.8174, 1.26748, 339.169, 33.1375, 0.516477, 186.455, -0.00189268, -0.00388972, 0.00811956, -0.00181332, -0.00181332, -0.00181332
6462, 1,0.0168661, 0.00275403, 0.00191775, 360.751, 115.212, 0.0810866, 971.403, -312.307, 1, 0.00141344, 0.0195705, 0.0142633, 475.76, -174.515, 0.245843, 0.00140192, 0.01418, 0.0106428, 245.944, -96.409, 0.221756, 0.00139982, 120.681, 36.6726, 366.191, 72.1257, 29.4027, 187.699, -0.00307737, -0.00739999, 0.0137543, -0.002473, -0.002473, -0.002473
6463, 1,0.0226698, 0.00419609, 0.00292322, 358.814, 119.998, 0.0843662, 1086.31, -371.095, 1, 0.00125843, 0.0268385, 0.0199844, 478.697, -174.522, 0.386518, 0.00124589, 0.0185129, 0.0142018, 239.042, -85.2839, 0.312609, 0.00124349, 130.866, 24.1185, 368.581, 66.8907, 8.93676, 180.024, -0.00376797, -0.0115873, 0.0189537, -0.00287008, -0.00287008, -0.00287008
6464, 1,0.00376755, 0.000973787, 0.000750178, 195.228, 55.9829, 0.0387074, 400.22, -63.4091, 0.629903, 0.00159025, 0.00467738, 0.00426546, 248.646, -34.992, 0, 0.00158863, 0.00289419, 0.0029081, 143.158, -8.19449, 0, 0.00158794, 31.7038, 36.8769, 36.3954, 9.23107, 22.3967, -7.04435, 5.08115E-05, 0.00022651, 0.000290902, -1.95315E-06, -1.95315E-06, -1.95315E-06
6465, 1,0.00349397, 0.00117092, 0.000865591, 191.404, 68.0311, 0.0365821, 387.745, -62.1468, 0.602281, 0.0013464, 0.00464971, 0.00361944, 259.314, -50.7529, 0, 0.00134546, 0.00235347, 0.00191276, 123.607, -16.6201, 0, 0.00134472, 22.9991, 2.42656, 126.833, 1.22315, -9.29043, 57.9274, -0.000477427, -0.000744275, 0.00204532, -0.000399369, -0.000399369, -0.000399369
6466, 1,0.00581352, 0.00142425, 0.000988913, 323.891, 81.2398, 0.0207494, 350.957, -93.9846, 0.309899, 0.0011973, 0.00720615, 0.00508617, 404.571, -150.106, 0.0224497, 0.00119805, 0.00444041, 0.0031946, 243.617, -97.6917, 0.0185383, 0.00119702, 101.483, 58.9566, 289.878, 70.8395, 36.0187, 186.217, -0.000756262, -0.00145772, 0.00467779, -0.000533362, -0.000533362, -0.000533362
6467, 1,0.0023027, -0.000723446, 0.000594857, 61.4013, -40.7082, 0.0142458, 28.407, 242.443, 0.336714, 0.00166809, 0.00270354, 0.00387405, 73.5187, 73.6977, 2.31408E-08, 0.00167419, 0.00192695, 0.00283111, 50.6123, 56.0668, 2.31408E-08, 0.00167467, -51.4815, 58.3548, -227.966, -39.2723, 38.5044, -167.433, 0.000200083, 0.00240572, -0.0038003, 0.000179618, 0.000179618, 0.000179618
6468, 1,0.00229418, -0.000864932, 0.000642249, -7.35841, -51.9096, 0.0173254, 2.16446, 319.469, 0.362834, 0.00117546, 0.00251619, 0.00480199, -7.70664, 167.468, 0, 0.00117992, 0.00209024, 0.00384902, -6.28371, 137.628, 0, 0.00118049, -114.997, -21.0571, -366.348, -99.733, -23.496, -289.656, 0.000405701, 0.00221025, -0.00533195, 0.000257024, 0.000257024, 0.000257024
6469, 1,0.00406335, -0.00095872, 0.000676245, -17.1423, -59.9474, 0.0210658, -71.2168, 427.669, 0.468911, 0.00104651, 0.00436855, 0.00769869, -17.2594, 296.752, 0, 0.00105132, 0.00376504, 0.0065637, -16.7858, 257.173, 0, 0.00105199, -220.57, -93.8093, -575.876, -192.643, -95.0719, -483.805, 0.00033143, 0.00271547, -0.00786021, 0.000297121, 0.000297121, 0.000297121
6470, 1,0.0112682, -0.00282574, 0.0018778, -13.2535, -149.746, 0.0464174, -23.3973, 646.208, 1, 0.000843822, 0.0119939, 0.0195723, -22.7159, 284.174, 0.289784, 0.000859343, 0.010565, 0.0161501, -3.45249, 170.09, 0.289784, 0.000861243, -227.46, -74.3363, -550.726, -140.808, -43.7985, -325.665, 0.00202027, 0.00929701, -0.0168135, 0.00179499, 0.00179499, 0.00179499
6471, 1,0.00558193, -0.00190794, 0.00129787, -13.0315, -114.396, 0.0408276, -83.6147, 571.159, 1, 0.000927875, 0.00626388, 0.0112288, -13.1047, 266.783, 0.0912769, 0.000943228, 0.00490439, 0.00868525, -12.9299, 186.179, 0.0912769, 0.000944529, -156.47, -137.273, -506.606, -111.242, -105.986, -341.31, 0.00233006, 0.00251511, -0.00940533, 0.00197835, 0.00197835, 0.00197835
6472, 1,0.00235792, -0.00102791, 0.000724423, -0.705189, -65.5669, 0.0252287, -76.8463, 402.786, 0.652126, 0.00132616, 0.00277363, 0.00499042, 1.70185, 177.713, 0, 0.001336, 0.00194514, 0.0035636, -2.9023, 131.951, 0, 0.00133699, -102.107, -151.499, -279.533, -81.638, -120.88, -193.334, 0.000777965, -0.000429206, -0.00323172, 0.000488427, 0.000488427, 0.000488427
6473, 1,0.0014146, -0.000520096, 0.000403562, 1.02867, -33.835, 0.0058322, 147.4, 172.53, 0, 0.00154118, 0.00170114, 0.00262816, 5.22896, 102.18, 0, 0.00154294, 0.00112834, 0.00183945, -3.12567, 77.2744, 0, 0.00154356, -45.2396, -145.548, -115.753, -38.7958, -114.164, -78.8632, 0.000708679, -0.00147874, -0.000887743, 0.00045202, 0.00045202, 0.00045202
6474, 1,0.00115852, -0.000615956, 0.000448367, 2.22496, -40.2538, 0.00488992, 115.817, 155.67, 0, 0.00200315, 0.00143768, 0.00228654, 4.13043, 87.4413, 0, 0.00200537, 0.000880456, 0.00139767, 0.435646, 57.4399, 0, 0.00200635, -53.4847, -50.5051, -158.334, -39.4115, -37.993, -94.9152, 0.000311426, 0.000307629, -0.00203739, 0.000135823, 0.000135823, 0.000135823
6475, 1,0.00172988, -0.000706216, 0.00059163, 53.611, -38.026, 0.00429133, 126.177, 102.964, 0, 0.00189171, 0.00220664, 0.00294232, 71.4752, 44.0836, 0, 0.00189351, 0.00125331, 0.00176139, 35.7549, 31.536, 0, 0.0018939, -51.2958, 66.7296, -147.685, -37.3864, 33.1388, -90.3604, -0.000325695, 0.00211038, -0.002499, -0.000229677, -0.000229677, -0.000229677
6476, 1,0.00228122, -0.000710609, 0.000658497, 90.3934, -35.7243, 0.00620091, 225.195, 75.9921, 0.00629793, 0.00185655, 0.00288747, 0.00333877, 116.886, 26.3022, 4.23516E-22, 0.00185806, 0.00167508, 0.00202228, 63.9065, 20.501, 4.23516E-22, 0.00185823, -53.6094, 110.286, -135.584, -36.6907, 59.8418, -84.654, -0.000652618, 0.00275174, -0.00252475, -0.000386543, -0.000386543, -0.000386543
6477, 1,0.00168838, 0.000447916, 0.000427314, 76.0085, 22.4038, 0.00426891, 175.19, 35.7981, 0, 0.0018627, 0.00213537, 0.00223141, 98.3657, 3.45065, 0, 0.00186368, 0.00124218, 0.00137901, 53.6918, 6.76962, 0, 0.00186358, -28.0619, 91.5053, -73.7954, -20.8168, 49.3222, -48.8143, -0.000503019, 0.00199539, -0.00154758, -0.000297733, -0.000297733, -0.000297733
6478, 1,0.000750231, 0.000245015, 0.000196329, 56.631, 18.5891, 0.00214218, 116.135, -19.7367, 0, 0.00184076, 0.000982114, 0.000732312, 74.602, -37.4498, 0, 0.00184129, 0.000528044, 0.000373859, 39.1281, -18.6068, 0, 0.00184073, 19.679, 53.4407, 39.2296, 9.55312, 29.1682, 17.0993, -0.000190942, 0.000544434, 0.000254251, -0.000108243, -0.000108243, -0.000108243
6479, 1,0.00265795, 0.000798449, 0.000561152, 165.053, 50.3886, 0.00697511, 397.178, -90.5718, 0, 0.00181995, 0.00345596, 0.00241678, 215.433, -68.7615, 0, 0.00181931, 0.00186033, 0.00129582, 114.68, -34.7071, 0, 0.0018183, 49.7101, 6.30902, 150.265, 25.539, -0.408455, 78.9906, -0.000106927, -0.000950111, 0.00217215, -8.12568E-05, -8.12568E-05, -8.12568E-05
6480, 1,0.00142849, -0.00044601, 0.000416904, 57.2, -22.0022, 0.00404883, 129.255, 83.5305, 0, 0.00188745, 0.0018137, 0.00212716, 74.4618, 15.2392, 0, 0.00188954, 0.00104563, 0.00130077, 40.0615, 12.724, 0, 0.00188962, -22.3132, 62.0711, -85.4754, -16.9366, 32.7979, -54.0332, -0.000196033, 0.00156024, -0.00161077, -0.000122228, -0.000122228, -0.000122228
6481, 1,0.00106929, 0.000377631, 0.000267553, 66.0648, 24.4679, 0.00568934, 286.547, -23.4149, 0, 0.00181832, 0.00144059, 0.000996313, 90.2968, -29.2946, 0, 0.0018185, 0.000703775, 0.000494566, 42.0491, -11.4906, 0, 0.00181797, 14.2388, 37.8629, 35.782, 2.10757, 18.6277, 13.7367, -0.000186, 0.000346626, 0.000314785, -0.000162022, -0.000162022, -0.000162022
6482, 1,0.00303799, 0.000927783, 0.000645783, 196.611, 58.1509, 0.0237743, 451.548, -121.222, 0.316436, 0.00177714, 0.00396467, 0.00275854, 254.583, -87.2259, -2.71051E-20, 0.00177541, 0.00211235, 0.00148216, 138.794, -48.7172, -2.71051E-20, 0.0017743, 66.2297, 17.6114, 177.837, 41.2749, 12.8235, 92.0533, -8.07608E-05, -0.000995775, 0.00249123, -1.16995E-06, -1.16995E-06, -1.16995E-06
6483, 1,0.000946243, -0.000493824, 0.000378489, 19.2259, -27.4861, 0.00444061, 95.2365, 154.105, 0, 0.001981, 0.00120784, 0.00196233, 27.4438, 39.9454, 0, 0.00198467, 0.000685751, 0.00122477, 11.0327, 28.7531, 0, 0.00198503, -36.2579, 22.0442, -105.622, -31.2625, 9.02752, -64.0242, -8.61051E-05, 0.00110096, -0.00166244, -0.000157176, -0.000157176, -0.000157176
6484, 1,0.00154908, 0.000454318, 0.000351392, 79.3023, 25.7473, 0.0217359, 503.053, -208.55, 0.284022, 0.00175027, 0.00199775, 0.0015963, 104.796, -12.2265, 1.5954E-08, 0.00174359, 0.00110449, 0.000924127, 54.0009, -0.7075, 1.5954E-08, 0.00174327, 1.37046, 12.0154, 23.2936, -6.96363, 4.6848, 4.40133, -0.000213365, 6.64751E-05, 0.000345349, -0.000207753, -0.000207753, -0.000207753
6485, 1,0.00412509, 0.00118787, 0.000833527, 251.405, 72.3076, 0.0637344, 608.58, -314.416, 1, 0.00169973, 0.00531048, 0.003891, 323.265, -91.2483, 0, 0.00168271, 0.00294173, 0.0022299, 179.869, -47.6296, 0, 0.00168152, 50.0115, 3.76991, 219.963, 27.6113, 4.45975, 110.818, -0.000618367, -0.00135657, 0.0034549, -0.00040316, -0.00040316, -0.00040316
6486, 1,0.0100593, 0.00165183, 0.00118034, 320.886, 91.4338, 0.0804769, 953.159, -308.332, 1, 0.00154086, 0.0116763, 0.00843141, 411.851, -122.421, 0.101014, 0.00152672, 0.00845409, 0.00637629, 230.281, -66.5379, 0.100162, 0.00152525, 84.8453, -25.6936, 308.113, 54.5107, -21.8802, 166.983, -0.00122256, -0.00500451, 0.00833069, -0.000700518, -0.000700518, -0.000700518
6487, 1,0.0209799, 0.00262512, 0.00184023, 368.7, 113.326, 0.0910033, 1228.09, -388.763, 1, 0.00136675, 0.023535, 0.0181716, 481.832, -190.549, 0.321099, 0.00135246, 0.0184409, 0.0148807, 255.769, -114.393, 0.309635, 0.0013504, 170.482, 15.0674, 386.097, 113.448, 24.0981, 205.633, -0.00114776, -0.012292, 0.0172001, -0.000243238, -0.000243238, -0.000243238
6488, 1,0.0286093, 0.004396, 0.00310869, 376.222, 123.333, 0.097971, 1371.52, -466.266, 1, 0.00121385, 0.0328377, 0.0252942, 498.99, -211.245, 0.443696, 0.0011987, 0.0244332, 0.0194642, 254.018, -111.558, 0.374085, 0.00119598, 194.735, 45.8843, 393.116, 111.998, 29.5371, 193.139, -0.00172223, -0.0166106, 0.0228743, -0.000789872, -0.000789872, -0.000789872
6489, 1,0.00270719, 0.000607473, 0.000464284, 146.541, 33.4135, 0.0354434, 454.398, -125.104, 0.542213, 0.0015387, 0.0033123, 0.00245081, 179.785, -28.5214, 0, 0.00153494, 0.00210349, 0.00154169, 113.396, -15.8199, 0, 0.00153462, 3.24458, 4.0513, 78.2682, -2.59305, 6.17402, 43.8787, -0.000505313, -0.000376576, 0.00134461, -0.000427575, -0.000427575, -0.000427575
6490, 1,0.00401483, 0.000809347, 0.000595625, 248.3, 45.2954, 0.0374753, 435.404, -104.681, 0.590826, 0.00130245, 0.00481421, 0.00346909, 292.739, -84.4912, 0, 0.00130094, 0.00322067, 0.00229645, 204.295, -65.4485, 0, 0.00130053, 54.8452, -6.45505, 205.083, 54.2988, 1.37743, 140.669, -0.000424085, -0.00148761, 0.00328218, -0.000133464, -0.000133464, -0.000133464
6491, 1,0.0103882, 0.00119154, 0.000876991, 322.496, 65.5469, 0.0263826, 404.985, -71.9742, 0.383682, 0.00115589, 0.0115029, 0.00858662, 387.412, -160.864, 0.123742, 0.00115742, 0.00928999, 0.00717142, 257.935, -113.67, 0.123555, 0.00115646, 147.496, 34.1292, 300.967, 116.534, 26.5612, 197.914, -0.000111907, -0.00510162, 0.00801213, 0.00043137, 0.00043137, 0.00043137
6492, 1,0.00119557, -0.000644239, 0.000452213, -0.441433, -42.0463, 0.00454095, 10.3671, 273.667, 0.00103127, 0.00160979, 0.00144001, 0.00257464, -0.782569, 94.7652, 4.23516E-22, 0.00161447, 0.000962827, 0.00171517, 0.563685, 63.5252, 4.23516E-22, 0.00161529, -73.7769, -35.4349, -175.084, -57.2777, -25.7831, -107.515, 1.37832E-05, 0.000745382, -0.00229626, -0.00012995, -0.00012995, -0.00012995
6493, 1,0.00186598, -0.000797446, 0.000559671, -11.9755, -55.9494, 0.0117387, -20.0806, 423.699, 0.144915, 0.00114273, 0.00217684, 0.0037434, -15.8349, 163.847, 0, 0.00114825, 0.00155861, 0.0026639, -7.88092, 114.674, 0, 0.00114917, -138.947, -90.2254, -262.368, -109.435, -62.6127, -171.975, -0.000228152, 0.000677324, -0.0031068, -0.000379385, -0.000379385, -0.000379385
6494, 1,0.00312894, -0.000985497, 0.000678026, 23.5884, -66.5698, 0.0179962, -35.6912, 369.255, 0.397753, 0.00101644, 0.00349451, 0.00585469, 20.7982, 197.833, 0, 0.00102101, 0.00276456, 0.00450547, 26.4128, 144.022, 0, 0.0010219, -173.968, -32.6027, -386.929, -131.904, -15.3955, -284.766, -0.000333643, 0.0024401, -0.00531517, -0.000293084, -0.000293084, -0.000293084
6495, 1,0.0109645, -0.00302147, 0.00197907, -25.6629, -170.577, 0.0414443, -111.991, 639.053, 1, 0.000821955, 0.0117651, 0.0182219, -37.0629, 340.438, 0.235015, 0.000836137, 0.0101781, 0.0144734, -13.9857, 204.115, 0.235015, 0.000838268, -332.553, -100.745, -588.015, -215.619, -59.7555, -336.972, -0.00103429, 0.00887195, -0.0141904, -0.00124777, -0.00124777, -0.00124777
6496, 1,0.00559182, -0.0023219, 0.00155668, -39.917, -143.993, 0.0385231, -226.022, 667.244, 1, 0.000902965, 0.00618499, 0.0112594, -51.3159, 302.376, 0.094051, 0.000920582, 0.00500914, 0.00836899, -28.1423, 192.544, 0.094051, 0.000922315, -230.519, -185.873, -490.734, -156.669, -121.623, -299.34, 0.00090024, 0.00195259, -0.00803004, 0.000588054, 0.000588054, 0.000588054
6497, 1,0.00268551, -0.00139407, 0.000996518, 20.6542, -91.5056, 0.0166997, -160.079, 453.307, 0.484325, 0.00128418, 0.00328426, 0.00550009, 23.2446, 180.742, 0, 0.00129339, 0.00208691, 0.00351244, 18.0752, 111.804, 0, 0.00129484, -74.9151, -218.158, -249.154, -45.9869, -140.79, -148.635, 0.00139899, -0.00178942, -0.00254256, 0.00092356, 0.00092356, 0.00092356
6498, 1,0.00192368, -0.000828608, 0.000660059, 23.9245, -54.8935, 0.00918153, 185.154, 178.812, 0.0591153, 0.0014803, 0.00241445, 0.00335418, 31.2666, 113.105, 0, 0.00148202, 0.00143344, 0.00203592, 16.6681, 70.8064, 0, 0.00148304, -23.4783, -210.276, -105.562, -19.1881, -131.412, -61.8195, 0.00134847, -0.00267885, -0.000505384, 0.00077213, 0.00077213, 0.00077213
6499, 1,0.00119, -0.000677989, 0.00052579, 7.53522, -47.76, 0.00484914, 114.174, 155.357, 0, 0.00193819, 0.00156349, 0.00224142, 9.36726, 88.0915, 0, 0.0019403, 0.000816603, 0.00119033, 5.75653, 45.8011, 0, 0.00194164, -53.2056, -65.4758, -145.593, -30.2655, -32.1062, -75.0317, 0.000337751, 2.64391E-06, -0.00176948, 0.000156307, 0.000156307, 0.000156307
6500, 1,0.00157063, -0.000771201, 0.000587017, 52.6582, -44.3889, 0.00329664, 104.348, 69.2131, 0, 0.00182885, 0.00197246, 0.00266356, 63.6854, 39.6961, 0, 0.00182973, 0.00116933, 0.00149145, 41.6574, 18.3075, 0, 0.00183036, -44.3384, 58.1934, -132.943, -25.3088, 37.8039, -67.4176, -0.000249706, 0.00186147, -0.00225504, -0.000184574, -0.000184574, -0.000184574
6501, 1,0.00206785, -0.000774738, 0.000661581, 87.7197, -41.4763, 0.0044858, 186.869, 33.7836, 0, 0.00179481, 0.00261604, 0.00298459, 108.748, 20.0065, 0, 0.00179521, 0.0015198, 0.001662, 66.6988, 6.89871, 0, 0.0017956, -45.5284, 102.637, -117.129, -24.8874, 62.7539, -58.5626, -0.000587356, 0.0024907, -0.00222698, -0.000357578, -0.000357578, -0.000357578
6502, 1,0.00148988, -0.00047698, 0.000443145, 74.0805, -23.7805, 0.00318286, 147.987, 3.49905, 0, 0.00180078, 0.00189743, 0.00190154, 92.0825, -3.16941, 0, 0.00180097, 0.00108358, 0.00101979, 56.1441, -6.52003, 0, 0.00180107, -21.1923, 84.8056, -54.1051, -9.94699, 51.0642, -21.5571, -0.000468695, 0.0017494, -0.00122867, -0.000283775, -0.000283775, -0.000283775
6503, 1,0.00101314, 0.000196803, 0.000152908, 75.0501, 14.1388, 0.00356448, 201.064, -42.9792, 0, 0.00177968, 0.00118821, 0.000887952, 88.1368, -42.4193, 0, 0.00177967, 0.000846223, 0.000619676, 62.3433, -29.4111, 0, 0.00177929, 24.7162, 45.3273, 57.2143, 18.9814, 26.1699, 43.0819, -0.000170422, 0.00029409, 0.000564552, -8.66652E-05, -8.66652E-05, -8.66652E-05
6504, 1,0.0030976, 0.00071348, 0.000502312, 194.121, 44.846, 0.0102219, 422.719, -85.9653, 0.0528479, 0.00175945, 0.00381046, 0.00265338, 238.919, -77.7987, 0, 0.00175914, 0.00238509, 0.00164967, 149.351, -47.8398, 0, 0.00175829, 61.3122, 8.57144, 163.512, 39.508, 3.46073, 100.551, -1.55015E-05, -0.00104504, 0.00232214, -4.23832E-06, -4.23832E-06, -4.23832E-06
6505, 1,0.00120992, -0.000510611, 0.000422828, 52.4186, -27.9957, 0.00312181, 101.101, 62.7197, 0, 0.00182449, 0.00153978, 0.00178075, 64.1015, 11.8249, 0, 0.00182599, 0.000883728, 0.000945855, 40.9243, 1.41506, 0, 0.0018263, -18.7868, 49.0338, -65.7217, -7.8123, 30.322, -26.7549, -0.000183531, 0.00123136, -0.00123921, -0.000115573, -0.000115573, -0.000115573
6506, 1,0.00143289, 0.000317707, 0.000237141, 91.926, 19.3451, 0.00962456, 419.588, -84.0836, 0.0418, 0.00175914, 0.00174031, 0.00120604, 110.733, -37.6938, 0, 0.00175776, 0.00113156, 0.000800614, 73.4217, -26.0407, 0, 0.00175742, 23.558, 34.453, 55.0704, 16.776, 21.0824, 40.2636, -0.000138891, 0.0001412, 0.000609184, -9.8568E-05, -9.8568E-05, -9.8568E-05
6507, 1,0.00357024, 0.000863461, 0.00060301, 222.312, 53.7167, 0.0327436, 498.719, -192.597, 0.488747, 0.00172141, 0.00443329, 0.00312092, 275.922, -87.6647, 0, 0.00171647, 0.00270745, 0.00191561, 168.77, -52.8879, 0, 0.0017155, 70.4315, 6.36042, 186.202, 45.6783, 3.47894, 109.506, -3.29908E-05, -0.00124251, 0.00269713, -7.99784E-06, -7.99784E-06, -7.99784E-06
6508, 1,0.000849706, -0.000553378, 0.000409712, 21.0011, -33.8512, 0.00278926, 77.6741, 73.1927, 0, 0.0019164, 0.00109432, 0.00167136, 24.7431, 37.0177, 0, 0.00191753, 0.00062496, 0.000897644, 18.226, 16.2938, 0, 0.00191817, -31.4964, 4.81908, -84.3757, -18.2852, 5.3612, -35.9573, -4.0601E-05, 0.000691486, -0.00125122, -8.787E-05, -8.787E-05, -8.787E-05
6509, 1,0.00163961, 0.000371918, 0.000315682, 87.5604, 19.5827, 0.0269956, 525.35, -241.427, 0.386031, 0.00169256, 0.00199992, 0.00152753, 106.53, -15.763, 0, 0.00168456, 0.00128678, 0.000937166, 68.9563, -10.338, 0, 0.00168442, 7.35699, -1.35773, 41.2896, 3.97395, -2.69359, 29.7337, -0.000182286, -0.000276169, 0.000714006, -0.000167909, -0.000167909, -0.000167909
6510, 1,0.00452365, 0.0011607, 0.000809029, 277.245, 70.7119, 0.0676493, 684.441, -306.299, 1, 0.00164237, 0.00567881, 0.00402312, 347.378, -103.961, 0, 0.00162674, 0.0033724, 0.00241385, 207.497, -61.1389, 0, 0.00162561, 86.7769, -0.0439973, 225.151, 56.4162, 1.93044, 125.07, -0.000134784, -0.00164358, 0.00346437, -0.000100861, -0.000100861, -0.000100861
6511, 1,0.00986994, 0.00165053, 0.00114673, 322.551, 92.2691, 0.0828845, 1020.38, -332.659, 1, 0.00148927, 0.0114644, 0.00821235, 413.908, -123.479, 0.0964085, 0.00147431, 0.00829543, 0.00617265, 231.864, -64.4357, 0.0964085, 0.00147282, 138.538, -25.7972, 257.695, 86.7516, -23.7013, 130.257, 0.000587703, -0.00492187, 0.00644926, 0.000776431, 0.000776431, 0.000776431
6512, 1,0.0228684, 0.002442, 0.00167915, 371.757, 113.452, 0.0954117, 1310.44, -418.074, 1, 0.0013207, 0.0252593, 0.0191435, 485.007, -194.686, 0.329467, 0.00130563, 0.0204896, 0.0160281, 258.722, -115.888, 0.32397, 0.00130358, 219.818, 23.2457, 340.995, 138.025, 28.0186, 181.621, 0.00203863, -0.0129975, 0.0148221, 0.00241596, 0.00241596, 0.00241596
6513, 1,0.0336369, 0.00383626, 0.00267589, 385.518, 122.632, 0.107099, 1459.18, -506.939, 1, 0.00117344, 0.0373242, 0.0289178, 507.614, -228.723, 0.415696, 0.00115738, 0.0299842, 0.0238464, 264.004, -128.257, 0.366564, 0.00115482, 254.358, 55.0556, 376.754, 152.946, 41.7196, 190.107, 0.00196804, -0.0201953, 0.0230443, 0.00243474, 0.00243474, 0.00243474
6514, 1,0.00293432, 0.000469564, 0.000390061, 159.746, 24.0928, 0.0396642, 459.019, -131.706, 0.620918, 0.00148617, 0.00336338, 0.0025487, 181.729, -29.4744, 0, 0.00148202, 0.00252199, 0.00189017, 138.602, -24.2746, 0, 0.0014819, 24.933, -35.9934, 99.4837, 22.6536, -26.2603, 76.4304, -0.000135667, -0.00124224, 0.00185562, -0.000100614, -0.000100614, -0.000100614
6515, 1,0.00638207, 0.000600763, 0.000440738, 318.367, 31.9902, 0.0426565, 422.59, -75.8067, 0.677683, 0.00125689, 0.00696637, 0.00489715, 349.77, -107.402, 0.026493, 0.00125662, 0.00580145, 0.00409574, 287.124, -95.274, 0.026493, 0.00125637, 75.9169, -2.16288, 248.451, 71.8069, 11.069, 202.946, -0.000579237, -0.00233954, 0.00468644, -0.000461542, -0.000461542, -0.000461542
6516, 1,0.0113678, 0.000910823, 0.000642161, 434.817, 51.9056, 0.0350789, 418.847, -80.7609, 0.539899, 0.00111698, 0.0122348, 0.00857941, 485.998, -195.381, 0.104231, 0.00111865, 0.0105075, 0.00751535, 383.848, -159.224, 0.104231, 0.00111795, 177.703, 44.0211, 364.42, 155.401, 39.5349, 282.735, -8.00361E-05, -0.0047757, 0.00821617, 0.000237235, 0.000237235, 0.000237235
6517, 1,0.00113287, -0.000761589, 0.000559266, 7.6977, -52.3939, 0.00311588, 18.8942, 172.871, 0, 0.00155505, 0.00148614, 0.00234217, 7.7691, 85.4208, 0, 0.00155725, 0.0007844, 0.00125295, 8.03705, 41.2924, 0, 0.00155837, -67.2949, -43.2424, -145.725, -36.3931, -16.9394, -70.5445, 5.27981E-06, 0.000432559, -0.00182346, -3.64666E-05, -3.64666E-05, -3.64666E-05
6518, 1,0.00132413, -0.00103583, 0.000728239, -37.0169, -73.3743, 0.00755324, 46.7956, 348.968, 0.0274438, 0.00111016, 0.00174152, 0.00324485, -41.8571, 168.404, 0, 0.00111352, 0.000909186, 0.00179845, -32.0102, 102.708, 0, 0.00111471, -139.496, -115.848, -249.867, -92.3036, -72.0662, -143.753, -0.000154534, 0.000201941, -0.00277892, -0.000191712, -0.000191712, -0.000191712
6519, 1,0.00270937, -0.00137173, 0.000899198, 39.6602, -90.6222, 0.0133525, -56.8031, 356.41, 0.300623, 0.000984419, 0.00306944, 0.00516059, 30.5207, 153.751, 5.62477E-05, 0.000988813, 0.0023655, 0.00347608, 49.6977, 84.2627, 3.03961E-07, 0.000989929, -151.272, -42.71, -267.272, -98.0881, -16.2701, -138.43, -0.000539179, 0.00153976, -0.00349406, -0.000510708, -0.000510708, -0.000510708
6520, 1,0.00941754, -0.00339889, 0.00220928, -38.2396, -196.676, 0.041782, -77.2184, 563.866, 1, 0.000798366, 0.0103816, 0.016634, -50.7961, 347.8, 0.199655, 0.000809908, 0.00845565, 0.0123014, -25.6142, 191.465, 0.19866, 0.000812224, -364.874, -105.82, -572.706, -220.914, -57.6402, -295.84, -0.00189099, 0.00808786, -0.0125411, -0.00193653, -0.00193653, -0.00193653
6521, 1,0.00494919, -0.00273821, 0.00180488, -48.0228, -169.776, 0.0397221, -238.753, 643.837, 1, 0.000878621, 0.0056643, 0.0105505, -63.3241, 314.122, 0.0757216, 0.000894864, 0.00425072, 0.00715258, -32.0848, 182.2, 0.0745454, 0.000896868, -307.092, -216.807, -418.468, -196.543, -134.217, -215.84, -0.00110681, 0.00109275, -0.00530666, -0.00107646, -0.00107646, -0.00107646
6522, 1,0.00260247, -0.00172901, 0.00121751, 16.9294, -114.588, 0.0157516, -122.464, 420.793, 0.419803, 0.00124233, 0.00330428, 0.00553635, 16.9513, 189.429, 0, 0.00124961, 0.00190395, 0.00311106, 17.2239, 101.018, 0, 0.0012514, -127.962, -232.294, -208.03, -73.1458, -129.775, -100.134, 0.000448234, -0.0019494, -0.00157299, 0.000214425, 0.000214425, 0.000214425
6523, 1,0.00210079, -0.00112081, 0.000864001, 24.2976, -75.5551, 0.00975346, 146.014, 224.607, 0.0773651, 0.00142068, 0.00270791, 0.00382784, 30.3635, 132.242, 0, 0.00142305, 0.00149373, 0.00210075, 18.2458, 71.5375, 0, 0.00142445, -42.0449, -256.329, -98.3522, -22.6506, -141.213, -50.749, 0.00127751, -0.00335193, -7.22782E-05, 0.000731087, 0.000731087, 0.000731087
6524, 1,0.00101392, -0.000798361, 0.000606572, 1.26643, -58.3718, 0.00333294, 32.9401, 168.05, 0, 0.00187411, 0.00142371, 0.00225115, -0.0748184, 91.1447, 0, 0.00187645, 0.000619899, 0.00106128, 3.42659, 35.6291, 0, 0.00187815, -69.0372, -54.6905, -149.706, -30.8368, -8.91314, -67.1374, 6.435E-05, 0.000280843, -0.00182376, -2.34202E-06, -2.34202E-06, -2.34202E-06
6525, 1,0.00177904, -0.000900798, 0.000651919, 69.5668, -53.8789, 0.00402309, 164.714, 34.2715, 0, 0.00176658, 0.00217977, 0.00278652, 77.1718, 34.732, 0, 0.00176657, 0.00138001, 0.00148855, 62.0461, 4.30264, 0, 0.00176744, -45.5725, 69.0838, -127.707, -17.2996, 55.845, -51.4533, -0.000347222, 0.00201473, -0.00223025, -0.000228825, -0.000228825, -0.000228825
6526, 1,0.00215496, -0.000891269, 0.000722663, 99.2509, -49.7012, 0.00425946, 209.993, -11.6346, 0, 0.00173336, 0.00270852, 0.00296389, 117.816, 13.6978, 0, 0.00173264, 0.00160184, 0.00152001, 80.7085, -6.70881, 0, 0.00173322, -41.5175, 110.626, -110.202, -14.7531, 75.9202, -41.0407, -0.000603287, 0.00256035, -0.00217839, -0.000358866, -0.000358866, -0.000358866
6527, 1,0.00155595, -0.000587372, 0.000505874, 84.5365, -31.2827, 0.00335519, 198.903, -53.8737, 0, 0.00173911, 0.00197409, 0.00184232, 100.746, -9.95059, 0, 0.00173787, 0.00114495, 0.000850282, 68.6853, -19.4352, 0, 0.00173813, -16.0652, 90.3355, -44.4185, -0.00195834, 60.1715, -1.86389, -0.00047356, 0.00175947, -0.00112392, -0.000283268, -0.000283268, -0.000283268
6528, 1,0.00162526, 0.000197468, 0.000136831, 109.446, 12.5957, 0.00651442, 390.493, -110.333, 0, 0.0017194, 0.00172731, 0.00130567, 117.503, -47.8283, 0, 0.00171765, 0.00154121, 0.00114768, 102.233, -39.0517, 0, 0.00171741, 29.703, 42.5839, 71.198, 26.6505, 24.8587, 65.6461, -0.000164129, 0.000150404, 0.000789607, -9.02369E-05, -9.02369E-05, -9.02369E-05
6529, 1,0.00367136, 0.000638127, 0.000443069, 234.597, 40.4458, 0.0172604, 456.685, -134.411, 0.192467, 0.00169998, 0.00430805, 0.00297092, 275.016, -95.5767, 0, 0.00169846, 0.00303527, 0.00208949, 194.188, -67.8595, 0, 0.00169769, 75.8627, 17.3999, 193.467, 53.3555, 12.4475, 137.776, -9.54284E-06, -0.00113903, 0.00269849, -4.84794E-05, -4.84794E-05, -4.84794E-05
6530, 1,0.00151007, -0.000634857, 0.000494857, 74.6053, -36.3627, 0.00468778, 220.454, 1.80388, 0, 0.00176286, 0.00183657, 0.00190771, 83.6112, 4.42314, 0, 0.00176278, 0.00120993, 0.000999009, 66.8699, -12.6869, 0, 0.00176327, -15.7752, 55.5565, -53.0507, 1.5696, 40.9532, -4.46195, -0.000239582, 0.00125458, -0.00108635, -0.000142297, -0.000142297, -0.000142297
6531, 1,0.00215428, 0.000343627, 0.000282355, 134.956, 19.2868, 0.0175028, 478.968, -171.651, 0.199712, 0.00170096, 0.0024533, 0.00166136, 152.145, -48.9575, 0, 0.00169698, 0.00187471, 0.00128151, 118.678, -40.7474, 0, 0.00169676, 30.0377, 35.6697, 81.165, 25.2015, 23.2237, 73.8169, -0.000199045, -1.08028E-05, 0.00100394, -0.00017174, -0.00017174, -0.00017174
6532, 1,0.00441221, 0.000813548, 0.000557597, 280.585, 50.9587, 0.0421445, 503.437, -194.092, 0.657099, 0.00166272, 0.00522298, 0.00357571, 331.485, -114.144, 0, 0.00165753, 0.00360271, 0.00246806, 229.712, -80.4178, 0, 0.00165663, 94.7571, 17.4774, 230.196, 65.6634, 14.5412, 161.049, 2.95121E-05, -0.00142878, 0.00325031, -5.3949E-05, -5.3949E-05, -5.3949E-05
6533, 1,0.00145542, -0.000693732, 0.000491988, 55.206, -43.3658, 0.00496544, 229.1, 7.85515, 0, 0.00185153, 0.00160977, 0.00211345, 51.8067, 32.9448, 0, 0.00185077, 0.00134566, 0.00136906, 60.7127, 4.48144, 0, 0.00185163, -36.967, 17.2556, -79.1231, -14.3973, 21.8326, -20.8797, -0.000217432, 0.000893742, -0.00121053, -0.000188477, -0.000188477, -0.000188477
6534, 1,0.00281701, 0.000430888, 0.000401298, 166.221, 21.4934, 0.0350674, 503.06, -200.017, 0.533546, 0.00163215, 0.00319729, 0.00244907, 185.347, -47.239, 0, 0.00162587, 0.00245851, 0.00177769, 148.119, -44.1624, 0, 0.00162579, 44.4181, 13.0769, 84.2218, 41.4782, 10.4748, 80.5343, 7.96768E-05, -0.000471181, 0.00115763, 6.64313E-05, 6.64313E-05, 6.64313E-05
6535, 1,0.00576489, 0.00111919, 0.000757867, 347.01, 69.1987, 0.070397, 704.932, -262.641, 1, 0.00158209, 0.00687925, 0.00472496, 416.068, -124.902, 0, 0.00157008, 0.00465282, 0.00322081, 278.019, -80.8229, 0, 0.00156896, 120.446, -13.4655, 267.725, 78.864, -12.8087, 176.413, 0.000150133, -0.002256, 0.00413123, -3.39036E-05, -3.39036E-05, -3.39036E-05
6536, 1,0.0109351, 0.00156039, 0.00104891, 366.324, 90.0863, 0.0834371, 1029.67, -334.065, 1, 0.00143733, 0.0124812, 0.00884793, 456.095, -146.046, 0.103031, 0.00142338, 0.00939342, 0.00677775, 276.755, -87.4333, 0.103031, 0.00142194, 167.345, -9.67894, 280.473, 106.903, -7.80945, 163.207, 0.000798496, -0.00503829, 0.00675094, 0.00058616, 0.00058616, 0.00058616
6537, 1,0.0225046, 0.00209268, 0.00140203, 361.594, 107.791, 0.0952959, 1311.09, -422.452, 1, 0.00127791, 0.0245922, 0.0181084, 469.332, -167.228, 0.311963, 0.00126238, 0.020418, 0.0153638, 253.903, -93.4425, 0.311963, 0.00126055, 186.259, 12.1642, 303.262, 107.686, 10.7181, 161.923, 0.00119267, -0.0110636, 0.01315, 0.000951457, 0.000951457, 0.000951457
6538, 1,0.0338165, 0.00283967, 0.00193888, 379.458, 117.06, 0.109523, 1462.04, -500.53, 1, 0.00113782, 0.0365431, 0.0273279, 496.264, -209.649, 0.355612, 0.00112185, 0.0311087, 0.0237026, 262.923, -122.88, 0.33787, 0.00111985, 217.847, 62.1764, 348.923, 131.882, 51.7206, 185.039, -8.56408E-06, -0.0167838, 0.0210243, -9.78402E-05, -9.78402E-05, -9.78402E-05
6539, 1,0.00476322, 0.000470883, 0.000453526, 280.825, 22.8838, 0.0471533, 458.507, -129.627, 0.756531, 0.00143364, 0.005188, 0.00392252, 301.535, -78.0802, 0, 0.00143024, 0.00435118, 0.00312353, 260.719, -76.2984, 0, 0.0014302, 80.5227, 1.09733, 152.621, 76.3738, 9.24341, 143.278, 0.000234383, -0.00122832, 0.00226021, 0.000175956, 0.000175956, 0.000175956
6540, 1,0.00692288, 0.000343769, 0.000315275, 402.847, 17.4798, 0.050141, 422.017, -71.6261, 0.806878, 0.00121215, 0.00725934, 0.00523139, 419.794, -100.409, 0, 0.00121156, 0.00658734, 0.00462806, 385.96, -96.9414, 0, 0.00121149, 128.015, -24.7953, 198.007, 122.71, -10.2012, 178.315, 0.000742804, -0.00214765, 0.00303278, 0.00068771, 0.00068771, 0.00068771
6541, 1,0.0130198, 0.000589104, 0.000485194, 483.65, 21.177, 0.0425053, 452.879, -116.581, 0.665723, 0.00107901, 0.0131473, 0.0092905, 498.184, -221.141, 0.124259, 0.00107992, 0.0129185, 0.0090391, 469.693, -209.328, 0.128841, 0.00107971, 226.29, 109.19, 327.943, 218.073, 111.909, 298.002, 0.000970147, -0.00359224, 0.00647355, 0.00108269, 0.00108269, 0.00108269
6542, 1,0.00125511, -0.000920547, 0.000661127, 18.4975, -63.4446, 0.00173555, -2.4631, 112.707, 0, 0.00149849, 0.00130873, 0.00241326, 1.21107, 82.4676, 0, 0.00149923, 0.00128794, 0.00159576, 39.9887, 28.8351, 0, 0.00150053, -91.1679, -16.5648, -139.67, -45.4646, 14.072, -55.1127, -0.000529768, 0.00095425, -0.0017619, -0.000407785, -0.000407785, -0.000407785
6543, 1,0.00114868, -0.00127268, 0.000899551, -12.0257, -87.747, 0.00487018, 63.9409, 224.134, 0, 0.00107563, 0.00165471, 0.00306997, -15.288, 125.471, 0, 0.00107735, 0.000814788, 0.0014982, -1.50278, 51.2398, 0, 0.00107865, -128.967, -55.4719, -191.974, -66.5429, -10.7872, -76.3893, -0.000575088, 0.000801418, -0.00226114, -0.000424162, -0.000424162, -0.000424162
6544, 1,0.00171468, -0.00186962, 0.00125724, -19.8221, -121.422, 0.00835309, -17.4617, 286.368, 0.141763, 0.000951552, 0.00233068, 0.00444927, -23.7849, 176.464, 0, 0.000953631, 0.00110705, 0.00198037, -15.3486, 87.6169, 0, 0.000955007, -159.024, -80.1706, -290.197, -85.3055, -45.3738, -132.171, -0.000265131, 0.00109093, -0.00368743, -0.000108024, -0.000108024, -0.000108024
6545, 1,0.00811133, -0.0039632, 0.00264584, -45.7784, -197.699, 0.0384772, -63.8385, 455.323, 1, 0.000772573, 0.00935428, 0.016212, -58.246, 324.693, 0.202104, 0.000780946, 0.00688832, 0.0110619, -32.9793, 173.887, 0.1805, 0.000783136, -327.016, -96.1223, -550.939, -187.125, -47.0948, -287.44, -0.000807007, 0.00774249, -0.0128672, -0.000524067, -0.000524067, -0.000524067
6546, 1,0.00475366, -0.00298825, 0.00200393, 4.77231, -183.036, 0.0360178, -141.877, 485.254, 0.959588, 0.000854786, 0.00576799, 0.0100697, -0.244385, 260.794, 0.0579665, 0.000865609, 0.00374092, 0.00607487, 9.9642, 126.137, 0.0551104, 0.000867569, -263.57, -140.91, -377.904, -138.13, -63.0534, -177.227, -0.000820997, 0.00182381, -0.00537439, -0.000383285, -0.000383285, -0.000383285
6547, 1,0.0023593, -0.00188451, 0.00133308, 6.56081, -124.85, 0.0158562, -56.2665, 365.569, 0.371349, 0.00120036, 0.00313523, 0.00524344, 7.30158, 189.257, 0, 0.00120567, 0.00158821, 0.00258815, 6.15076, 93.0186, 0, 0.00120755, -154.691, -199.989, -213.089, -80.1874, -93.2853, -105.583, -7.54639E-05, -0.00126916, -0.00172659, -1.56509E-05, -1.56509E-05, -1.56509E-05
6548, 1,0.00191727, -0.0012477, 0.000954956, 16.4466, -86.2258, 0.00627572, 93.2993, 273.732, 0, 0.00136208, 0.00257831, 0.00366043, 20.4427, 136.588, 0, 0.00136511, 0.00125744, 0.00175246, 12.4695, 63.3286, 0, 0.00136673, -67.0532, -246.013, -96.6971, -30.6424, -114.333, -45.0103, 0.00082856, -0.00306425, 1.84077E-05, 0.000444709, 0.000444709, 0.000444709
6549, 1,0.00407389, 0.00133443, 0.00090543, 251.22, 83.4124, 0.0231469, 402.362, -115.083, 0.326247, 0.00174528, 0.0054058, 0.00373196, 334.575, -106.514, 0, 0.00174431, 0.00274453, 0.00194675, 167.92, -51.7323, 0, 0.00174276, 94.121, 32.9065, 192.514, 45.4471, 15.9817, 93.7681, 0.000176027, -0.00100573, 0.00255699, 1.01166E-05, 1.01166E-05, 1.01166E-05
6550, 1,0.00308037, 0.00106934, 0.00073265, 192.904, 67.6526, 0.00612786, 373.184, -111.25, 0, 0.00183916, 0.00414611, 0.00282953, 260.458, -86.6021, 0, 0.00183843, 0.00201842, 0.00137422, 125.451, -40.5468, 0, 0.00183705, 67.4199, 28.401, 163.985, 29.2179, 13.2427, 79.1798, -2.66365E-05, -0.00077254, 0.00220362, -0.000108793, -0.000108793, -0.000108793
6551, 1,0.00244909, 0.00092306, 0.000640557, 157.045, 58.9426, 0.00561661, 367.385, -136.433, 0, 0.00188246, 0.00337026, 0.00235689, 215.947, -75.8192, 0, 0.00188061, 0.00153022, 0.00108126, 98.194, -34.6038, 0, 0.00187936, 57.631, 25.4974, 144.329, 24.6727, 13.5879, 65.5509, -5.40292E-05, -0.0006585, 0.00194217, -0.000101598, -0.000101598, -0.000101598
6552, 1,0.00227342, 0.000720272, 0.000531807, 116.07, 42.6714, 0.00631157, 320.708, -29.2434, 0, 0.00180862, 0.00297158, 0.00247941, 157.648, -23.1841, 0, 0.00180845, 0.00159074, 0.00148047, 75.2594, 0.0251605, 0, 0.00180776, -19.062, 80.2239, 8.39036, -21.7381, 40.6953, -19.0327, -0.000765389, 0.00131644, -0.000174702, -0.000456147, -0.000456147, -0.000456147
6553, 1,0.00163695, 0.000531677, 0.000368046, 95.4115, 34.861, 0.00293082, 158.222, -26.2737, 0, 0.00186773, 0.00213006, 0.00158718, 128.463, -37.4407, 0, 0.00186807, 0.0011679, 0.00102788, 63.4775, -11.2742, 0, 0.00186727, -1.05402, 88.1273, 25.2488, -9.267, 47.6395, -4.54998, -0.000617038, 0.00126719, -4.24309E-05, -0.000378486, -0.000378486, -0.000378486
6554, 1,0.000979208, 0.000321273, 0.000261481, 61.661, 24.7376, 0.0024459, 147.17, -42.349, 0, 0.00189534, 0.00122993, 0.000873776, 83.0636, -33.5825, 0, 0.00189507, 0.000747822, 0.000629186, 41.1701, -7.90438, 0, 0.00189428, 4.9972, 74.7654, 20.9849, -6.19906, 38.5873, -8.67509, -0.000434404, 0.00105205, -7.25148E-05, -0.000266733, -0.000266733, -0.000266733
6555, 1,0.00189999, -0.000517955, 0.000499958, 66.0766, -24.3291, 0.00594787, 225.3, 58.0885, 0.00734364, 0.00204732, 0.00237144, 0.00293314, 88.4881, 31.654, 0, 0.0020482, 0.00143468, 0.00196045, 43.9496, 32.0177, 0, 0.00204819, -69.3455, 86.2137, -111.83, -50.6139, 41.9397, -87.379, -0.000895962, 0.00232315, -0.0019399, -0.000494226, -0.000494226, -0.000494226
6556, 1,0.00201084, 0.000527502, 0.000485767, 80.6568, 27.1036, 0.00564845, 227.924, 52.4333, 0, 0.00195595, 0.00253506, 0.00284766, 107.599, 16.3683, 0, 0.0019571, 0.00148835, 0.00188614, 53.7984, 22.2069, 0, 0.00195691, -54.4235, 105.917, -100.599, -39.8792, 53.0346, -79.7761, -0.000834968, 0.00249811, -0.00192776, -0.000435561, -0.000435561, -0.000435561
6557, 1,0.00213243, 0.000546431, 0.000469946, 91.9659, 29.572, 0.00554325, 215.429, 62.5415, 0, 0.00192701, 0.00267864, 0.00281392, 121.525, 6.77176, 0, 0.00192875, 0.0015864, 0.00187514, 62.4169, 16.8395, 0, 0.00192844, -43.4959, 119.366, -96.1851, -34.2474, 60.9466, -77.2178, -0.000762443, 0.00263482, -0.00198122, -0.0004085, -0.0004085, -0.0004085
6558, 1,0.00279381, 0.000740669, 0.00073724, 108.409, 35.2949, 0.00927401, 244.482, 62.3006, 0.0799683, 0.00192033, 0.00353447, 0.00405484, 143.704, 31.347, 0, 0.00192139, 0.00205314, 0.00258109, 73.1151, 32.1269, 0, 0.00192136, -69.537, 137.114, -161.618, -49.8763, 69.2506, -115.755, -0.000891632, 0.0033988, -0.00301434, -0.000463889, -0.000463889, -0.000463889
6559, 1,0.00233748, -0.000723523, 0.000682333, 79.3363, -35.8869, 0.00713632, 222.243, 77.315, 0.0323311, 0.00195825, 0.00297845, 0.00370551, 107.915, 44.1249, 0, 0.00195935, 0.00169661, 0.00234272, 50.7624, 39.5221, 0, 0.0019595, -76.9703, 102.999, -158.404, -53.5049, 47.7727, -112.834, -0.000846753, 0.00287764, -0.00274554, -0.000423231, -0.000423231, -0.000423231
6560, 1,0.00109417, -0.000621964, 0.000476031, -0.751887, -36.3989, 0.00319428, 48.2561, 137.911, 0, 0.00206711, 0.00133587, 0.00255443, 3.67626, 79.9221, 0, 0.00206906, 0.000929199, 0.00173534, -1.57839, 61.0533, 0, 0.00206969, -80.618, -12.9767, -146.171, -54.3444, -26.5652, -102.25, -0.000368157, 0.000990977, -0.0019188, -0.000109823, -0.000109823, -0.000109823
6561, 1,0.00160322, -0.000530934, 0.000414336, 19.3899, -34.6213, 0.00362933, 65.2152, 142.899, 0, 0.00152987, 0.0018995, 0.00266745, 23.8839, 88.4335, 0, 0.00153122, 0.00130765, 0.00184793, 14.9077, 62.8007, 0, 0.00153186, -29.8593, -164.306, -71.1349, -19.3467, -119.592, -49.4637, 0.000816372, -0.00207316, -0.000178296, 0.000634834, 0.000634834, 0.000634834
6562, 1,0.00230038, -0.0010181, 0.000720507, 6.5654, -65.1315, 0.0147148, 60.6399, 214.255, 0.331209, 0.00133215, 0.00271798, 0.00465894, 9.35972, 159.409, 0, 0.00133439, 0.00188533, 0.00323436, 3.82534, 113.603, 0, 0.00133538, -99.4675, -207.011, -171.748, -65.7015, -153.376, -121.732, 0.000537358, -0.00183961, -0.0012839, 0.000529647, 0.000529647, 0.000529647
6563, 1,0.00481841, -0.00180056, 0.00123033, 24.4787, -111.85, 0.0320564, -164.563, 466.016, 0.984387, 0.00092494, 0.00546838, 0.00942507, 25.4084, 229.204, 0.0457519, 0.000937009, 0.00417229, 0.00699295, 23.5972, 150.763, 0.0457519, 0.000938233, -187.615, -199.047, -300.951, -114.589, -137.092, -200.607, 0.000209921, -0.000358317, -0.00366677, 0.000576066, 0.000576066, 0.000576066
6564, 1,0.00984112, -0.00265156, 0.00176049, -35.8028, -147.717, 0.040664, -14.1267, 475.051, 1, 0.00083578, 0.0105556, 0.0181203, -47.0296, 304.801, 0.254041, 0.000845599, 0.00914697, 0.0148245, -24.1778, 190.862, 0.254041, 0.000847423, -308.017, -172.562, -433.825, -190.12, -113.424, -269.04, -0.00146612, 0.00472137, -0.00901566, -0.000554908, -0.000554908, -0.000554908
6565, 1,0.00236933, -0.000796048, 0.000548942, -43.6664, -51.9463, 0.0162905, -29.6948, 355.476, 0.352434, 0.00104631, 0.00264321, 0.00543548, -45.2651, 226.585, 0, 0.00104999, 0.00210195, 0.00442303, -41.751, 188.074, 0, 0.00105064, -251.163, -73.4787, -355.114, -198.728, -70.6194, -294.875, -0.00153298, 0.00206395, -0.00420664, -0.00103244, -0.00103244, -0.00103244
6566, 1,0.00942233, 0.00155332, 0.00107523, 333.712, 89.6685, 0.0214777, 249.028, -68.4464, 0.372162, 0.00120203, 0.0109463, 0.00812938, 423.071, -153.511, 0.0892973, 0.00120349, 0.00790832, 0.00608734, 244.587, -93.3636, 0.0885767, 0.00120226, 157.437, 76.8892, 226.206, 103.875, 39.86, 136.356, 0.000871298, -0.00210368, 0.00385297, 0.000899639, 0.000899639, 0.000899639
6567, 1,0.0264702, 0.00433314, 0.00302906, 367.154, 119.864, 0.0725797, 748.7, -259.235, 1, 0.00126504, 0.0307312, 0.0225601, 486.807, -186.957, 0.454333, 0.00125816, 0.0222351, 0.0166781, 247.71, -98.0763, 0.382017, 0.0012556, 193.048, 81.7501, 286.073, 97.4691, 49.8772, 146.883, 0.00122544, -0.00916545, 0.0120001, -0.000126203, -0.000126203, -0.000126203
6568, 1,0.00184575, -0.000804383, 0.000593051, -0.787126, -48.7114, 0.0146867, -38.5085, 332.973, 0.347859, 0.00116559, 0.00206529, 0.00402247, -1.62671, 134.595, 0, 0.00117087, 0.00164139, 0.00314922, 0.835221, 105.791, 0, 0.00117142, -175.304, -14.9851, -213.495, -127.855, -25.5256, -163.993, -0.0013884, 0.00181597, -0.00261052, -0.000839076, -0.000839076, -0.000839076
6569, 1,0.00479412, 0.00125627, 0.000930222, 267.351, 72.461, 0.0268881, 324.208, -80.5058, 0.452565, 0.00134877, 0.00602473, 0.00479239, 338.042, -76.452, 0.00183434, 0.00134808, 0.00357974, 0.00299774, 197.791, -38.85, 0.00114809, 0.00134726, 53.476, 100.975, 74.905, 32.052, 65.0325, 19.4654, -0.000163992, 0.000836067, 0.000569214, -1.78202E-05, -1.78202E-05, -1.78202E-05
6570, 1,0.0178217, 0.0027612, 0.00191116, 357.975, 114.623, 0.0691541, 629.581, -194.943, 1, 0.00140798, 0.0205633, 0.0150032, 472.507, -168.734, 0.260119, 0.00140242, 0.0150865, 0.0113137, 243.535, -92.1738, 0.235599, 0.00140034, 180.081, 62.1423, 263.98, 95.5818, 42.3624, 138.577, 0.00124438, -0.00591005, 0.00786617, 0.00035608, 0.00035608, 0.00035608
6571, 1,0.00178226, -0.000689457, 0.00055903, 30.1567, -39.1561, 0.009356, 19.3609, 243.582, 0.181281, 0.00166459, 0.00217842, 0.00340399, 42.2855, 81.5114, 0, 0.00166972, 0.0014012, 0.0023677, 18.7336, 63.792, 0, 0.0016702, -118.698, 39.6434, -165.48, -81.7104, 14.6067, -124.272, -0.00109955, 0.00212527, -0.00234733, -0.000596532, -0.000596532, -0.000596532
6572, 1,0.00328043, 0.000942126, 0.000723973, 175.043, 54.2591, 0.019664, 342.363, -51.0705, 0.278502, 0.00160387, 0.00416629, 0.00352148, 226.434, -39.8866, 0, 0.00160333, 0.0024299, 0.0022233, 125.446, -13.6944, 0, 0.00160265, -10.7673, 107.864, 22.5633, -17.3811, 72.7845, -14.3201, -0.000866943, 0.00161051, -9.64509E-05, -0.000593681, -0.000593681, -0.000593681
6573, 1,0.00852991, 0.0017529, 0.0011917, 328.368, 101.785, 0.0590488, 478.687, -223.558, 0.971517, 0.00159105, 0.0102813, 0.00731953, 430.109, -125.458, 0.0622794, 0.00158183, 0.00677927, 0.00494358, 226.665, -61.6734, 0.0607128, 0.00158013, 132.267, 18.2788, 225.828, 66.9706, 5.09759, 112.952, 0.000611535, -0.00272255, 0.00421877, 0.00024834, 0.00024834, 0.00024834
6574, 1,0.00403633, 0.00118811, 0.000823455, 250.348, 73.1923, 0.0275253, 477.796, -170.128, 0.394588, 0.00169367, 0.005216, 0.00371886, 323.376, -103.467, 0, 0.00169052, 0.0028632, 0.00210495, 177.452, -57.5699, 0, 0.00168926, 80.4805, 36.031, 193.889, 36.7079, 25.9338, 110.068, -7.95147E-05, -0.000883362, 0.0026407, -0.000281722, -0.000281722, -0.000281722
6575, 1,0.00313482, 0.000928575, 0.000645303, 188.581, 58.2276, 0.00737538, 415.329, -87.9918, 0, 0.00178058, 0.00406241, 0.00283372, 246.793, -73.0337, 0, 0.00178015, 0.00220802, 0.00154564, 130.382, -34.429, 0, 0.00177903, 63.3046, 6.75506, 149.042, 30.4263, -4.14051, 77.0012, 9.81222E-05, -0.00101469, 0.00210079, 1.12482E-05, 1.12482E-05, 1.12482E-05
6576, 1,0.00267021, 0.00079858, 0.000560956, 172.092, 50.4041, 0.00598058, 373.874, -121.584, 0, 0.00182185, 0.00346846, 0.00241151, 222.495, -77.8397, 0, 0.00182056, 0.00187223, 0.00129534, 121.689, -43.76, 0, 0.00181955, 62.2339, 22.9064, 148.379, 35.9975, 14.128, 81.1545, 1.49073E-05, -0.000744923, 0.00199239, -2.78003E-06, -2.78003E-06, -2.78003E-06
6577, 1,0.00143313, 0.000458532, 0.00035772, 74.2198, 26.6061, 0.00530603, 275.435, -32.6409, 0, 0.00175047, 0.00189084, 0.00152434, 100.753, -15.3436, 0, 0.00174998, 0.000976115, 0.000811064, 47.7492, -2.06292, 0, 0.0017496, -10.8756, 37.9393, 18.967, -10.8372, 15.7101, 1.31585, -0.000485471, 0.000550573, 0.000183834, -0.000275216, -0.000275216, -0.000275216
6578, 1,0.00125248, 0.000375433, 0.000269624, 80.0843, 24.5104, 0.00195173, 116.663, -32.2736, 0, 0.00180725, 0.00162276, 0.0011317, 104.37, -37.2233, 0, 0.0018074, 0.000886298, 0.00063685, 55.9727, -19.0275, 0, 0.00180687, 9.44822, 64.7148, 37.507, 4.76654, 36.4183, 15.8976, -0.000397374, 0.000777609, 0.000223776, -0.000209629, -0.000209629, -0.000209629
6579, 1,0.000688221, 0.000235878, 0.000193076, 51.6083, 18.1873, 0.00121769, 80.229, -30.2504, 0, 0.00183249, 0.000912827, 0.000715692, 69.2967, -35.2242, 0, 0.00183264, 0.000472671, 0.000350405, 34.3253, -16.3009, 0, 0.00183207, 11.2234, 56.9792, 37.47, 3.97345, 29.4443, 15.4851, -0.000330512, 0.000649805, 0.000252313, -0.000185689, -0.000185689, -0.000185689
6580, 1,0.00101027, -0.000488706, 0.000373299, 27.2028, -27.1783, 0.00304607, 91.7616, 70.3444, 0, 0.00197685, 0.00126213, 0.00197567, 34.9998, 32.982, 0, 0.00197804, 0.00076555, 0.00124421, 19.7351, 21.9766, 0, 0.0019784, -52.2568, 33.0356, -79.7248, -30.0814, 17.01, -52.8586, -0.000522928, 0.001221, -0.00123266, -0.00022734, -0.00022734, -0.00022734
6581, 1,0.00142111, -0.000436851, 0.000410906, 55.721, -21.4359, 0.0035141, 141.704, 32.7905, 0, 0.00188926, 0.00180565, 0.00211337, 73.09, 16.4009, 0, 0.00188976, 0.00103689, 0.00129455, 38.3685, 14.2484, 0, 0.00188983, -48.0511, 72.7434, -73.8948, -30.3161, 38.1805, -50.6095, -0.000709387, 0.00179746, -0.0013535, -0.000368259, -0.000368259, -0.000368259
6582, 1,0.00167903, 0.000444618, 0.000422851, 76.8539, 22.2859, 0.00395579, 164.221, 30.5591, 0, 0.00186273, 0.00212269, 0.00219999, 99.093, 1.61583, 0, 0.00186361, 0.00123619, 0.0013558, 54.6541, 5.03602, 0, 0.0018635, -35.0734, 97.6143, -67.3883, -23.3327, 53.3636, -45.139, -0.000675422, 0.00209283, -0.00144284, -0.000373376, -0.000373376, -0.000373376
6583, 1,0.00228241, -0.00070859, 0.00065758, 91.3763, -35.6392, 0.0062166, 244.514, 54.8487, 0.00463944, 0.00185641, 0.00288893, 0.00332971, 117.871, 25.0674, 1.69407E-21, 0.00185731, 0.00167594, 0.00201476, 64.8834, 19.2394, 1.69407E-21, 0.00185749, -60.1408, 112.496, -127.557, -38.6508, 61.5795, -80.6468, -0.000806221, 0.00277834, -0.0023777, -0.000443767, -0.000443767, -0.000443767
6584, 1,0.00176833, -0.000699304, 0.000589233, 58.2852, -37.6289, 0.00466581, 171.608, 65.705, 0, 0.00189189, 0.00224747, 0.00297117, 76.3308, 40.1436, 0, 0.00189267, 0.00128922, 0.00179342, 40.2409, 27.789, 0, 0.00189305, -70.5862, 72.8507, -122.695, -43.9225, 38.1112, -77.5557, -0.000783612, 0.00217687, -0.00204363, -0.000414429, -0.000414429, -0.000414429
6585, 1,0.0013128, -0.000612852, 0.000442311, 11.2681, -39.8663, 0.00318072, 59.5908, 121.643, 0, 0.00199143, 0.00158324, 0.00241768, 13.1557, 82.6813, 0, 0.00199269, 0.00104314, 0.0015386, 9.38922, 53.335, 0, 0.00199364, -75.3672, -57.0259, -115.651, -45.064, -41.4492, -73.4917, -0.000212805, 0.000102574, -0.00123087, -3.41737E-05, -3.41737E-05, -3.41737E-05
6586, 1,0.00220625, -0.000814943, 0.000650143, 39.9317, -54.0527, 0.00552843, 154.296, 143.739, 0, 0.00146663, 0.00269034, 0.00352195, 47.2904, 107.051, 0, 0.0014675, 0.00172288, 0.00222413, 32.5817, 65.279, 0, 0.0014685, -24.8002, -245.089, -51.2639, -12.2047, -152.643, -30.9892, 0.00122304, -0.00348704, 0.000526359, 0.000831383, 0.000831383, 0.000831383
6587, 1,0.00262119, -0.00137428, 0.000984113, 21.1531, -90.3519, 0.00910243, -43.6306, 314.526, 0.18612, 0.00128312, 0.00321449, 0.00524873, 23.7353, 171.982, 0, 0.00128686, 0.00202833, 0.00328384, 18.5833, 103.648, 0, 0.00128828, -86.1864, -290.282, -139.478, -48.1804, -182.721, -80.0436, 0.000994211, -0.00339682, -0.000387915, 0.000721366, 0.000721366, 0.000721366
6588, 1,0.00465885, -0.00225696, 0.00151327, -24.7152, -142.814, 0.0294798, -198.469, 553.975, 0.796228, 0.000899554, 0.00535026, 0.0100179, -33.774, 284.907, 0.0594799, 0.000909864, 0.00400195, 0.00711285, -14.4313, 175.979, 0.0594799, 0.000911529, -248.066, -320.44, -286.214, -156.761, -209.391, -161.786, -0.000326495, -0.00243547, -0.00201841, -0.000142439, -0.000142439, -0.000142439
6589, 1,0.00983754, -0.00295228, 0.0019211, -36.2785, -173.776, 0.0405845, -83.9839, 510.808, 1, 0.000816709, 0.0106085, 0.0168544, -50.1474, 362.866, 0.192761, 0.000826699, 0.00907955, 0.0132045, -22.0865, 221.483, 0.192761, 0.000828827, -356.162, -225.321, -507.114, -214.252, -141.985, -308.212, -0.00146676, 0.00370532, -0.0088338, -0.000513768, -0.000513768, -0.000513768
6590, 1,0.00229018, -0.000903696, 0.000618742, 0.0533192, -62.771, 0.0137208, -22.7288, 347.349, 0.27114, 0.00101858, 0.00262115, 0.00467353, -4.30864, 169.401, 0, 0.00102255, 0.00196015, 0.00344793, 4.44476, 115.464, 0, 0.00102345, -164.989, -87.9896, -255.224, -107.461, -56.6909, -182.241, -0.000677301, 0.000883289, -0.00295382, -0.000311661, -0.000311661, -0.000311661
6591, 1,0.0101785, 0.00124191, 0.00088162, 325.317, 72.3041, 0.0262107, 279.599, -48.9288, 0.436974, 0.00116573, 0.0113814, 0.00848426, 397.341, -145.863, 0.106395, 0.00116744, 0.00898434, 0.00696027, 253.445, -94.5669, 0.106395, 0.00116641, 163.311, 15.7848, 258.494, 109.718, 2.25452, 171.728, 0.0013319, -0.00469186, 0.0058749, 0.00111252, 0.00111252, 0.00111252
6592, 1,0.0302587, 0.00415171, 0.00290613, 379.598, 121.018, 0.082247, 1014.55, -342.03, 1, 0.001226, 0.0343024, 0.0264592, 500.426, -214.076, 0.528, 0.00121667, 0.0262447, 0.0208838, 258.962, -118.497, 0.470228, 0.00121386, 239.15, 69.7231, 333.355, 128.284, 48.6966, 178.509, 0.00372886, -0.0150237, 0.0162145, 0.00187619, 0.00187619, 0.00187619
6593, 1,0.00193171, -0.000770464, 0.00054781, -3.72261, -54.5424, 0.00767673, -27.9692, 370.919, 0.0725395, 0.001132, 0.00225535, 0.00377647, -6.59749, 151.548, 0, 0.00113633, 0.00160864, 0.00270326, -0.816605, 102.763, 0, 0.00113723, -149.98, -101.286, -203.377, -97.6714, -69.3014, -141.317, -0.000664145, 0.000267841, -0.00206198, -0.000326557, -0.000326557, -0.000326557
6594, 1,0.00398056, 0.000837725, 0.000624948, 229.339, 46.8979, 0.0299286, 424.127, -144.587, 0.465752, 0.00131148, 0.00481032, 0.00342204, 276.032, -65.6606, 0, 0.00130872, 0.00315503, 0.00219702, 182.763, -45.9257, 0, 0.0013083, 57.2607, 12.0935, 127.628, 42.3391, 8.91413, 86.524, 1.83204E-05, -0.000860211, 0.00190671, 1.54884E-05, 1.54884E-05, 1.54884E-05
6595, 1,0.0185087, 0.00244198, 0.0016959, 362.587, 112.697, 0.077594, 871.206, -278.907, 1, 0.00136926, 0.0209477, 0.0160204, 475.284, -179.263, 0.271617, 0.00135996, 0.0160707, 0.012808, 249.89, -104.63, 0.260275, 0.00135801, 222.052, 17.6277, 298.109, 128.282, 19.7596, 165.848, 0.00340724, -0.0097906, 0.00980944, 0.00257706, 0.00257706, 0.00257706
6596, 1,0.00129224, -0.000633884, 0.000448962, 11.5283, -41.314, 0.00331524, -12.096, 226.735, 0, 0.00160822, 0.00155007, 0.00252297, 12.4453, 80.8902, 0, 0.00161203, 0.00103769, 0.00164227, 10.6991, 50.3213, 0, 0.00161283, -83.0476, -28.5292, -131.094, -46.3083, -17.5308, -87.1248, -0.000392836, 0.000677748, -0.00159682, -9.74062E-05, -9.74062E-05, -9.74062E-05
6597, 1,0.00238087, 0.000581021, 0.000461115, 125.771, 31.8481, 0.019864, 466.435, -183.487, 0.256698, 0.00155602, 0.00296162, 0.00226667, 157.587, -23.5085, 0, 0.00155122, 0.00180031, 0.0013471, 93.9764, -11.6685, 0, 0.00155092, 1.27879, 27.2845, 41.962, -1.60411, 17.5668, 19.0428, -0.000397677, 0.000174174, 0.000604703, -0.000271538, -0.000271538, -0.000271538
6598, 1,0.0074756, 0.00161132, 0.00112546, 322.951, 93.1068, 0.0650853, 636.061, -309.941, 1, 0.00154881, 0.00905876, 0.00637413, 415.656, -123.863, 0.0437421, 0.00153444, 0.00590695, 0.00418915, 230.561, -68.1524, 0.0425869, 0.00153302, 138.233, -4.11917, 237.476, 77.3979, -9.00842, 136.068, 0.000761854, -0.00302737, 0.0043244, 0.00035608, 0.00035608, 0.00035608
6599, 1,0.00435452, 0.00110846, 0.000767733, 265.038, 68.2279, 0.0372407, 520.588, -228.948, 0.575399, 0.00164226, 0.00545579, 0.00385717, 333.137, -100.014, 0, 0.00163595, 0.00325815, 0.00233333, 197.027, -57.3266, 0, 0.00163482, 73.1723, 14.079, 212.791, 38.2302, 5.44554, 128.304, -0.000199171, -0.00129963, 0.00312046, -0.000264693, -0.000264693, -0.000264693
6600, 1,0.00356468, 0.000840349, 0.000585559, 223.347, 52.4179, 0.0120438, 429.623, -94.2527, 0.0881518, 0.00172259, 0.00439976, 0.00306396, 275.626, -90.3511, 0, 0.00172234, 0.00273284, 0.0019018, 171.153, -56.1469, 0, 0.00172139, 65.002, 19.3221, 186.729, 38.4829, 10.3376, 119.62, -0.000145819, -0.00102172, 0.00263267, -0.00016733, -0.00016733, -0.00016733
6601, 1,0.00297718, 0.000707349, 0.000498294, 186.807, 44.4665, 0.00664539, 393.835, -106.4, 0, 0.00176081, 0.00368325, 0.00255902, 231.261, -76.0089, 0, 0.00175994, 0.00227189, 0.00156891, 142.361, -46.295, 0, 0.0017591, 55.6571, 13.5018, 158.868, 33.7253, 6.39747, 98.7622, -9.85272E-05, -0.000915279, 0.00224635, -9.38505E-05, -9.38505E-05, -9.38505E-05
6602, 1,0.00172771, 0.000365023, 0.000314741, 99.5323, 19.5918, 0.0101054, 436.14, -109.667, 0.0518593, 0.00169441, 0.00207677, 0.00164945, 118.471, -27.1918, 0, 0.00169206, 0.00138741, 0.00105871, 80.9634, -20.8801, 0, 0.00169188, -5.06218, 41.0979, 45.5398, -2.17493, 25.7809, 39.0343, -0.000560376, 0.000428302, 0.00057317, -0.000399504, -0.000399504, -0.000399504
6603, 1,0.0014217, 0.00030818, 0.000232284, 91.0692, 18.9731, 0.00392388, 227.308, -56.2923, 0, 0.00174708, 0.00171242, 0.00122214, 109.263, -38.0618, 0, 0.00174656, 0.00114013, 0.000791224, 73.2931, -26.2034, 0, 0.00174622, 10.5568, 51.9704, 51.658, 9.03407, 29.6207, 39.9553, -0.00039361, 0.0004944, 0.000516708, -0.000238807, -0.000238807, -0.000238807
6604, 1,0.00087842, 0.000182795, 0.000146896, 66.2697, 13.4907, 0.00211004, 128.442, -38.2315, 0, 0.00177006, 0.00103132, 0.000824204, 78.3535, -39.734, 0, 0.0017701, 0.00073657, 0.000569246, 54.7129, -26.6909, 0, 0.00176973, 15.5101, 51.7707, 51.9213, 12.0003, 29.3414, 38.7311, -0.000316104, 0.000468261, 0.0004925, -0.000184723, -0.000184723, -0.000184723
6605, 1,0.000850565, -0.000554403, 0.000405811, 22.0925, -33.6843, 0.00213434, 63.157, 50.4306, 0, 0.00190909, 0.00110631, 0.00168402, 26.7155, 34.2649, 0, 0.00190959, 0.000596456, 0.000878973, 17.5029, 14.1221, 0, 0.00191021, -44.0074, 13.6672, -72.4546, -21.0966, 11.4619, -32.7316, -0.00033446, 0.000830684, -0.00105176, -0.000167285, -0.000167285, -0.000167285
6606, 1,0.00122481, -0.000504625, 0.000421102, 52.2395, -27.4445, 0.00255363, 113.003, 10.2937, 0, 0.00182307, 0.00156, 0.00181337, 64.4912, 12.3496, 0, 0.00182301, 0.000891432, 0.000976072, 40.0628, 2.66137, 0, 0.0018233, -40.6698, 63.9109, -60.2898, -20.1899, 39.411, -27.2052, -0.000622824, 0.00154621, -0.0011232, -0.000342306, -0.000342306, -0.000342306
6607, 1,0.00144213, -0.000472279, 0.000440016, 71.3249, -23.4926, 0.00282958, 143.991, -13.6924, 0, 0.00179904, 0.00184825, 0.00186124, 89.3402, -2.6982, 0, 0.00179872, 0.00103717, 0.000983779, 53.3617, -5.87186, 0, 0.00179881, -28.3853, 88.5341, -52.0542, -13.4309, 52.602, -21.5556, -0.000608222, 0.00183237, -0.00117974, -0.000342004, -0.000342004, -0.000342004
6608, 1,0.00205874, -0.000771669, 0.000661088, 87.1666, -41.239, 0.00456232, 198.697, 22.7478, 0, 0.00179351, 0.00260911, 0.00298454, 108.392, 20.0389, 0, 0.00179359, 0.00150845, 0.00166258, 65.9456, 7.17918, 0, 0.00179397, -53.3302, 103.841, -110.628, -28.7525, 63.1224, -55.9074, -0.000747989, 0.00251571, -0.00209186, -0.000430936, -0.000430936, -0.000430936
6609, 1,0.0015561, -0.00076474, 0.000587868, 52.8823, -43.8135, 0.00352845, 135.93, 41.4212, 0, 0.00182663, 0.00196689, 0.00266739, 64.6086, 38.0785, 0, 0.00182673, 0.00114544, 0.00149211, 41.1613, 17.4167, 0, 0.00182734, -63.8357, 62.3821, -112.782, -33.861, 39.9288, -58.3179, -0.000677404, 0.0019224, -0.00186198, -0.000369021, -0.000369021, -0.000369021
6610, 1,0.00126633, -0.000673553, 0.000514632, 11.2069, -46.8717, 0.00314579, 66.5484, 110.126, 0, 0.00191782, 0.00162172, 0.00231025, 12.9325, 85.5739, 0, 0.00191859, 0.00091121, 0.0012821, 9.48507, 45.11, 0, 0.00191985, -68.0415, -70.4028, -118.277, -36.4179, -35.9071, -63.005, -1.40715E-05, -0.000135013, -0.00123908, 1.72801E-05, 1.72801E-05, 1.72801E-05
6611, 1,0.00218227, -0.00106232, 0.000822168, 29.6494, -71.7715, 0.00562603, 129.064, 183.616, 0, 0.00140469, 0.00276396, 0.00379844, 35.5638, 127.717, 0, 0.00140596, 0.00160083, 0.00215476, 23.7351, 69.7519, 0, 0.00140728, -21.685, -285.869, -75.5961, -9.78451, -159.254, -40.2172, 0.00160907, -0.0040217, 0.00033947, 0.000947491, 0.000947491, 0.000947491
6612, 1,0.00289475, -0.00166172, 0.00117588, 27.106, -110.23, 0.00773947, -48.7882, 329.393, 0.125473, 0.00123679, 0.00358153, 0.00574255, 27.9054, 189.836, 0, 0.0012401, 0.00221021, 0.00340039, 26.341, 104.591, 0, 0.00124181, -54.4864, -323.389, -191.633, -20.3208, -188.019, -105.432, 0.00193191, -0.00381227, -0.00119997, 0.00131103, 0.00131103, 0.00131103
6613, 1,0.00474105, -0.0026502, 0.00176065, -34.2486, -165.692, 0.0287908, -131.264, 510.232, 0.679454, 0.000874022, 0.00542146, 0.0101326, -48.6791, 295.738, 0.0667393, 0.000881352, 0.00407503, 0.00687207, -19.3721, 168.317, 0.0659277, 0.000883248, -167.064, -315.164, -404.987, -84.8123, -185.461, -234.678, 0.00221477, -0.00207761, -0.00512019, 0.00205564, 0.00205564, 0.00205564
6614, 1,0.00913322, -0.00333397, 0.00217753, -47.7994, -198.157, 0.0399783, -92.8041, 461.766, 1, 0.000795361, 0.0100246, 0.0163701, -62.3961, 365.045, 0.18654, 0.00080363, 0.00824851, 0.0121665, -33.0526, 206.197, 0.186254, 0.000805946, -338.335, -226.438, -530.361, -189.779, -131.848, -296.965, -0.000736954, 0.00366424, -0.00953612, 3.58711E-05, 3.58711E-05, 3.58711E-05
6615, 1,0.00203529, -0.00128153, 0.000855206, -7.69942, -86.8673, 0.00933704, -5.79517, 306.462, 0.144, 0.000988478, 0.00241663, 0.00461864, -15.9328, 174.783, 0, 0.000991023, 0.00167069, 0.002973, 1.26332, 104.072, 0, 0.000992161, -139.338, -127.319, -257.691, -77.1229, -78.8719, -156.22, -8.29491E-05, 0.000125906, -0.0028779, 0.000117755, 0.000117755, 0.000117755
6616, 1,0.00969412, 0.00085863, 0.000588351, 405.071, 51.982, 0.0329985, 410.72, -81.4301, 0.505228, 0.00112875, 0.0105442, 0.00748106, 456.97, -159.977, 0.0669843, 0.00112971, 0.00884573, 0.00636563, 353.198, -124.712, 0.0669843, 0.00112904, 164.019, 15.2841, 300.629, 126.102, 10.5852, 237.448, 0.000765459, -0.00388166, 0.0058119, 0.000489884, 0.000489884, 0.000489884
6617, 1,0.0307564, 0.00358179, 0.00246106, 379.271, 120.28, 0.0874285, 1159.2, -390.859, 1, 0.00118794, 0.0342004, 0.0264011, 499.36, -214.852, 0.526023, 0.0011768, 0.0273452, 0.0217252, 259.376, -118.675, 0.490636, 0.00117412, 221.091, 66.0208, 357.445, 119.004, 45.6336, 191.389, 0.0016271, -0.0155565, 0.0188599, 0.000226315, 0.000226315, 0.000226315
6618, 1,0.00139363, -0.000995186, 0.000708645, -36.0024, -70.8529, 0.00391858, 2.76125, 244.031, 0, 0.00109922, 0.00181441, 0.00341505, -39.9387, 168.541, 0, 0.00110057, 0.000973949, 0.00200201, -32.0521, 104.472, 0, 0.00110171, -144.065, -124.403, -237.154, -92.2034, -72.5282, -148.684, -0.000300925, 4.07393E-05, -0.0024739, -0.000213688, -0.000213688, -0.000213688
6619, 1,0.00515352, 0.000574573, 0.00045281, 322.455, 30.5804, 0.0371675, 463.264, -141.369, 0.578098, 0.00127178, 0.00570883, 0.0039165, 352.357, -111.314, 0, 0.00126977, 0.00460393, 0.00316497, 292.762, -102.029, 0, 0.00126958, 94.0432, 36.588, 203.311, 85.7088, 43.8255, 176.552, 6.88494E-05, -0.00107136, 0.00280833, 4.07484E-05, 4.07484E-05, 4.07484E-05
6620, 1,0.0193949, 0.00221593, 0.0015077, 365.684, 112.026, 0.0819375, 993.21, -319.778, 1, 0.00132876, 0.0215743, 0.0164329, 477.653, -184.681, 0.283429, 0.00131793, 0.0172246, 0.0135895, 253.773, -108.171, 0.281066, 0.00131599, 187.698, 19.4101, 346.934, 110.015, 20.7239, 193.773, 0.00084588, -0.0104135, 0.0131252, 0.00035793, 0.00035793, 0.00035793
6621, 1,0.00126606, -0.000750673, 0.000552596, 15.7579, -51.2281, 0.00166162, -10.6443, 119.399, 0, 0.00155525, 0.0016144, 0.00243245, 16.5225, 79.9771, 0, 0.00155625, 0.000924043, 0.00134827, 15.2015, 37.6032, 0, 0.00155732, -67.7337, -39.7241, -132.473, -33.0665, -10.8945, -68.8486, -9.71806E-05, 0.000426081, -0.0016261, -3.16804E-05, -3.16804E-05, -3.16804E-05
6622, 1,0.00252048, 0.000424542, 0.000375651, 128.776, 21.0306, 0.0272067, 515.611, -227.772, 0.390781, 0.0015064, 0.00292919, 0.00236726, 149.233, -13.916, 0, 0.00149963, 0.00211838, 0.00165471, 108.57, -11.2671, 0, 0.00149957, -12.696, -3.5484, 57.9923, -9.72211, -4.03747, 47.5607, -0.000556706, -0.000334893, 0.0011171, -0.000451227, -0.000451227, -0.000451227
6623, 1,0.00760784, 0.0015314, 0.00106159, 337.563, 89.7736, 0.0696271, 726.696, -304.721, 1, 0.00149889, 0.00908213, 0.00635662, 426.444, -123.566, 0.0392419, 0.00148525, 0.00615942, 0.00438503, 249.288, -69.5838, 0.0392419, 0.00148392, 90.2638, -13.1184, 293.554, 46.0459, -17.3091, 180.015, -0.000573493, -0.00315485, 0.00577684, -0.000695741, -0.000695741, -0.000695741
6624, 1,0.005136, 0.00102853, 0.00069644, 318.268, 63.8881, 0.0475943, 513.148, -209.695, 0.751855, 0.00158713, 0.00615662, 0.00421287, 381.957, -120.699, 0, 0.00158095, 0.00411934, 0.00283053, 254.68, -79.4951, 0, 0.00157989, 87.7354, 24.4628, 249.899, 56.9701, 12.53, 168.985, -0.000249364, -0.00142016, 0.00362677, -0.000249578, -0.000249578, -0.000249578
6625, 1,0.00400581, 0.000760321, 0.000520576, 255.121, 47.6418, 0.0194605, 454.474, -131.245, 0.23461, 0.00166481, 0.00476027, 0.00326627, 302.545, -103.408, 0, 0.00166352, 0.00325413, 0.0022329, 207.799, -71.8632, 0, 0.00166267, 78.9642, 28.3461, 202.914, 55.6174, 18.3979, 141.574, -7.39432E-05, -0.00104132, 0.00279219, -7.017E-05, -7.017E-05, -7.017E-05
6626, 1,0.00360406, 0.000621518, 0.000431757, 232.849, 39.4323, 0.00995032, 460.23, -151.635, 0.0523067, 0.00170092, 0.00422435, 0.00285428, 272.252, -97.0034, 0, 0.00169929, 0.00298428, 0.00199559, 193.457, -69.9095, 0, 0.00169854, 79.1276, 23.2853, 188.597, 58.4059, 15.9094, 135.413, 5.39736E-05, -0.00104039, 0.00255953, 4.29595E-05, 4.29595E-05, 4.29595E-05
6627, 1,0.00242666, 0.000415575, 0.000393834, 141.441, 20.5471, 0.0187664, 485.763, -186.637, 0.225492, 0.00163847, 0.0027931, 0.00219708, 159.766, -36.4025, 0, 0.00163377, 0.00208365, 0.00152752, 124.189, -33.9391, 0, 0.0016337, 12.0635, 52.9019, 44.2422, 17.535, 33.8549, 50.4275, -0.000353513, 0.000521764, 0.000422302, -0.000198515, -0.000198515, -0.000198515
6628, 1,0.0019617, 0.000326578, 0.000270854, 122.973, 18.2609, 0.00697925, 414.487, -114.078, 0, 0.00168764, 0.00222461, 0.00153717, 138.285, -44.5257, 0, 0.00168574, 0.00172605, 0.00119788, 108.943, -36.9159, 0, 0.00168553, 14.3275, 59.0154, 60.2344, 15.5607, 35.9062, 59.2809, -0.000424237, 0.000537962, 0.000608622, -0.000278056, -0.000278056, -0.000278056
6629, 1,0.00129353, 0.000185892, 0.00012923, 96.0335, 11.9709, 0.00487864, 328.796, -131.852, 0, 0.00170994, 0.00134798, 0.00103153, 101.805, -51.1173, 0, 0.0017077, 0.00126084, 0.000919366, 91.2981, -42.5533, 0, 0.00170746, 27.3338, 57.4439, 68.5743, 26.742, 35.8825, 65.0354, -0.000256294, 0.000407148, 0.000678448, -0.000133717, -0.000133717, -0.000133717
6630, 1,0.00110199, -0.000697898, 0.000491631, 39.3542, -43.2174, 0.00401847, 193.364, -5.02113, 0, 0.0018433, 0.00131026, 0.00184632, 39.0842, 30.6756, 0, 0.00184224, 0.0009314, 0.00100812, 41.3677, 3.1402, 0, 0.00184306, -42.1657, 34.6541, -84.5151, -16.5931, 34.0982, -26.9257, -0.000354954, 0.00121373, -0.00135602, -0.000247993, -0.000247993, -0.000247993
6631, 1,0.00135219, -0.000630846, 0.00049639, 64.2037, -35.8813, 0.00315172, 176.348, -37.0662, 0, 0.00175782, 0.0017033, 0.00185368, 74.7589, 7.72415, 0, 0.00175654, 0.00101224, 0.000892244, 54.147, -8.60233, 0, 0.00175701, -34.3031, 72.3927, -61.2621, -10.6615, 50.472, -14.0035, -0.000565642, 0.00165, -0.00120914, -0.000322834, -0.000322834, -0.000322834
6632, 1,0.00146406, -0.000583928, 0.000504062, 79.9596, -31.0458, 0.00244739, 168.593, -71.0585, 0, 0.00173579, 0.00188742, 0.00177102, 96.518, -9.8212, 0, 0.00173407, 0.00104136, 0.00076516, 63.4262, -19.1068, 0, 0.00173433, -21.4263, 95.7344, -44.8444, -2.65772, 62.8541, -2.87582, -0.000579973, 0.00187107, -0.00113116, -0.000329317, -0.000329317, -0.000329317
6633, 1,0.00211399, -0.000888707, 0.000723307, 96.6357, -49.4315, 0.00413906, 210.003, -19.3197, 0, 0.00173131, 0.00267183, 0.00294031, 115.554, 14.4034, 0, 0.00173036, 0.00155619, 0.00149388, 77.7194, -5.60397, 0, 0.00173092, -46.5834, 110.888, -107.515, -17.6339, 74.899, -40.4532, -0.000698263, 0.00257539, -0.00210988, -0.000401299, -0.000401299, -0.000401299
6634, 1,0.0016935, -0.000894639, 0.000656268, 64.2268, -53.1108, 0.00368536, 169.54, 6.18207, 0, 0.00176238, 0.00211026, 0.00273086, 73.0806, 35.8069, 0, 0.00176153, 0.00127755, 0.00142124, 55.4088, 6.65925, 0, 0.00176237, -58.4981, 71.2877, -120.21, -24.7449, 54.444, -49.6769, -0.000603119, 0.0020739, -0.00205091, -0.000348528, -0.000348528, -0.000348528
6635, 1,0.00104668, -0.000796295, 0.000594532, 1.65864, -57.188, 0.00217621, 32.7468, 93.5998, 0, 0.0018462, 0.00143527, 0.00227744, 0.471934, 90.5145, 0, 0.00184629, 0.000666556, 0.00110343, 3.17038, 37.9158, 0, 0.00184787, -70.12, -58.6781, -142.745, -32.4177, -14.345, -66.9846, 1.70416E-05, 0.000189477, -0.00167478, -1.42601E-05, -1.42601E-05, -1.42601E-05
6636, 1,0.00195136, -0.00116152, 0.000893919, 18.9496, -80.5071, 0.00416863, 58.1486, 186.367, 0, 0.0013447, 0.00257634, 0.0035849, 22.889, 132.893, 0, 0.00134586, 0.00132768, 0.00180099, 15.0297, 64.0514, 0, 0.00134737, -20.9826, -272.673, -105.024, -7.84645, -132.273, -52.0346, 0.0016985, -0.00366119, -0.000194416, 0.000891558, 0.000891558, 0.000891558
6637, 1,0.00222163, -0.00177588, 0.00125785, 3.49167, -117.998, 0.00599839, 15.7417, 236.506, 0.0648992, 0.001193, 0.00295183, 0.00499059, 3.96832, 182.221, 0, 0.00119423, 0.00150085, 0.00249775, 3.34797, 90.5975, 0, 0.001196, -57.924, -267.216, -221.522, -29.7677, -129.072, -112.952, 0.00173061, -0.00274753, -0.00193977, 0.000881913, 0.000881913, 0.000881913
6638, 1,0.00509953, -0.00281538, 0.00189879, 13.2983, -172.605, 0.0234068, -81.093, 350.022, 0.648258, 0.000848612, 0.00607737, 0.0104002, 10.7611, 245.284, 0.0716745, 0.000852656, 0.00412416, 0.0066137, 15.8488, 119.636, 0.0701113, 0.00085447, -108.925, -242.007, -384.92, -45.9198, -118.932, -194.056, 0.00281265, -0.00116916, -0.00578815, 0.00215253, 0.00215253, 0.00215253
6639, 1,0.0081076, -0.00386579, 0.00258574, -38.1384, -196.596, 0.0335982, -61.4316, 317.16, 0.962538, 0.000775049, 0.00937589, 0.0164082, -50.3947, 310.219, 0.209745, 0.000779259, 0.00684727, 0.0113017, -25.7492, 159.85, 0.190378, 0.000781443, -227.598, -183.516, -519.544, -114.248, -92.0279, -273.275, 0.00213586, 0.00382967, -0.0116638, 0.00213235, 0.00213235, 0.00213235
6640, 1,0.00203241, -0.0017282, 0.00118128, -32.5478, -114.472, 0.0039183, 32.8862, 203.376, 0, 0.000957316, 0.00263304, 0.00508727, -37.0406, 217.066, 0, 0.000957103, 0.00145128, 0.00279466, -27.1261, 128.881, 0, 0.000958474, -166.639, -130.793, -353.767, -102.222, -70.2252, -214.195, 3.77574E-06, 0.000696638, -0.00422121, -2.43736E-05, -2.43736E-05, -2.43736E-05
6641, 1,0.00860765, 0.000321619, 0.000258574, 453.709, 17.3984, 0.0398188, 450, -113.987, 0.618528, 0.00109214, 0.00886647, 0.00625298, 469.156, -169.184, 0.0313431, 0.00109211, 0.00835285, 0.00581934, 438.418, -160.076, 0.0313487, 0.00109195, 132.147, 63.3422, 312.062, 116.551, 70.5531, 293.125, -0.000276887, -0.00198367, 0.00505444, -0.000510855, -0.000510855, -0.000510855
6642, 1,0.0273233, 0.00269499, 0.00183264, 365.898, 114.851, 0.0893877, 1206.36, -401.111, 1, 0.00115149, 0.0299165, 0.0223239, 480.598, -184.534, 0.441068, 0.00113917, 0.0247506, 0.0188523, 251.35, -102.163, 0.432127, 0.00113714, 164.31, 59.8831, 329.41, 89.3611, 42.3165, 174.811, -0.00130683, -0.0109124, 0.0161879, -0.00199987, -0.00199987, -0.00199987
6643, 1,0.00134455, -0.00123167, 0.000873202, -18.8969, -85.35, 0.00197021, 3.15246, 119.4, 0, 0.00106519, 0.00184752, 0.00361153, -22.2737, 146.759, 0, 0.00106471, 0.00106525, 0.00208503, -4.73867, 73.7619, 0, 0.00106598, -102.657, -57.9141, -279.706, -53.4423, -5.1781, -162.665, 0.000230155, 0.00109271, -0.00370347, 0.000120492, 0.000120492, 0.000120492
6644, 1,0.0058468, 0.000403956, 0.000391517, 347.967, 19.4161, 0.0443907, 456.884, -129.677, 0.707332, 0.00123126, 0.00621029, 0.0045568, 365.804, -96.9559, 5.42101E-20, 0.00122892, 0.00549071, 0.00385839, 330.429, -96.0401, 5.42101E-20, 0.0012289, 44.7012, 54.8628, 191.304, 43.3517, 55.7819, 188.987, -0.000710071, -0.000495574, 0.00277873, -0.000722216, -0.000722216, -0.000722216
6645, 1,0.0191714, 0.00197256, 0.00133003, 368.804, 103.352, 0.0826743, 1012.75, -328.815, 1, 0.00128798, 0.0210856, 0.0154137, 472.037, -172.462, 0.270461, 0.00127672, 0.0172688, 0.0129311, 265.667, -102.264, 0.270461, 0.00127501, 126.108, 41.2544, 350.024, 73.2736, 29.4993, 204.019, -0.00249424, -0.00777629, 0.0135643, -0.00278321, -0.00278321, -0.00278321
6646, 1,0.00117722, -0.00092497, 0.000660536, 8.68119, -62.8947, 0.00347759, 149.003, 19.9596, 0, 0.00150261, 0.00137589, 0.00247779, -0.948846, 88.1419, 0, 0.00150095, 0.0010934, 0.00149856, 23.7627, 36.5522, 0, 0.00150221, -74.633, -11.6611, -178.132, -38.0563, 17.9471, -89.5472, -0.000118337, 0.00114262, -0.00245391, -0.000157774, -0.000157774, -0.000157774
6647, 1,0.00364798, -0.00045325, 0.000451427, 212.131, -21.8775, 0.0344115, 485.602, -178.618, 0.524034, 0.00145383, 0.00404303, 0.00326371, 230.61, -52.3999, 0, 0.00144912, 0.00327107, 0.00248139, 194.441, -53.5968, 0, 0.00144915, 20.8591, 43.6819, 92.6587, 26.6106, 35.7137, 98.4662, -0.000445505, 3.42684E-05, 0.0012613, -0.000341869, -0.000341869, -0.000341869
6648, 1,0.00811799, 0.00141977, 0.000968338, 362.775, 84.6786, 0.0717368, 734.763, -262.976, 1, 0.00144639, 0.00951312, 0.00666175, 447.155, -131.735, 0.0422029, 0.00143563, 0.00673269, 0.00476163, 278.571, -79.1526, 0.0422029, 0.00143438, 84.2765, 3.88246, 307.046, 45.7657, -4.54357, 196.236, -0.000938158, -0.00291198, 0.00603759, -0.000954084, -0.000954084, -0.000954084
6649, 1,0.00364499, 0.000721762, 0.000484187, 229.018, 45.7685, 0.0752501, 816.076, -274.833, 1, 0.00100622, 0.00436406, 0.00290902, 274.276, -95.5424, 0, 0.000997661, 0.00292725, 0.00195266, 184.018, -64.8568, 0, 0.000997165, 10.1065, 6.58715, 269.934, 8.94544, 7.11633, 178.509, -0.0013668, -0.00141415, 0.00433082, -0.00091584, -0.00091584, -0.00091584
6650, 1,0.00416976, 0.000972314, 0.00064994, 264.671, 61.8381, 0.0715779, 720.737, -247.516, 1, 0.00103965, 0.00513746, 0.0034108, 325.914, -114.822, 0, 0.00103217, 0.00320483, 0.00213814, 203.792, -72.6405, 0, 0.00103146, 10.534, 13.5492, 320.383, 8.24846, 12.4241, 197.249, -0.0016499, -0.00155934, 0.00507214, -0.0010398, -0.0010398, -0.0010398
6651, 1,0.00424211, 0.00118129, 0.000788557, 278.048, 74.8864, 0.0680295, 619.991, -210.833, 1, 0.00107456, 0.00541294, 0.00354849, 352.292, -131.351, 0, 0.00106855, 0.00307941, 0.0020018, 204.305, -80.5182, 0, 0.00106767, 22.5224, 23.7647, 347.765, 20.8365, 21.2928, 199.425, -0.00163202, -0.00159228, 0.00535558, -0.000871217, -0.000871217, -0.000871217
6652, 1,0.00494865, 0.00134797, 0.000898386, 309.785, 84.5792, 0.0637755, 505.219, -176.97, 0.999827, 0.00111052, 0.00629579, 0.00423856, 394.302, -132.996, 0.000919373, 0.00110571, 0.00360215, 0.00244777, 225.315, -75.6868, 0.000460012, 0.00110468, 9.13571, 6.15137, 383.701, 7.44307, 1.08892, 218.529, -0.0019388, -0.00201382, 0.00611187, -0.00106369, -0.00106369, -0.00106369
6653, 1,0.00357006, 0.000690776, 0.000463124, 222.883, 43.7673, 0.0769071, 859.647, -287.135, 1, 0.000971821, 0.00425796, 0.00285406, 266.044, -91.3181, 0, 0.000963054, 0.00288355, 0.00194508, 180.028, -62.1545, 0, 0.000962599, 3.39847, 8.44725, 262.109, 3.69299, 8.16456, 174.606, -0.0014244, -0.00132935, 0.00423505, -0.000965934, -0.000965934, -0.000965934
6654, 1,0.00417449, 0.0009673, 0.000646085, 261.591, 61.4057, 0.0720437, 729.092, -246.673, 1, 0.00100403, 0.00513711, 0.00346002, 322.425, -109.859, 0, 0.000996757, 0.00321475, 0.00218871, 201.115, -68.2776, 0, 0.000996085, 9.91256, 3.25499, 316.41, 9.50337, 0.727214, 194.602, -0.00156917, -0.001722, 0.00507349, -0.000928073, -0.000928073, -0.000928073
6655, 1,0.00469728, 0.00119824, 0.000800556, 293.037, 75.7643, 0.0675362, 608.028, -209.628, 1, 0.00103766, 0.00589152, 0.00393397, 368.411, -122.694, 0.000185655, 0.00103176, 0.00350577, 0.00236101, 217.934, -71.2692, 4.00855E-05, 0.00103089, 2.87076, 5.74765, 359.465, 2.19323, 1.50343, 210.111, -0.00191018, -0.00186657, 0.00576773, -0.00111457, -0.00111457, -0.00111457
6656, 1,0.0049354, 0.00137639, 0.000920796, 312.295, 86.4394, 0.0636407, 502.485, -173.133, 0.997139, 0.00107191, 0.00630585, 0.00420075, 398.431, -137.474, 0.000678938, 0.00106752, 0.00356961, 0.00238706, 226.399, -79.077, 0.000296149, 0.00106651, 12.6762, 15.4377, 384.308, 12.2801, 8.5351, 216.416, -0.0019313, -0.00190582, 0.00606872, -0.00101269, -0.00101269, -0.00101269
6657, 1,0.00341237, 0.000641698, 0.000433057, 215.396, 40.6592, 0.0763537, 844.911, -283.101, 1, 0.000972611, 0.00405133, 0.00272222, 255.467, -89.6955, 0, 0.000963955, 0.00277469, 0.00186493, 175.605, -62.7375, 0, 0.000963533, 6.93636, 11.2942, 250.856, 7.95662, 10.516, 169.74, -0.00130374, -0.00126944, 0.00402812, -0.000863541, -0.000863541, -0.000863541
6658, 1,0.00407824, 0.000929269, 0.000626571, 257.719, 58.7777, 0.0708812, 700.986, -242.681, 1, 0.0010048, 0.0050004, 0.00334639, 315.885, -109.258, 0, 0.000997649, 0.00316027, 0.00211229, 199.923, -69.9724, 0, 0.000997014, 2.98692, 16.7189, 308.068, 4.24584, 13.2792, 192.392, -0.00168645, -0.00146183, 0.0049208, -0.00104504, -0.00104504, -0.00104504
6659, 1,0.00458737, 0.00116627, 0.000783021, 292.804, 73.7153, 0.0656457, 558.223, -197.597, 1, 0.0010379, 0.00574776, 0.00378794, 366.244, -129.138, 9.34257E-06, 0.00103256, 0.00343101, 0.00226744, 219.559, -79.6424, 9.20463E-07, 0.00103173, 11.4351, 19.116, 356.861, 12.3806, 13.7174, 212.829, -0.00181661, -0.0017166, 0.00562848, -0.0010192, -0.0010192, -0.0010192
6660, 1,0.00483601, 0.00135244, 0.000907352, 303.09, 85.3251, 0.0580335, 492.804, -164.599, 0.91431, 0.00107149, 0.0061793, 0.00417427, 388.002, -129.665, 6.90053E-05, 0.0010679, 0.00349979, 0.00238006, 218.496, -72.3213, 1.49344E-05, 0.00106691, 0.447684, 18.4124, 370.135, 1.06439, 10.0706, 205.829, -0.00204767, -0.0017299, 0.00588163, -0.00113137, -0.00113137, -0.00113137
6661, 1,0.00345025, 0.000601482, 0.000407229, 213.104, 38.125, 0.0743139, 785.17, -260.169, 1, 0.000972583, 0.00404746, 0.00271699, 250.655, -82.9492, 0, 0.000964634, 0.00285483, 0.00191395, 175.805, -57.7663, 0, 0.00096424, -2.3415, 6.97483, 244.214, -1.06956, 5.76643, 168.602, -0.00137704, -0.00128712, 0.0040096, -0.000958131, -0.000958131, -0.000958131
6662, 1,0.00388406, 0.000886286, 0.00060011, 244.805, 55.9514, 0.0688054, 640.838, -220.503, 1, 0.00100488, 0.0047629, 0.00318732, 300.202, -102.944, 0, 0.000998444, 0.00300968, 0.00200742, 189.742, -65.8522, 0, 0.000997843, 2.34597, 17.2258, 289.26, 4.22294, 13.0589, 180.275, -0.00158617, -0.00138986, 0.00464605, -0.000964991, -0.000964991, -0.000964991
6663, 1,0.00428216, 0.00112706, 0.000758557, 271.075, 71.1538, 0.0639465, 507.815, -178.221, 1, 0.00103793, 0.00540414, 0.0036359, 341.922, -117.994, 0, 0.00103313, 0.00316383, 0.0021307, 200.451, -70.4868, 0, 0.00103234, 1.68833, 25.175, 327.119, 3.19515, 18.6281, 189.637, -0.00183917, -0.00145106, 0.0052046, -0.00106053, -0.00106053, -0.00106053
6664, 1,0.00467621, 0.00131987, 0.000885814, 292.402, 83.3441, 0.0550951, 490.56, -163.218, 0.868535, 0.00107174, 0.00598687, 0.00399927, 375.332, -124.63, 0, 0.0010684, 0.00337274, 0.00225374, 209.798, -68.6981, 0, 0.00106743, 1.7475, 18.6833, 353.461, 2.55285, 8.89686, 194.645, -0.0019326, -0.00166979, 0.00562465, -0.00103525, -0.00103525, -0.00103525
6665, 1,0.00317545, 0.00056973, 0.000385563, 198.953, 36.1379, 0.0714038, 706.922, -236.944, 1, 0.000972411, 0.00374022, 0.00252084, 234.568, -80.5726, 0, 0.000965248, 0.00261288, 0.00176112, 163.573, -56.739, 0, 0.000964875, 1.46861, 14.3135, 225.936, 2.64966, 12.7004, 154.867, -0.00124818, -0.00112757, 0.00368255, -0.000851057, -0.000851057, -0.000851057
6666, 1,0.00376964, 0.000845516, 0.00057199, 237.873, 53.3661, 0.0662329, 568.591, -195.791, 1, 0.00100466, 0.00461045, 0.0031237, 290.767, -99.249, 0, 0.000999076, 0.00293155, 0.00199158, 185.255, -63.9867, 0, 0.000998504, -2.40653, 25.3556, 274.798, -0.683213, 20.617, 172.026, -0.00162103, -0.0011926, 0.00442365, -0.00103104, -0.00103104, -0.00103104
6667, 1,0.00427927, 0.00108531, 0.000730984, 264.303, 68.4951, 0.0602167, 497.703, -170.637, 0.947712, 0.00103788, 0.00535602, 0.00358856, 332.417, -108.762, 0, 0.00103362, 0.00320828, 0.00217754, 196.454, -63.1634, 0, 0.00103286, -1.64421, 13.0331, 314.896, 0.00532256, 5.48137, 184.003, -0.00175765, -0.00159114, 0.00511334, -0.00100558, -0.00100558, -0.00100558
6668, 1,0.00455356, 0.00128375, 0.000861295, 281.721, 81.0507, 0.0503955, 489.447, -164.92, 0.793311, 0.00107178, 0.00582742, 0.00393538, 362.395, -117.528, 0, 0.00106869, 0.0032874, 0.00223599, 201.342, -63.2115, 0, 0.00106774, -4.42156, 18.6108, 338.395, -3.54878, 7.59812, 185.585, -0.00194464, -0.00157826, 0.00542987, -0.00107079, -0.00107079, -0.00107079
6669, 1,0.00300163, 0.000543255, 0.000366629, 189.835, 34.4915, 0.0681822, 614.638, -203.475, 1, 0.000971855, 0.00354162, 0.00237325, 223.741, -76.855, 0, 0.000965825, 0.00246309, 0.00164823, 156.193, -54.1363, 0, 0.000965469, 1.97281, 18.4563, 210.136, 2.86971, 16.5934, 142.946, -0.00117725, -0.00100183, 0.00342556, -0.000802867, -0.000802867, -0.000802867
6670, 1,0.00367256, 0.000808432, 0.000546497, 229.653, 51.0519, 0.0627859, 506.149, -180.973, 0.985531, 0.00100469, 0.004474, 0.0030233, 280.169, -93.9441, 0, 0.000999677, 0.00287502, 0.00194729, 179.442, -60.2533, 0, 0.00099913, -3.96236, 24.2251, 261.57, -2.39722, 18.8481, 164.309, -0.00156855, -0.00115651, 0.00424901, -0.00100627, -0.00100627, -0.00100627
6671, 1,0.00416779, 0.00104281, 0.000701677, 258.026, 65.8363, 0.0528104, 497.706, -177.427, 0.834505, 0.00103777, 0.00520261, 0.003523, 323.558, -106.822, 0, 0.00103399, 0.00313833, 0.00214263, 192.7, -62.9982, 0, 0.00103325, -3.56684, 20.1478, 303.887, -2.13496, 11.6768, 179.453, -0.00176039, -0.00142622, 0.00491969, -0.00104055, -0.00104055, -0.00104055
6672, 1,0.00430099, 0.00124536, 0.000834911, 270.224, 78.6149, 0.0418244, 485.742, -164.688, 0.648153, 0.00107175, 0.00553639, 0.00370963, 348.504, -117.313, 0, 0.0010693, 0.0030736, 0.00206279, 192.216, -64.6678, 0, 0.00106839, 0.46242, 27.7979, 323.677, 1.26503, 15.6296, 177.109, -0.00183274, -0.00138337, 0.00511957, -0.000986371, -0.000986371, -0.000986371
6673, 1,0.00304652, 0.000518892, 0.000350076, 189.694, 32.9704, 0.0640536, 516.895, -187.978, 1, 0.00097182, 0.00356079, 0.00239089, 222.051, -73.8212, 0, 0.000966292, 0.00253414, 0.00170139, 157.593, -52.1576, 0, 0.000965953, -1.46705, 16.9785, 205.952, -0.620476, 14.8161, 142.277, -0.00120211, -0.0010075, 0.00340689, -0.000845343, -0.000845343, -0.000845343
6674, 1,0.0035471, 0.000771936, 0.000520841, 221.571, 48.7888, 0.0535482, 499.353, -179.199, 0.845781, 0.00100419, 0.00431286, 0.00289915, 269.947, -91.0849, -1.73472E-18, 0.00100015, 0.00278476, 0.0018717, 173.428, -58.8313, -1.73472E-18, 0.000999631, -1.87382, 24.84, 250.288, -0.623296, 18.8366, 158.281, -0.00147672, -0.0011038, 0.00405809, -0.000943543, -0.000943543, -0.000943543
6675, 1,0.00397439, 0.0010054, 0.000675504, 245.116, 63.4415, 0.0423692, 486.805, -166.809, 0.658828, 0.00103705, 0.00497316, 0.00333853, 308.195, -99.9651, 0, 0.00103429, 0.00298009, 0.0020083, 182.282, -57.7824, 0, 0.00103358, -5.06989, 21.4258, 283.539, -3.86542, 12.276, 164.936, -0.00167867, -0.00128522, 0.00458569, -0.000989235, -0.000989235, -0.000989235
6676, 1,0.00417718, 0.00120728, 0.000808475, 262.114, 76.1951, 0.0338831, 483.351, -165.83, 0.506363, 0.00107162, 0.00537757, 0.00361762, 338.059, -112.959, 0, 0.00106957, 0.00298232, 0.00201623, 186.37, -61.9693, 0, 0.00106868, -2.08141, 30.8043, 310.155, -1.41217, 17.8225, 169.497, -0.00181611, -0.00124461, 0.00489355, -0.000998577, -0.000998577, -0.000998577
6677, 1,0.00291944, 0.000495424, 0.000333758, 182.622, 31.458, 0.0494783, 486.006, -159.651, 0.777341, 0.000969974, 0.00341052, 0.00229143, 213.494, -72.1804, 0, 0.000966678, 0.00243012, 0.0016343, 151.993, -51.5047, 0, 0.000966354, -0.46714, 21.5162, 195.492, 0.244978, 18.9835, 135.286, -0.00115172, -0.000879788, 0.00320219, -0.000813329, -0.000813329, -0.000813329
6678, 1,0.00334598, 0.000738782, 0.000497666, 209.428, 46.6878, 0.0408296, 488.244, -169.405, 0.630948, 0.00100341, 0.00407844, 0.0027383, 255.727, -86.7702, 0, 0.00100057, 0.00261706, 0.00176251, 163.355, -55.8656, 0, 0.00100007, -1.14357, 26.1005, 235.354, -0.11807, 19.5074, 148.207, -0.00139095, -0.000989579, 0.00378811, -0.000883618, -0.000883618, -0.000883618
6679, 1,0.00374769, 0.000968589, 0.000650346, 233.022, 61.0928, 0.0334934, 484.489, -168.305, 0.499851, 0.00103712, 0.00470866, 0.00316856, 293.679, -96.5836, 0, 0.00103482, 0.00279204, 0.00189294, 172.67, -55.9959, 0, 0.00103414, -1.60863, 24.9145, 266.445, -0.514855, 15.1046, 153.398, -0.00154922, -0.0011412, 0.00425736, -0.000887216, -0.000887216, -0.000887216
6680, 1,0.00401197, 0.00116817, 0.000781375, 251.26, 73.7205, 0.0272558, 479.272, -163.244, 0.383444, 0.00107161, 0.00517598, 0.00347336, 324.828, -107.788, 0, 0.00106988, 0.00285137, 0.00192083, 177.817, -58.4553, 0, 0.00106902, -1.92585, 30.2734, 295.016, -1.4253, 16.6079, 160.183, -0.00173079, -0.00116401, 0.00464372, -0.000942916, -0.000942916, -0.000942916
6681, 1,0.00276148, 0.000473019, 0.000318264, 174.146, 29.9839, 0.0355657, 482.623, -163.126, 0.536117, 0.000969497, 0.00323005, 0.00214961, 203.568, -69.316, 0, 0.000966929, 0.00229477, 0.00152994, 144.961, -49.6201, 0, 0.00096662, 1.72175, 22.2185, 184.008, 2.31831, 19.412, 127.13, -0.00105783, -0.000783116, 0.00296519, -0.000737131, -0.000737131, -0.000737131
6682, 1,0.00320135, 0.000707349, 0.000475701, 201.158, 44.6909, 0.0308446, 481.525, -164.477, 0.450089, 0.00100305, 0.00390366, 0.00260611, 245.501, -83.3724, 0, 0.00100083, 0.00250189, 0.00166772, 157.017, -53.7662, 0, 0.00100035, 0.210721, 26.5385, 223.368, 1.04012, 19.5566, 140.702, -0.0013075, -0.000898858, 0.00355882, -0.000824884, -0.000824884, -0.000824884
6683, 1,0.00354998, 0.000932895, 0.000625777, 221.201, 58.8211, 0.0263231, 479.63, -164.643, 0.36625, 0.001037, 0.00447552, 0.00300696, 279.557, -91.8998, 0, 0.00103507, 0.00262968, 0.00177985, 163.173, -52.8342, 0, 0.00103441, -1.21002, 27.2402, 249.669, -0.275179, 16.8863, 141.892, -0.00146526, -0.00100045, 0.00395667, -0.000830644, -0.000830644, -0.000830644
6684, 1,0.00381434, 0.00112958, 0.000754864, 240.969, 71.2745, 0.0215305, 476.039, -161.877, 0.27505, 0.00107171, 0.00494133, 0.00329803, 312.142, -105.547, 0, 0.00107023, 0.00268954, 0.00179469, 169.881, -57.8526, 0, 0.0010694, 0.980081, 34.5894, 281.072, 1.35511, 20.293, 151.91, -0.00163394, -0.00102536, 0.00437186, -0.000874565, -0.000874565, -0.000874565
6685, 1,0.00269275, 0.000450217, 0.000302868, 168.755, 28.5304, 0.0285257, 478.866, -161.474, 0.406723, 0.000969434, 0.00313821, 0.00209604, 196.763, -65.7499, 0, 0.000967185, 0.00224919, 0.00150182, 140.959, -47.0075, 0, 0.00096689, -0.565658, 21.2195, 176.596, -0.0130208, 18.1588, 122.877, -0.00104818, -0.000730294, 0.0028449, -0.000743429, -0.000743429, -0.000743429
6686, 1,0.00304168, 0.000677072, 0.000454721, 191.449, 42.7725, 0.024048, 478.41, -163.919, 0.322914, 0.00100299, 0.00371446, 0.00247302, 233.896, -79.2324, 0, 0.00100102, 0.00237136, 0.00157556, 149.192, -50.8768, 0, 0.00100056, 0.645039, 26.7301, 210.322, 1.31919, 19.4115, 131.9, -0.00123091, -0.000809121, 0.00332535, -0.000771316, -0.000771316, -0.000771316
6687, 1,0.00335327, 0.000897436, 0.00060136, 209.926, 56.5689, 0.0202528, 474.121, -159.724, 0.250589, 0.00103714, 0.0042442, 0.00283579, 266.065, -88.1256, 0, 0.0010355, 0.00246712, 0.00165925, 154.102, -50.5489, 0, 0.00103487, 0.12732, 29.2704, 234.979, 0.902621, 18.4227, 132.321, -0.00137688, -0.000877221, 0.00368384, -0.000769165, -0.000769165, -0.000769165
6688, 1,0.00363939, 0.00109225, 0.000729501, 229.467, 68.888, 0.0169759, 472.619, -159.724, 0.187439, 0.00107186, 0.00472979, 0.003161, 298.257, -100.212, 0, 0.0010705, 0.00255058, 0.00170735, 160.762, -54.1439, 0, 0.0010697, -0.0305265, 35.4494, 265.216, 0.291583, 20.6953, 141.445, -0.00157164, -0.000908622, 0.00410627, -0.000839116, -0.000839116, -0.000839116
6689, 1,0.00254497, 0.00042716, 0.000286744, 161.289, 27.0709, 0.0228777, 477.566, -163.268, 0.300587, 0.000969465, 0.00296861, 0.00196663, 187.922, -64.3946, 0, 0.000967394, 0.00212275, 0.00140499, 134.835, -46.5899, 0, 0.000967115, 2.33442, 23.9524, 166.897, 2.7339, 20.6965, 116.339, -0.000963989, -0.00063558, 0.00264403, -0.00067721, -0.00067721, -0.00067721
6690, 1,0.00290872, 0.000647659, 0.000434738, 182.574, 40.9114, 0.0193941, 475.378, -162.352, 0.234117, 0.00100305, 0.00355186, 0.00236687, 223.155, -74.7834, 0, 0.00100123, 0.00226817, 0.00150889, 142.185, -47.6511, 0, 0.00100079, -0.346293, 25.7513, 198.945, 0.255337, 18.1494, 124.548, -0.00117914, -0.000745272, 0.00313756, -0.000740386, -0.000740386, -0.000740386
6691, 1,0.00319423, 0.000862761, 0.000577653, 200.593, 54.372, 0.0164107, 472.976, -160.823, 0.176682, 0.00103742, 0.00405123, 0.00270676, 254.564, -84.6544, 0, 0.00103585, 0.00234153, 0.00157412, 146.919, -48.5377, 0, 0.00103524, 0.791986, 31.1438, 222.027, 1.44188, 19.9344, 124.237, -0.00130767, -0.000768429, 0.00344955, -0.000725655, -0.000725655, -0.000725655
6692, 1,0.00347305, 0.00105473, 0.00070418, 218.939, 66.4956, 0.0135197, 469.312, -157.344, 0.120339, 0.001072, 0.00452614, 0.00301419, 285.334, -95.6646, 0, 0.00107074, 0.00242137, 0.00161074, 152.63, -51.2201, 0, 0.00106996, 0.358913, 35.6077, 251.027, 0.644026, 20.4844, 132.532, -0.00149214, -0.000820325, 0.0038647, -0.000786009, -0.000786009, -0.000786009
6693, 1,0.00239464, 0.00040455, 0.000271335, 151.377, 25.6399, 0.0185913, 474.263, -161.059, 0.218537, 0.000969528, 0.00279613, 0.00186281, 176.641, -60.0981, 0, 0.000967589, 0.00199441, 0.00132807, 126.268, -43.2164, 0, 0.000967324, 0.728654, 23.5601, 156.006, 1.07092, 20.079, 108.499, -0.000929102, -0.000562004, 0.00246588, -0.00065804, -0.00065804, -0.00065804
6694, 1,0.00273812, 0.000618995, 0.000415035, 172.221, 39.0941, 0.015917, 471.47, -158.737, 0.166895, 0.00100324, 0.00335318, 0.00223334, 210.999, -70.6977, 0, 0.00100154, 0.00212537, 0.00142194, 133.629, -44.7676, 0, 0.00100112, 0.6002, 25.9243, 185.569, 1.09954, 18.1321, 115.071, -0.00109276, -0.000664559, 0.00290419, -0.000675131, -0.000675131, -0.000675131
6695, 1,0.00306929, 0.000828282, 0.000554172, 193.314, 52.1928, 0.0135677, 470.312, -158.95, 0.121426, 0.00103767, 0.00389255, 0.00259011, 245.148, -81.9239, 0, 0.00103618, 0.00224975, 0.00150169, 141.745, -47.2509, 0, 0.0010356, 0.537237, 33.4275, 211.807, 1.08345, 21.9342, 118.735, -0.00126974, -0.00066553, 0.00326443, -0.000712683, -0.000712683, -0.000712683
6696, 1,0.00332448, 0.0010172, 0.000678997, 209.104, 64.1095, 0.0109302, 467.228, -156.775, 0.069923, 0.00107224, 0.00434, 0.00289543, 273.106, -91.0557, 0, 0.00107099, 0.00231043, 0.00154248, 145.195, -48.2286, 0, 0.00107025, -0.596431, 35.8793, 237.884, -0.325307, 20.489, 124.522, -0.00143986, -0.000734123, 0.00365145, -0.000759509, -0.000759509, -0.000759509
6697, 1,0.00224413, 0.00038243, 0.000256324, 142.562, 24.2415, 0.0156612, 472.774, -161.055, 0.162038, 0.000969659, 0.0026238, 0.00174216, 166.464, -57.2251, 0, 0.000967775, 0.0018656, 0.00123682, 118.803, -41.2548, 0, 0.000967524, 1.80072, 24.0056, 145.869, 2.09286, 20.3734, 101.298, -0.000860062, -0.000497247, 0.00228549, -0.000604354, -0.000604354, -0.000604354
6698, 1,0.00261309, 0.000591224, 0.00039609, 163.497, 37.3276, 0.0136442, 468.16, -155.3, 0.122621, 0.00100341, 0.00320045, 0.00213782, 200.497, -65.93, 0, 0.00100177, 0.002028, 0.00136058, 126.689, -41.1882, 0, 0.00100137, -1.70435, 25.9034, 173.591, -1.27206, 18.0308, 106.806, -0.0010648, -0.000579822, 0.00271416, -0.000667305, -0.000667305, -0.000667305
6699, 1,0.00290064, 0.000793807, 0.000530758, 183.153, 50.0176, 0.0112035, 466.161, -154.717, 0.0751825, 0.00103784, 0.00369023, 0.00245351, 232.862, -78.1064, 0, 0.00103644, 0.00211425, 0.00140915, 133.675, -44.8663, 0, 0.00103588, 0.826033, 33.8995, 199.594, 1.28571, 22.1551, 111.158, -0.00120292, -0.000584091, 0.00305424, -0.000670291, -0.000670291, -0.000670291
6700, 1,0.00317469, 0.000979742, 0.000653867, 200.153, 61.7259, 0.00865921, 462.747, -152.855, 0.0254955, 0.00107233, 0.00415274, 0.00276801, 261.768, -87.6859, 0, 0.00107115, 0.00219816, 0.00146543, 138.636, -46.4726, 0, 0.00107044, 0.0555793, 37.0416, 225.961, 0.309744, 21.4773, 117.631, -0.00137321, -0.000646822, 0.00344283, -0.000718658, -0.000718658, -0.000718658
6701, 1,0.00212533, 0.000360527, 0.000241445, 134.558, 22.8613, 0.013709, 470.529, -159.164, 0.124082, 0.000969852, 0.00248346, 0.00165309, 157.117, -53.5352, 0, 0.000968005, 0.00176818, 0.00117675, 112.126, -38.4672, 0, 0.000967769, 0.876792, 23.2231, 136.506, 1.11454, 19.5203, 94.7667, -0.000820818, -0.0004497, 0.00213883, -0.000580369, -0.000580369, -0.000580369
6702, 1,0.00248073, 0.000563876, 0.000377586, 156.43, 35.5894, 0.0119002, 466.46, -154.344, 0.0886963, 0.00100374, 0.00304047, 0.00202561, 191.667, -63.9102, 0, 0.00100214, 0.00192345, 0.00128462, 121.399, -40.3437, 0, 0.00100176, -0.229705, 28.3327, 163.628, 0.16227, 20.4227, 100.446, -0.00100052, -0.00048967, 0.00252696, -0.000622327, -0.000622327, -0.000622327
6703, 1,0.00277392, 0.000759628, 0.000507561, 174.992, 47.8656, 0.00963907, 463.71, -152.846, 0.0446186, 0.00103814, 0.00353018, 0.00234971, 222.602, -74.3013, 0, 0.00103675, 0.00202019, 0.0013439, 127.574, -42.4802, 0, 0.00103621, -0.276336, 33.9401, 189.24, 0.101864, 22.0712, 105.268, -0.00116567, -0.000515, 0.00288617, -0.000657108, -0.000657108, -0.000657108
6704, 1,0.00300037, 0.000941897, 0.000628572, 189.95, 59.3283, 0.00714586, 445.762, -144.935, 0, 0.0010725, 0.0039405, 0.00261566, 249.169, -84.1601, 0, 0.00107145, 0.00206186, 0.00136932, 130.833, -44.5609, 0, 0.00107076, 1.74488, 37.1401, 213.595, 1.99063, 21.4526, 110.239, -0.00128209, -0.000582187, 0.00322988, -0.000653146, -0.000653146, -0.000653146
6705, 1,0.00201862, 0.000339106, 0.000226885, 127.496, 21.512, 0.0123853, 469.07, -158.115, 0.0983052, 0.000970018, 0.0023556, 0.0015705, 148.727, -50.2847, 0, 0.000968178, 0.00168249, 0.00112187, 106.379, -36.1068, 0, 0.000967955, 0.138942, 22.9427, 127.772, 0.32127, 19.2474, 88.7517, -0.000784502, -0.000400786, 0.00200087, -0.000559131, -0.000559131, -0.000559131
6706, 1,0.00232157, 0.000536538, 0.000359231, 146.582, 33.8562, 0.0104424, 465.475, -154.52, 0.0603338, 0.00100405, 0.00285359, 0.00190148, 180.064, -59.9923, 0, 0.00100242, 0.00179229, 0.00119711, 113.323, -37.5926, 0, 0.00100206, -0.215257, 28.4931, 151.699, 0.158336, 20.5567, 92.0629, -0.000938118, -0.000419195, 0.00233052, -0.000578612, -0.000578612, -0.000578612
6707, 1,0.00262249, 0.000725903, 0.000484656, 165.934, 45.7408, 0.00848975, 463.804, -154.992, 0.0223963, 0.00103844, 0.00334571, 0.00222381, 211.456, -70.9063, 2.7446E-07, 0.00103699, 0.00190132, 0.00126364, 120.579, -40.4972, 2.7446E-07, 0.00103648, 0.297967, 34.4926, 177.928, 0.596971, 22.5769, 98.3177, -0.0010995, -0.00044507, 0.002695, -0.000614823, -0.000614823, -0.000614823
6708, 1,0.00287954, 0.000904239, 0.00060343, 181.472, 56.9485, 0.00652908, 411.153, -137.622, 0, 0.00107263, 0.00378187, 0.00251904, 238.305, -79.6061, 0, 0.00107162, 0.00197895, 0.00131776, 124.744, -41.6108, 0, 0.00107096, -0.162266, 36.284, 202.697, 0.0811891, 20.6208, 104.13, -0.0012506, -0.000525793, 0.00306811, -0.000646947, -0.000646947, -0.000646947
6709, 1,0.0019137, 0.000318215, 0.000212727, 120.908, 20.1917, 0.0113417, 468.548, -158.446, 0.0779988, 0.000970319, 0.00222984, 0.00148817, 140.822, -47.6126, 0, 0.000968462, 0.00159839, 0.00106702, 101.106, -34.3176, 0, 0.000968253, -0.0208524, 23.5001, 119.358, 0.119712, 19.8698, 82.9634, -0.000745905, -0.000344926, 0.00186304, -0.000535219, -0.000535219, -0.000535219
6710, 1,0.00218768, 0.000508895, 0.000340587, 138.239, 32.1143, 0.00937544, 464.413, -154.335, 0.0395397, 0.00100442, 0.00269233, 0.00179755, 170, -56.6196, 0, 0.00100277, 0.00168562, 0.00112954, 106.692, -35.3752, 0, 0.00100242, 0.00867286, 28.0392, 141.811, 0.341339, 20.1408, 85.6434, -0.000880074, -0.000371381, 0.00216994, -0.000539562, -0.000539562, -0.000539562
6711, 1,0.00247064, 0.000692521, 0.000462247, 156.505, 43.6353, 0.0075185, 459.534, -150.749, 0.00350087, 0.00103871, 0.00316068, 0.00210303, 199.938, -67.0738, 0, 0.00103729, 0.00178252, 0.00118523, 113.228, -38.0666, 0, 0.00103681, 0.0513005, 34.2339, 166.936, 0.322277, 22.312, 91.5655, -0.00104385, -0.000385375, 0.00251748, -0.000581809, -0.000581809, -0.000581809
6712, 1,0.00273989, 0.000866421, 0.000578061, 172.739, 54.5607, 0.00591189, 371.515, -123.554, 0, 0.00107271, 0.00360457, 0.00239986, 227.194, -75.9369, 0, 0.00107188, 0.00187681, 0.00124914, 118.383, -39.545, 0, 0.00107125, -0.123781, 36.0574, 191.877, 0.0942396, 20.4932, 98.0476, -0.00119172, -0.000470457, 0.00289436, -0.00061384, -0.00061384, -0.00061384
6713, 1,0.0017643, 0.000297302, 0.000198776, 111.516, 18.8695, 0.010288, 466.784, -156.887, 0.0573753, 0.000970477, 0.00205954, 0.00137561, 130.115, -43.9572, 0, 0.000968618, 0.00146989, 0.000982416, 93.0283, -31.5406, 0, 0.000968423, -0.149868, 22.726, 109.295, -0.00411906, 19.1114, 75.5146, -0.000690845, -0.000298901, 0.00170266, -0.000493835, -0.000493835, -0.000493835
6714, 1,0.002078, 0.000481265, 0.000321842, 130.622, 30.3767, 0.00866392, 463.99, -154.895, 0.0257309, 0.00100469, 0.00255572, 0.00171556, 160.69, -52.7533, 2.71051E-20, 0.00100299, 0.00160242, 0.00108256, 100.74, -32.6552, 2.71051E-20, 0.00100267, -1.17939, 26.6909, 132.748, -0.905238, 18.9158, 79.955, -0.000844327, -0.000335191, 0.00203528, -0.000523048, -0.000523048, -0.000523048
6715, 1,0.00233229, 0.000659374, 0.000440115, 147.969, 41.5466, 0.00694921, 437.648, -146.348, 0, 0.00103889, 0.00298925, 0.00198831, 189.324, -63.6183, 0, 0.0010375, 0.00167722, 0.00111462, 106.765, -36.0038, 0, 0.00103703, 0.205882, 33.6009, 157.048, 0.468173, 21.7561, 85.7872, -0.000985674, -0.00034126, 0.00235913, -0.000545704, -0.000545704, -0.000545704
6716, 1,0.00260045, 0.000828819, 0.000552878, 163.868, 52.1849, 0.00536347, 337.703, -112.941, 0, 0.00107278, 0.00342762, 0.00228123, 215.951, -72.0673, 0, 0.00107207, 0.00177483, 0.00118127, 111.88, -37.2742, 0, 0.00107147, -0.208909, 35.3846, 181.026, -0.0084431, 20.0114, 91.8197, -0.00113233, -0.000421532, 0.00272327, -0.000579984, -0.000579984, -0.000579984
6717, 1,0.00165523, 0.000276589, 0.00018509, 104.337, 17.5603, 0.00947566, 465.907, -156.681, 0.0415609, 0.000970828, 0.0019296, 0.0012891, 121.627, -40.6976, 0, 0.000968944, 0.00138175, 0.000924057, 87.1553, -29.1516, 0, 0.000968762, -0.56994, 21.0903, 101.572, -0.404244, 17.5659, 70.2932, -0.000647894, -0.00027734, 0.00158527, -0.000464127, -0.000464127, -0.000464127
6718, 1,0.00194388, 0.000453627, 0.000302973, 122.599, 28.6409, 0.00796434, 463.012, -154.885, 0.0122001, 0.00100504, 0.002395, 0.00160333, 150.992, -49.914, 0, 0.00100331, 0.00149431, 0.00100492, 94.3559, -30.9543, 0, 0.001003, -0.711234, 26.7321, 123.721, -0.50662, 19.0956, 74.2738, -0.00078972, -0.000285503, 0.00188493, -0.000487795, -0.000487795, -0.000487795
6719, 1,0.00220319, 0.000626558, 0.000418247, 139.588, 39.4764, 0.00643964, 405.569, -135.59, 0, 0.00103904, 0.00282729, 0.00188259, 178.875, -59.8265, 0, 0.00103777, 0.00158103, 0.0010533, 100.449, -33.5967, 0, 0.00103733, -0.217099, 32.35, 147.347, 0.0455514, 20.6685, 80.0759, -0.000934504, -0.0003055, 0.00221068, -0.00051629, -0.00051629, -0.00051629
6720, 1,0.00246294, 0.000791292, 0.00052777, 155.248, 49.8147, 0.00489651, 308.265, -103.036, 0, 0.00107291, 0.00325265, 0.00216402, 204.965, -68.4239, 0, 0.00107231, 0.00167473, 0.0011145, 105.623, -35.2238, 0, 0.00107173, -0.138567, 34.7043, 170.706, 0.0489507, 19.5968, 86.0256, -0.00107331, -0.000376382, 0.00255999, -0.000546305, -0.000546305, -0.000546305
6721, 1,0.00154962, 0.000256389, 0.000171528, 97.8235, 16.2781, 0.00881237, 464.39, -155.464, 0.0286404, 0.000971049, 0.00180368, 0.00120652, 113.823, -38.018, 0, 0.000969161, 0.00129648, 0.000868619, 81.9351, -27.3367, 0, 0.000968993, -0.712101, 21.008, 93.7579, -0.560752, 17.6623, 64.9085, -0.000608075, -0.000232489, 0.00145714, -0.000438198, -0.000438198, -0.000438198
6722, 1,0.00180403, 0.000426321, 0.000284723, 114.297, 26.9239, 0.0072767, 455.533, -149.659, 0, 0.0010052, 0.0022282, 0.00148278, 141.004, -47.0347, 0, 0.00100353, 0.00138119, 0.000920615, 87.7216, -29.2051, 0, 0.00100324, -0.0707233, 25.9865, 115.188, 0.131364, 18.4954, 68.9887, -0.000730331, -0.00025185, 0.00174519, -0.000446217, -0.000446217, -0.000446217
6723, 1,0.00208019, 0.000593859, 0.000396349, 131.857, 37.4146, 0.00591548, 371.78, -123.469, 0, 0.00103912, 0.00267182, 0.0017791, 169.099, -56.545, 0, 0.00103799, 0.00149034, 0.000993289, 94.7525, -31.6903, 0, 0.00103757, -0.146477, 31.4435, 138.338, 0.0989134, 20.0054, 74.9667, -0.000881137, -0.000270261, 0.00206884, -0.000484909, -0.000484909, -0.000484909
6724, 1,0.00232597, 0.00075388, 0.000502773, 146.6, 47.4518, 0.00446912, 281.163, -93.7653, 0, 0.00107301, 0.00307829, 0.00204781, 193.957, -64.7158, 0, 0.0010725, 0.00157513, 0.00104855, 99.3327, -33.1029, 0, 0.00107195, -0.159548, 33.701, 160.606, 0.0211771, 18.9302, 80.3573, -0.00101532, -0.000336876, 0.00240234, -0.000513448, -0.000513448, -0.000513448
6725, 1,0.00140779, 0.000236495, 0.000158178, 89.0975, 15.0132, 0.0081955, 463.694, -155.662, 0.016737, 0.000971385, 0.00164176, 0.00110057, 103.809, -34.5719, 0, 0.000969455, 0.00117483, 0.000789525, 74.5078, -24.7512, 0, 0.000969301, -0.911215, 20.93, 83.6968, -0.777841, 17.7718, 57.2596, -0.000557165, -0.000176693, 0.00129452, -0.000401162, -0.000401162, -0.000401162
6726, 1,0.0017059, 0.000399398, 0.000266565, 108.38, 25.2301, 0.00686907, 432.335, -144.362, 0, 0.00100547, 0.00210355, 0.00140161, 133.421, -44.7134, 0, 0.00100384, 0.00130932, 0.00087347, 83.4537, -28.0055, 0, 0.00100357, 0.0792457, 25.7015, 108.359, 0.249613, 18.4832, 65.2838, -0.000690161, -0.000218817, 0.00163433, -0.000424327, -0.000424327, -0.000424327
6727, 1,0.00194198, 0.000561435, 0.000374718, 123.026, 35.3691, 0.00546541, 343.718, -114.343, 0, 0.00103929, 0.00250125, 0.00166596, 158.23, -52.7625, 0, 0.00103825, 0.00138447, 0.000923634, 87.9566, -29.2744, 0, 0.00103786, -0.224794, 29.9648, 128.548, 0.0187991, 18.8075, 68.9969, -0.000823177, -0.000239395, 0.00191865, -0.00044848, -0.00044848, -0.00044848
6728, 1,0.00219279, 0.000716539, 0.000477824, 138.211, 45.0938, 0.00405077, 254.77, -84.8764, 0, 0.00107315, 0.00290781, 0.00193446, 183.215, -61.1239, 0, 0.00107274, 0.00147922, 0.000985119, 93.2949, -31.0926, 0, 0.00107222, -0.154608, 32.5784, 150.948, 0.0194068, 18.2151, 75.0433, -0.000958719, -0.000301546, 0.00225213, -0.000481884, -0.000481884, -0.000481884
6729, 1,0.00129126, 0.000215717, 0.000144172, 82.0108, 13.7083, 0.00759529, 461.114, -152.976, 0.00502902, 0.000971604, 0.00150488, 0.00100491, 95.4499, -31.9836, 0, 0.000969692, 0.00107849, 0.000721039, 68.6799, -23.0179, 0, 0.000969551, -0.160713, 19.6424, 76.4691, -0.0496302, 16.6808, 52.4226, -0.000500016, -0.00016035, 0.00117904, -0.000357854, -0.000357854, -0.000357854
6730, 1,0.00153857, 0.000372728, 0.000248619, 97.3384, 23.5495, 0.0063775, 399.85, -131.907, 0, 0.00100552, 0.00190987, 0.00127928, 120.718, -39.8931, 0, 0.00100402, 0.00116818, 0.000785826, 74.0664, -24.3017, 0, 0.00100377, -0.847486, 23.5141, 97.0127, -0.696263, 16.5277, 57.0737, -0.000633486, -0.000186729, 0.00146736, -0.000385587, -0.000385587, -0.000385587
6731, 1,0.00182017, 0.000529184, 0.000353202, 115.43, 33.3335, 0.00506338, 318.423, -105.889, 0, 0.00103939, 0.00234726, 0.00156397, 148.605, -49.6072, 0, 0.00103844, 0.00129481, 0.000864188, 82.3841, -27.4808, 0, 0.00103806, -0.186801, 28.976, 120.032, 0.0576595, 18.1765, 64.2083, -0.000772692, -0.000208085, 0.00178567, -0.000419398, -0.000419398, -0.000419398
6732, 1,0.00205724, 0.000679274, 0.000452936, 129.635, 42.7404, 0.00365177, 229.755, -76.6112, 0, 0.00107323, 0.00273505, 0.00181999, 172.29, -57.431, 0, 0.0010729, 0.00138089, 0.000920409, 87.0652, -28.9779, 0, 0.0010724, -0.182767, 31.1625, 141.313, -0.0122777, 17.2689, 69.6772, -0.000901255, -0.000270704, 0.00210391, -0.000449343, -0.000449343, -0.000449343
6733, 1,0.00117289, 0.000194515, 0.000129847, 74.4441, 12.3851, 0.00714952, 448.808, -148.735, 0, 0.000971851, 0.001366, 0.000911089, 86.6168, -29.0091, 0, 0.000969965, 0.000980335, 0.000654919, 62.3562, -20.8962, 0, 0.000969837, 0.218763, 17.289, 69.5194, 0.312772, 14.5252, 47.8508, -0.000444937, -0.000160946, 0.00107629, -0.000316479, -0.000316479, -0.000316479
6734, 1,0.0014219, 0.000346412, 0.000231202, 90.4983, 21.8877, 0.00595005, 373.482, -123.602, 0, 0.00100572, 0.0017668, 0.00118052, 112.217, -37.5207, 0, 0.00100432, 0.00107798, 0.000722511, 68.8876, -23.0401, 0, 0.00100408, 0.00245526, 22.6499, 89.9099, 0.180521, 15.9843, 52.9554, -0.000577887, -0.000165195, 0.00135174, -0.000346862, -0.000346862, -0.000346862
6735, 1,0.00168533, 0.000497055, 0.000331724, 106.794, 31.3053, 0.00465829, 292.617, -96.9433, 0, 0.00103957, 0.00218046, 0.00145488, 137.952, -45.881, 0, 0.00103871, 0.00119182, 0.00079746, 75.7578, -25.1105, 0, 0.00103836, -0.432825, 27.3939, 110.682, -0.19356, 16.9957, 58.5292, -0.000719234, -0.00018017, 0.00164384, -0.000387382, -0.000387382, -0.000387382
6736, 1,0.00192524, 0.000642097, 0.000428124, 121.318, 40.3922, 0.00327722, 206.197, -68.7509, 0, 0.00107343, 0.00256589, 0.00170798, 161.628, -53.8599, 0, 0.00107317, 0.00128604, 0.000857714, 81.0906, -26.9813, 0, 0.0010727, -0.182247, 29.6747, 132.087, -0.0117762, 16.3166, 64.639, -0.000845111, -0.000243188, 0.00196232, -0.00041799, -0.00041799, -0.00041799
6737, 1,0.00105752, 0.000173806, 0.000115917, 67.0376, 11.0868, 0.00681021, 428.214, -142.607, 0, 0.000972025, 0.00123031, 0.000821635, 77.9439, -25.9981, 0, 0.000970187, 0.000885123, 0.000592064, 56.2028, -18.7346, 0, 0.000970073, -0.0770251, 15.6529, 62.4185, 0.00471266, 13.1306, 43.0684, -0.000403689, -0.000146142, 0.000971391, -0.000288792, -0.000288792, -0.000288792
6738, 1,0.00130779, 0.000320157, 0.000213756, 83.2704, 20.2302, 0.00556258, 349.452, -115.911, 0, 0.00100584, 0.00162646, 0.00108626, 103.338, -34.4867, 0, 0.00100451, 0.000990099, 0.000663174, 63.3065, -21.1126, 0, 0.00100429, -0.0611976, 21.1083, 82.413, 0.13227, 14.8179, 48.3877, -0.000531412, -0.000147556, 0.00123841, -0.000317442, -0.000317442, -0.000317442
6739, 1,0.00155613, 0.000465143, 0.00031048, 98.7353, 29.2889, 0.00426365, 267.89, -88.7812, 0, 0.0010397, 0.00201934, 0.00134771, 127.881, -42.5743, 0, 0.00103892, 0.00109456, 0.000732803, 69.7111, -23.1544, 0, 0.00103859, -0.272424, 25.9373, 102.058, -0.0238867, 15.9948, 53.4922, -0.000663811, -0.000156074, 0.00151068, -0.000353011, -0.000353011, -0.000353011
6740, 1,0.00179287, 0.000604995, 0.000403353, 112.941, 38.0488, 0.00291297, 183.228, -61.0256, 0, 0.00107356, 0.00239646, 0.00159618, 150.912, -50.2285, 0, 0.00107337, 0.00119071, 0.000795018, 75.0487, -24.9202, 0, 0.00107293, -0.24149, 27.9686, 122.958, -0.0716189, 15.2046, 59.6275, -0.000789285, -0.000219205, 0.00182359, -0.000386903, -0.000386903, -0.000386903
6741, 1,0.000940581, 0.0001534, 0.000102278, 59.6756, 9.80276, 0.00643975, 404.736, -134.588, 0, 0.000972224, 0.0010932, 0.00073038, 69.317, -23.1125, 0, 0.000970467, 0.00078827, 0.000527424, 50.0975, -16.6963, 0, 0.000970366, -0.122006, 14.161, 55.2986, -0.0425949, 11.9152, 38.2162, -0.000359171, -0.000129912, 0.00086383, -0.000257601, -0.000257601, -0.000257601
6742, 1,0.00118766, 0.000293949, 0.000196283, 75.6612, 18.5759, 0.00518165, 325.622, -108.083, 0, 0.00100605, 0.00148026, 0.000989581, 94.0875, -31.3342, 0, 0.0010048, 0.000895945, 0.000600931, 57.332, -19.0626, 0, 0.0010046, -0.20494, 19.5045, 74.7031, -0.00578375, 13.6179, 43.5758, -0.000484894, -0.000129138, 0.00112233, -0.000288123, -0.000288123, -0.000288123
6743, 1,0.0014305, 0.000433329, 0.000289305, 90.795, 27.2785, 0.00388602, 244.214, -80.9539, 0, 0.00103989, 0.00186192, 0.0012435, 117.934, -39.2064, 0, 0.00103919, 0.00100077, 0.000670817, 63.7746, -21.1325, 0, 0.00103888, -0.329261, 24.2584, 93.6901, -0.0700926, 14.8246, 48.6429, -0.000612091, -0.000135593, 0.00138384, -0.000322243, -0.000322243, -0.000322243
6744, 1,0.00166168, 0.000568001, 0.000378669, 104.676, 35.7118, 0.00255517, 160.719, -53.5052, 0, 0.00107374, 0.00222829, 0.00148508, 140.314, -46.6713, 0, 0.00107362, 0.00109651, 0.000732928, 69.1143, -22.9287, 0, 0.00107321, -0.230458, 26.1635, 114.081, -0.058309, 14.0489, 54.7955, -0.000733151, -0.000198347, 0.00168889, -0.000355374, -0.000355374, -0.000355374
6745, 1,0.000824723, 0.000133115, 8.8766E-05, 52.3605, 8.52397, 0.00605315, 380.407, -126.453, 0, 0.000972367, 0.000957241, 0.000640428, 60.7395, -20.2198, 0, 0.000970693, 0.000692434, 0.00046406, 44.0378, -14.6498, 0, 0.000970605, -0.159155, 12.5299, 48.2888, -0.078342, 10.5911, 33.4366, -0.000314423, -0.000116139, 0.000758381, -0.000226091, -0.000226091, -0.000226091
6746, 1,0.00106675, 0.000267872, 0.000178915, 68.0153, 16.9287, 0.00480288, 301.763, -100.085, 0, 0.00100619, 0.0013334, 0.000892586, 84.806, -28.1838, 0, 0.00100502, 0.000800925, 0.000538304, 51.3158, -17.0107, 0, 0.00100484, -0.281341, 17.7636, 67.0692, -0.0746539, 12.3149, 38.792, -0.000437049, -0.000113403, 0.00100764, -0.000257382, -0.000257382, -0.000257382
6747, 1,0.00130499, 0.00040162, 0.000268198, 82.8592, 25.2747, 0.00351852, 221.089, -73.2254, 0, 0.00104003, 0.00170472, 0.00113965, 108.001, -35.8432, 0, 0.00103939, 0.000906944, 0.000608998, 57.8342, -19.1098, 0, 0.00103911, -0.396892, 22.4536, 85.4728, -0.127928, 13.5721, 43.8852, -0.000560726, -0.000117698, 0.00126002, -0.000291765, -0.000291765, -0.000291765
6748, 1,0.00153203, 0.000531091, 0.000354046, 96.4936, 33.3798, 0.0022036, 138.582, -46.0873, 0, 0.00107387, 0.00206175, 0.00137505, 129.804, -43.126, 0, 0.00107381, 0.00100377, 0.000671765, 63.2575, -20.9451, 0, 0.00107343, -0.260842, 24.219, 105.42, -0.0846175, 12.806, 50.114, -0.000678097, -0.000180491, 0.00155846, -0.000324828, -0.000324828, -0.000324828
6749, 1,0.000709513, 0.000112891, 7.53403E-05, 45.0908, 7.24784, 0.00566263, 355.779, -118.169, 0, 0.000972552, 0.000821974, 0.000550921, 52.2092, -17.3554, 0, 0.000970963, 0.000597214, 0.000401089, 38.022, -12.6304, 0, 0.000970888, -0.172893, 10.818, 41.4211, -0.0884617, 9.20961, 28.7699, -0.000269662, -0.000104243, 0.000655255, -0.000194507, -0.000194507, -0.000194507
6750, 1,0.000946276, 0.000241905, 0.000161642, 60.4054, 15.2874, 0.00442507, 277.933, -92.0698, 0, 0.00100638, 0.00118706, 0.00079594, 75.5652, -25.0578, 0, 0.00100529, 0.000706268, 0.000475943, 45.3316, -14.9797, 0, 0.00100512, -0.326812, 15.9227, 59.5775, -0.110536, 10.9427, 34.1068, -0.00038898, -9.99514E-05, 0.000895405, -0.00022632, -0.00022632, -0.00022632
6751, 1,0.00117996, 0.000370034, 0.000247185, 74.9543, 23.2781, 0.00315586, 198.199, -65.5074, 0, 0.00104021, 0.00154811, 0.00103622, 98.1041, -32.4937, 0, 0.00103966, 0.000813531, 0.000547504, 51.9193, -17.0961, 0, 0.0010394, -0.448327, 20.5234, 77.4062, -0.168258, 12.2352, 39.2214, -0.000509275, -0.000102515, 0.00113904, -0.000261099, -0.000261099, -0.000261099
6752, 1,0.00140315, 0.000494271, 0.000329486, 88.3642, 31.0536, 0.00185637, 116.702, -38.7363, 0, 0.00107407, 0.00189606, 0.0012656, 119.352, -39.6028, 0, 0.00107409, 0.000911711, 0.00061107, 57.4478, -18.9788, 0, 0.00107373, -0.286005, 22.1582, 96.9362, -0.104852, 11.4925, 45.5489, -0.000623298, -0.000165315, 0.00143133, -0.000294442, -0.000294442, -0.000294442
6753, 1,0.000595047, 9.2731E-05, 6.19961E-05, 37.8513, 5.97414, 0.00527075, 331.067, -109.861, 0, 0.000972686, 0.000687499, 0.000462074, 43.7109, -14.4973, 0, 0.000971181, 0.000502698, 0.000338696, 32.0346, -10.6173, 0, 0.00097112, -0.187326, 9.01149, 34.6677, -0.0973086, 7.75614, 24.1931, -0.000225043, -9.42071E-05, 0.000554234, -0.000163029, -0.000163029, -0.000163029
6754, 1,0.000826657, 0.000216052, 0.000144468, 52.8458, 13.6522, 0.00404843, 254.14, -84.0337, 0, 0.00100652, 0.00104166, 0.000700016, 66.3794, -21.9477, 0, 0.0010055, 0.000612407, 0.000414213, 39.3942, -12.9616, 0, 0.00100536, -0.36266, 13.9844, 52.2214, -0.135004, 9.50235, 29.5176, -0.000340992, -8.86209E-05, 0.000785632, -0.00019526, -0.00019526, -0.00019526
6755, 1,0.0010557, 0.000338574, 0.000226268, 67.0983, 21.2888, 0.00279611, 175.461, -57.8107, 0, 0.00104034, 0.00139237, 0.000933406, 88.2627, -29.1646, 0, 0.00103986, 0.000720826, 0.000486533, 46.0486, -15.0978, 0, 0.00103962, -0.487506, 18.4901, 69.4913, -0.195373, 10.832, 34.6568, -0.000457913, -8.96872E-05, 0.00102084, -0.000230427, -0.000230427, -0.000230427
6756, 1,0.00127488, 0.000457543, 0.000304993, 80.2768, 28.733, 0.00151204, 94.9892, -31.4184, 0, 0.00107418, 0.00173107, 0.00115665, 108.948, -36.0945, 0, 0.00107426, 0.000820203, 0.000550778, 51.6754, -17.023, 0, 0.00107392, -0.308065, 19.9905, 88.601, -0.120923, 10.1128, 41.0773, -0.00056868, -0.000152519, 0.001307, -0.000264148, -0.000264148, -0.000264148
6757, 1,0.000481397, 7.26517E-05, 4.87468E-05, 30.6399, 4.70362, 0.00487881, 306.345, -101.546, 0, 0.000972863, 0.000553897, 0.000373988, 35.2431, -11.6463, 0, 0.000971445, 0.000408951, 0.000276945, 26.073, -8.61144, 0, 0.000971397, -0.200928, 7.12698, 28.0129, -0.10418, 6.24364, 19.6949, -0.000180542, -8.57226E-05, 0.000454999, -0.000131649, -0.000131649, -0.000131649
6758, 1,0.000708018, 0.000190304, 0.000127392, 45.3416, 12.0225, 0.00367295, 230.405, -76.004, 0, 0.0010067, 0.000897301, 0.000604921, 57.2529, -18.8523, 0, 0.00100576, 0.000519495, 0.000353253, 33.5099, -10.9553, 0, 0.00100564, -0.394498, 11.9645, 44.9868, -0.154559, 8.00514, 25.0153, -0.000293176, -7.90808E-05, 0.000678059, -0.000164309, -0.000164309, -0.000164309
6759, 1,0.000932368, 0.000307233, 0.000205449, 59.2964, 19.3065, 0.00243892, 152.852, -50.1273, 0, 0.00104052, 0.00123763, 0.000831349, 78.4801, -25.8513, 0, 0.00104011, 0.000629044, 0.000426292, 40.2297, -13.1109, 0, 0.0010399, -0.522636, 16.3652, 61.7112, -0.217561, 9.36987, 30.1805, -0.000406737, -7.89187E-05, 0.000905145, -0.000199855, -0.000199855, -0.000199855
6760, 1,0.00114724, 0.000420913, 0.000280575, 72.2313, 26.4184, 0.00117053, 73.4299, -24.1183, 0, 0.00107437, 0.00156679, 0.00104819, 98.59, -32.5995, 0, 0.00107452, 0.000729269, 0.000490912, 45.9411, -15.0762, 0, 0.00107422, -0.328985, 17.7287, 80.3988, -0.134756, 8.67522, 36.6882, -0.000514255, -0.000141821, 0.00118517, -0.000233957, -0.000233957, -0.000233957
6761, 1,0.000369061, 5.27458E-05, 3.56789E-05, 23.4652, 3.44002, 0.00448738, 281.647, -93.233, 0, 0.000972981, 0.000421742, 0.000287251, 26.8175, -8.79851, 0, 0.000971648, 0.000316403, 0.000216271, 20.143, -6.60976, 0, 0.000971614, -0.216345, 5.17181, 21.4401, -0.111327, 4.67824, 15.2624, -0.000136147, -7.85956E-05, 0.00035728, -0.000100362, -0.000100362, -0.000100362
6762, 1,0.000590635, 0.000164672, 0.000110425, 37.9031, 10.3983, 0.00329905, 206.746, -67.9793, 0, 0.00100681, 0.000754245, 0.000510943, 48.1945, -15.7665, 0, 0.00100596, 0.00042785, 0.000293398, 27.6912, -8.957, 0, 0.00100585, -0.426576, 9.87061, 37.8555, -0.17315, 6.45699, 20.5871, -0.000245538, -7.11144E-05, 0.000572396, -0.000133487, -0.000133487, -0.000133487
6763, 1,0.000810115, 0.000276013, 0.00018473, 51.5541, 17.3308, 0.00208473, 130.392, -42.4547, 0, 0.00104063, 0.00108401, 0.000730192, 68.7604, -22.5508, 0, 0.00104029, 0.000538399, 0.000367002, 34.4713, -11.1334, 0, 0.0010401, -0.557052, 14.1602, 54.0493, -0.23804, 7.85686, 25.7813, -0.000355765, -6.99379E-05, 0.000791648, -0.000169413, -0.000169413, -0.000169413
6764, 1,0.00102025, 0.000384373, 0.000256234, 64.2287, 24.1091, 0.000833794, 52.1188, -16.8262, 0, 0.00107449, 0.00140323, 0.000940269, 88.2792, -29.1157, 0, 0.0010747, 0.000638973, 0.000431555, 40.2482, -13.137, 0, 0.00107442, -0.350362, 15.3856, 72.3118, -0.147744, 7.18809, 32.3706, -0.000460023, -0.00013293, 0.00106553, -0.000203876, -0.000203876, -0.000203876
6765, 1,0.000259385, 3.33188E-05, 2.30991E-05, 16.3593, 2.19639, 0.00409673, 256.988, -84.9272, 0, 0.000973116, 0.00029262, 0.000203455, 18.476, -5.95396, 0, 0.00097187, 0.000226175, 0.000157787, 14.2675, -4.61231, 0, 0.000971849, -0.232593, 3.15916, 14.9353, -0.118325, 3.0698, 10.8854, -9.18342E-05, -7.25692E-05, 0.000260797, -6.91571E-05, -6.91571E-05, -6.91571E-05
6766, 1,0.000475045, 0.00013918, 9.35982E-05, 30.5555, 8.78104, 0.00292721, 183.191, -59.968, 0, 0.00100696, 0.000612994, 0.000418601, 39.2282, -12.6901, 0, 0.00100619, 0.000338107, 0.000235285, 21.9674, -6.96631, 0, 0.0010061, -0.458369, 7.71567, 30.8131, -0.190822, 4.86697, 16.2228, -0.000198057, -6.44632E-05, 0.000468356, -0.000102785, -0.000102785, -0.000102785
6767, 1,0.000689216, 0.000244921, 0.000164122, 43.8838, 15.362, 0.00173499, 108.148, -34.7934, 0, 0.00104081, 0.000931748, 0.000630185, 59.1141, -19.2621, 0, 0.00104054, 0.000449287, 0.000309069, 28.7911, -9.16418, 0, 0.00104037, -0.590977, 11.8871, 46.4901, -0.257407, 6.30101, 21.4489, -0.000304981, -6.24928E-05, 0.000680064, -0.000139094, -0.000139094, -0.000139094
6768, 1,0.000894019, 0.00034793, 0.000231986, 56.2752, 21.8055, 0.000510085, 31.4646, -9.53911, 0, 0.00107466, 0.00124047, 0.000832976, 78.0203, -25.6423, 0, 0.00107494, 0.000549461, 0.000372856, 34.6055, -11.2048, 0, 0.00107469, -0.372365, 12.9738, 64.3255, -0.160192, 5.65954, 28.115, -0.000405974, -0.000125585, 0.000947781, -0.000173899, -0.000173899, -0.000173899
6769, 1,0.000157105, 1.59979E-05, 1.26325E-05, 9.44795, 1.03792, 0.00370712, 232.381, -76.6269, 0, 0.00097333, 0.000172428, 0.000128488, 10.3895, -3.11057, 0, 0.000972169, 0.000141946, 0.000105145, 8.53125, -2.61779, 0, 0.000972161, -0.250026, 1.09798, 8.48377, -0.125495, 1.42569, 6.55318, -4.75765E-05, -6.74424E-05, 0.000165288, -3.80166E-05, -3.80166E-05, -3.80166E-05
6770, 1,0.000362498, 0.000113894, 7.69765E-05, 23.3556, 7.17332, 0.0025582, 159.775, -51.9687, 0, 0.00100715, 0.000474707, 0.000329072, 30.4071, -9.62136, 0, 0.00100646, 0.000251767, 0.000180423, 16.4052, -4.98207, 0, 0.00100639, -0.489838, 5.51034, 23.8436, -0.207749, 3.2429, 11.9111, -0.000150701, -5.88948E-05, 0.000365648, -7.21813E-05, -7.21813E-05, -7.21813E-05
6771, 1,0.000570198, 0.000213979, 0.000143651, 36.3106, 13.4013, 0.00139259, 86.255, -27.1441, 0, 0.001041, 0.000781288, 0.000531793, 49.5626, -15.9843, 0, 0.00104081, 0.000362479, 0.000253269, 23.2239, -7.20269, 0, 0.00104066, -0.623946, 9.55797, 39.0189, -0.275547, 4.71048, 17.1731, -0.000254359, -5.6332E-05, 0.000570105, -0.000108881, -0.000108881, -0.000108881
6772, 1,0.00076873, 0.000311599, 0.000207858, 48.3826, 19.5083, 0.000243104, 13.5433, -2.25509, 0, 0.00107486, 0.00107868, 0.00072649, 67.8239, -22.1794, 0, 0.00107521, 0.000461009, 0.000315096, 29.0297, -9.27934, 0, 0.00107498, -0.39431, 10.5061, 56.4264, -0.171863, 4.09767, 23.9122, -0.000352089, -0.000119536, 0.000831664, -0.000144015, -0.000144015, -0.000144015
6773, 1,8.22998E-05, -1.58931E-05, 1.24037E-05, 3.50228, -0.817598, 0.00331891, 207.843, -68.336, 0, 0.000973436, 8.7725E-05, 8.8867E-05, 3.64362, -0.267983, 0, 0.000972361, 7.79684E-05, 7.25454E-05, 3.42355, -0.625948, 0, 0.000972367, -0.268103, -0.999593, 2.07165, -0.132546, -0.244962, 2.25535, -3.35354E-06, -6.29729E-05, 7.04846E-05, -6.92741E-06, -6.92741E-06, -6.92741E-06
6774, 1,0.000256148, 8.89533E-05, 6.07027E-05, 16.4448, 5.58157, 0.00219317, 136.553, -43.9835, 0, 0.00100726, 0.000342238, 0.000245225, 21.8614, -6.5598, 0, 0.00100665, 0.00017272, 0.000132696, 11.1726, -3.00389, 0, 0.00100659, -0.520236, 3.26728, 16.9324, -0.223499, 1.59367, 7.6415, -0.000103444, -5.41532E-05, 0.000263984, -4.16597E-05, -4.16597E-05, -4.16597E-05
6775, 1,0.000454102, 0.000183221, 0.000123351, 28.8825, 11.45, 0.00106359, 64.995, -19.5065, 0, 0.00104109, 0.000633481, 0.000435889, 40.1459, -12.7165, 0, 0.00104097, 0.000279575, 0.000201216, 17.8401, -5.24818, 0, 0.00104085, -0.655513, 7.18607, 31.619, -0.292258, 3.09386, 12.9429, -0.000203871, -5.11789E-05, 0.00046145, -7.87565E-05, -7.87565E-05, -7.87565E-05
6776, 1,0.000644695, 0.000275388, 0.000183872, 40.5695, 17.218, 0.000173344, 4.68259, 5.02481, 0, 0.00107497, 0.000918127, 0.000621084, 57.705, -18.7257, 0, 0.00107539, 0.000374123, 0.000258796, 23.5502, -7.35996, 0, 0.00107519, -0.416625, 7.99567, 48.5982, -0.182977, 2.51085, 19.752, -0.000298359, -0.0001145, 0.000716867, -0.000114216, -0.000114216, -0.000114216
6777, 1,6.94742E-05, -3.31614E-05, 2.28405E-05, 1.00712, -1.93101, 0.00293253, 183.393, -60.0523, 0, 0.000973604, 7.91619E-05, 0.000125178, 1.09131, 2.57515, 0, 0.000972615, 6.13212E-05, 8.70241E-05, 0.947671, 1.36413, 0, 0.000972634, -0.286976, -3.12293, -4.31556, -0.139633, -1.93391, -2.01884, 4.08551E-05, -5.89354E-05, -2.38809E-05, 2.4124E-05, 2.4124E-05, 2.4124E-05
6778, 1,0.000164942, 6.47134E-05, 4.51339E-05, 10.2086, 4.02186, 0.00183416, 113.617, -36.0105, 0, 0.00100746, 0.000223715, 0.000175201, 13.9493, -3.50386, 0, 0.00100693, 0.000111325, 0.00010245, 6.69895, -1.03076, 0, 0.00100689, -0.549704, 0.997358, 10.0639, -0.238187, -0.0727282, 3.4032, -5.62623E-05, -5.00033E-05, 0.000163078, -1.12033E-05, -1.12033E-05, -1.12033E-05
6779, 1,0.000343257, 0.00015272, 0.000103301, 21.705, 9.51156, 0.000762353, 45.0322, -11.8791, 0, 0.0010413, 0.000490195, 0.000344358, 30.9507, -9.45726, 0, 0.00104126, 0.000204194, 0.000156539, 12.7938, -3.29977, 0, 0.00104115, -0.685836, 4.78259, 24.275, -0.30763, 1.45884, 8.7481, -0.000153497, -4.67928E-05, 0.000353814, -4.87058E-05, -4.87058E-05, -4.87058E-05
6780, 1,0.000522553, 0.000239328, 0.000160047, 32.8735, 14.9358, 0.000242187, 2.36353, 12.3024, 0, 0.00107516, 0.000759327, 0.000517298, 47.6942, -15.2804, 0, 0.00107565, 0.000289894, 0.000205056, 18.2285, -5.44594, 0, 0.00107547, -0.438916, 5.45476, 40.8254, -0.193415, 0.906933, 15.6243, -0.00024476, -0.000110222, 0.000603094, -8.44889E-05, -8.44889E-05, -8.44889E-05
6781, 1,9.29192E-05, -5.27699E-05, 3.5677E-05, 0.466959, -3.1789, 0.00254866, 159.061, -51.7749, 0, 0.000973725, 0.000109336, 0.000200002, 0.530184, 5.41961, 0, 0.000972822, 7.76984E-05, 0.000134352, 0.40932, 3.35302, 0, 0.000972855, -0.306172, -5.26054, -10.6921, -0.14655, -3.63249, -6.28002, 8.50728E-05, -5.50942E-05, -0.00011808, 5.51527E-05, 5.51527E-05, 5.51527E-05
6782, 1,0.000109715, 4.22231E-05, 3.13213E-05, 5.54134, 2.54212, 0.0014849, 91.1384, -28.0508, 0, 0.00100757, 0.000141276, 0.000141147, 7.62737, -0.452846, 0, 0.00100711, 8.38008E-05, 0.000105877, 3.69448, 0.937875, 0, 0.00100709, -0.577594, -1.28702, 3.22315, -0.251533, -1.7476, -0.814492, -9.1288E-06, -4.61913E-05, 6.26372E-05, 1.9205E-05, 1.9205E-05, 1.9205E-05
6783, 1,0.000243209, 0.000122625, 8.36502E-05, 15.0226, 7.5929, 0.000522659, 27.9358, -4.26305, 0, 0.00104142, 0.000355813, 0.000261603, 22.1769, -6.2061, 0, 0.00104145, 0.000144195, 0.000127113, 8.41241, -1.35699, 0, 0.00104137, -0.714291, 2.36079, 16.9718, -0.321389, -0.185916, 4.57826, -0.000103213, -4.29043E-05, 0.000246897, -1.87137E-05, -1.87137E-05, -1.87137E-05
6784, 1,0.000403665, 0.000203466, 0.00013642, 25.3725, 12.6641, 0.000340838, 1.54618, 19.5765, 0, 0.0010753, 0.000603339, 0.000416202, 37.8526, -11.8427, 0, 0.00107584, 0.000210858, 0.000156422, 13.198, -3.53671, 0, 0.0010757, -0.461188, 2.8967, 33.0927, -0.20315, -0.70568, 11.519, -0.00019128, -0.000106427, 0.000490046, -5.4822E-05, -5.4822E-05, -5.4822E-05
6785, 1,0.000126077, -7.2981E-05, 4.91303E-05, 0.279139, -4.46061, 0.00216853, 134.901, -43.5033, 0, 0.000973935, 0.000149314, 0.000284596, 0.32638, 8.26641, 0, 0.000973117, 0.000103892, 0.000191537, 0.234381, 5.34141, 0, 0.000973163, -0.325562, -7.40149, -17.0722, -0.153233, -5.33221, -10.5388, 0.00012932, -5.12228E-05, -0.000212377, 8.61725E-05, 8.61725E-05, 8.61725E-05
6786, 1,0.000101875, 2.49478E-05, 2.27315E-05, 3.05521, 1.30352, 0.00115289, 69.4629, -20.103, 0, 0.00100776, 0.000118602, 0.000166755, 4.02145, 2.59423, 0, 0.00100739, 8.78283E-05, 0.000140627, 2.1887, 2.90269, 0, 0.00100738, -0.603706, -3.57418, -3.60479, -0.26341, -3.42257, -5.0221, 3.79783E-05, -4.24734E-05, -3.76186E-05, 4.95804E-05, 4.95804E-05, 4.95804E-05
6787, 1,0.000166663, 9.32697E-05, 6.47338E-05, 9.37934, 5.70962, 0.000395688, 16.1291, 3.34272, 0, 0.00104163, 0.000241351, 0.00019866, 14.3114, -2.96198, 0, 0.00104173, 0.000110786, 0.000124174, 5.18509, 0.580947, 0, 0.00104167, -0.740799, -0.0668601, 9.69361, -0.333538, -1.83217, 0.422868, -5.30013E-05, -3.92507E-05, 0.000140401, 1.12334E-05, 1.12334E-05, 1.12334E-05
6788, 1,0.000291296, 0.000167897, 0.000113079, 18.2419, 10.4075, 0.000447594, 1.1472, 26.8487, 0, 0.00107551, 0.00045257, 0.000320223, 28.3136, -8.41171, 0, 0.00107613, 0.000143316, 0.000119214, 8.75229, -1.63148, 0, 0.00107601, -0.483287, 0.334353, 25.3841, -0.212219, -2.31897, 7.42563, -0.0001379, -0.000102844, 0.000377417, -2.52031E-05, -2.52031E-05, -2.52031E-05
6789, 1,0.000162133, -9.34667E-05, 6.28141E-05, 0.187243, -5.75777, 0.00179434, 111.015, -35.2399, 0, 0.000974038, 0.000192247, 0.00037234, 0.224598, 11.1166, 0, 0.000973305, 0.000133033, 0.000251847, 0.151619, 7.33009, 0, 0.000973365, -0.345028, -9.53417, -23.4707, -0.159667, -7.02438, -14.8062, 0.000173618, -4.70794E-05, -0.000307052, 0.000117198, 0.000117198, 0.000117198
6790, 1,0.000121188, -3.18741E-05, 2.53948E-05, 1.9348, -1.77042, 0.000854006, 49.3279, -12.1677, 0, 0.00100786, 0.000136823, 0.000233166, 2.43079, 5.63834, 0, 0.00100757, 0.00010704, 0.000190352, 1.46994, 4.86444, 0, 0.00100758, -0.627858, -5.85208, -10.4351, -0.273767, -5.08915, -9.2304, 8.50794E-05, -3.85988E-05, -0.000137977, 7.99371E-05, 7.99371E-05, 7.99371E-05
6791, 1,0.000130242, 6.55019E-05, 4.74031E-05, 5.51812, 3.90188, 0.000384535, 9.84518, 10.938, 0, 0.00104171, 0.000169008, 0.000177758, 8.32411, 0.27614, 0, 0.00104189, 0.000105417, 0.000149206, 3.264, 2.51472, 0, 0.00104186, -0.765047, -2.48771, 2.42434, -0.343899, -3.47152, -3.72874, -2.83632E-06, -3.55666E-05, 3.40188E-05, 4.11515E-05, 4.11515E-05, 4.11515E-05
6792, 1,0.000194032, 0.000132811, 9.02138E-05, 11.8921, 8.17514, 0.000557514, 0.914741, 34.1184, 0, 0.00107559, 0.000313191, 0.000235551, 19.3969, -4.98626, 0, 0.00107628, 9.99574E-05, 0.000106133, 5.3837, 0.270494, 0, 0.00107618, -0.505039, -2.21922, 17.6831, -0.220546, -3.92465, 3.33372, -8.45992E-05, -9.91969E-05, 0.000264894, 4.38161E-06, 4.38161E-06, 4.38161E-06
6793, 1,0.000199265, -0.000114131, 7.6627E-05, 0.13392, -7.0652, 0.00143026, 87.5914, -26.9827, 0, 0.000974207, 0.000236283, 0.000461442, 0.165079, 13.9713, 0, 0.00097356, 0.000163268, 0.000313432, 0.104314, 9.31978, 0, 0.000973633, -0.364526, -11.6475, -29.9018, -0.165866, -8.70064, -19.0928, 0.000217983, -4.24353E-05, -0.000402367, 0.000148241, 0.000148241, 0.000148241
6794, 1,0.000151199, -5.21609E-05, 3.69739E-05, 1.37554, -3.13782, 0.000619731, 32.2175, -4.24441, 0, 0.00100805, 0.000171192, 0.000315656, 1.6787, 8.6805, 0, 0.00100784, 0.000132402, 0.000246136, 1.08349, 6.82382, 0, 0.00100787, -0.649922, -8.10894, -17.2826, -0.282528, -6.73897, -13.45, 0.000132194, -3.43217E-05, -0.00023872, 0.000110289, 0.000110289, 0.000110289
6795, 1,0.00013113, 4.17934E-05, 3.41314E-05, 3.42369, 2.28845, 0.000438596, 6.70886, 18.5229, 0, 0.00104192, 0.000151474, 0.000211609, 4.85579, 3.50931, 0, 0.00104217, 0.000117303, 0.000191466, 2.22441, 4.44511, 0, 0.00104216, -0.78701, -4.88948, -4.85144, -0.352483, -5.09584, -7.88701, 4.72994E-05, -3.15938E-05, -7.25431E-05, 7.10534E-05, 7.10534E-05, 7.10534E-05
6796, 1,0.000131007, 9.86606E-05, 6.82748E-05, 7.08304, 5.98911, 0.000668969, 0.765102, 41.3855, 0, 0.0010758, 0.000201904, 0.000178906, 11.859, -1.5655, 0, 0.00107655, 8.85582E-05, 0.000124973, 3.3455, 2.16982, 0, 0.00107649, -0.526196, -4.75115, 9.97385, -0.227963, -5.51446, -0.767035, -3.1357E-05, -9.52182E-05, 0.000152174, 3.39456E-05, 3.39456E-05, 3.39456E-05
6797, 1,0.000236901, -0.000134938, 9.05367E-05, 0.10084, -8.3809, 0.00108517, 65.0357, -18.7312, 0, 0.000974322, 0.000280845, 0.000551303, 0.128418, 16.8307, 0, 0.00097376, 0.000194004, 0.00037567, 0.0748689, 11.3107, 0, 0.000973847, -0.383431, -13.7296, -36.3789, -0.171436, -10.3519, -23.4089, 0.000262436, -3.70527E-05, -0.000498584, 0.000179315, 0.000179315, 0.000179315
6798, 1,0.000185671, -7.57298E-05, 5.18212E-05, 1.05459, -4.66379, 0.00048922, 20.0361, 3.6672, 0, 0.00100818, 0.000212007, 0.000404561, 1.26421, 11.7215, 0, 0.00100804, 0.000160353, 0.000304573, 0.849645, 8.78145, 0, 0.00100809, -0.669477, -10.3327, -24.1624, -0.289463, -8.3635, -17.6914, 0.000179345, -2.93935E-05, -0.000340133, 0.000140652, 0.000140652, 0.000140652
6799, 1,0.000151887, -3.34793E-05, 3.07031E-05, 2.34364, -1.7255, 0.000521892, 4.98974, 26.0983, 0, 0.00104202, 0.000169525, 0.000281019, 3.13655, 6.73842, 0, 0.00104235, 0.000137481, 0.000242032, 1.63532, 6.3728, 0, 0.00104235, -0.806262, -7.25952, -12.1495, -0.359071, -6.6968, -12.0625, 9.74295E-05, -2.70686E-05, -0.000179586, 0.000100955, 0.000100955, 0.000100955
6800, 1,0.000115516, 6.66924E-05, 4.851E-05, 4.25802, 3.91126, 0.000781291, 0.662842, 48.6513, 0, 0.0010759, 0.000147551, 0.000179154, 6.79452, 1.85163, 0, 0.00107672, 9.85164E-05, 0.000165156, 2.25799, 4.06739, 0, 0.00107668, -0.546717, -7.24851, 2.24033, -0.234548, -7.08036, -4.88726, 2.18437E-05, -9.06347E-05, 3.89487E-05, 6.35015E-05, 6.35015E-05, 6.35015E-05
6801, 1,0.000274839, -0.000155874, 0.000104534, 0.080656, -9.70419, 0.000779145, 44.2828, -10.4859, 0, 0.000974514, 0.00032574, 0.000641703, 0.107028, 19.6959, 0, 0.000974037, 0.000225023, 0.000438319, 0.0565193, 13.3038, 0, 0.000974138, -0.401762, -15.7693, -42.9167, -0.176449, -11.9698, -27.7652, 0.000306993, -3.06984E-05, -0.000595973, 0.000210432, 0.000210432, 0.000210432
6802, 1,0.00022221, -0.000100491, 6.78447E-05, 0.850857, -6.24669, 0.000464159, 12.925, 11.5674, 0, 0.00100838, 0.000255816, 0.000496482, 1.00809, 14.7622, 0, 0.00100833, 0.000189449, 0.000364296, 0.695813, 10.7379, 0, 0.00100839, -0.686186, -12.5115, -31.0891, -0.294372, -9.95428, -21.9651, 0.000226553, -2.35681E-05, -0.000442494, 0.000171039, 0.000171039, 0.000171039
6803, 1,0.000181535, -5.29619E-05, 3.97442E-05, 1.73779, -3.14771, 0.000618952, 3.94082, 33.6636, 0, 0.00104223, 0.000203417, 0.000366271, 2.23642, 9.9644, 0, 0.00104263, 0.000161656, 0.000296638, 1.27182, 8.29844, 0, 0.00104266, -0.822754, -9.58549, -19.485, -0.363617, -8.26622, -16.2655, 0.00014757, -2.17339E-05, -0.000287399, 0.000130869, 0.000130869, 0.000130869
6804, 1,0.000130951, 4.08014E-05, 3.48167E-05, 2.8179, 2.13587, 0.000894122, 0.590888, 55.9146, 0, 0.00107611, 0.000149935, 0.000236119, 4.1634, 5.2662, 0, 0.00107699, 0.000118175, 0.000215043, 1.6585, 5.96389, 0, 0.00107698, -0.566373, -9.69874, -5.5335, -0.240166, -8.61435, -9.03714, 7.50243E-05, -8.5182E-05, -7.50846E-05, 9.30626E-05, 9.30626E-05, 9.30626E-05
6805, 1,0.000312997, -0.000176934, 0.000118615, 0.071564, -11.0348, 0.000553222, 27.3005, -2.24614, 0, 0.000974637, 0.000370889, 0.00073255, 0.0996663, 22.5679, 0, 0.000974245, 0.000256233, 0.000501273, 0.0491812, 15.2997, 0, 0.00097436, -0.419266, -17.7554, -49.5291, -0.180768, -13.546, -32.1723, 0.000351674, -2.3145E-05, -0.000694794, 0.000241606, 0.000241606, 0.000241606
6806, 1,0.000259783, -0.0001258, 8.43983E-05, 0.712842, -7.85577, 0.000506072, 9.03888, 19.4559, 0, 0.00100849, 0.000301188, 0.000590044, 0.837769, 17.8039, 0, 0.00100852, 0.000219098, 0.00042473, 0.589043, 12.6942, 0, 0.0010086, -0.700042, -14.6336, -38.078, -0.297251, -11.5031, -26.2821, 0.000273837, -1.65988E-05, -0.000546091, 0.000201466, 0.000201466, 0.000201466
6807, 1,0.000215412, -7.91259E-05, 5.54615E-05, 1.36387, -4.88211, 0.000723227, 3.24551, 41.2197, 0, 0.00104234, 0.000244375, 0.000458618, 1.71079, 13.1882, 0, 0.00104281, 0.000187912, 0.000353393, 1.03063, 10.2228, 0, 0.00104286, -0.836123, -11.8546, -26.874, -0.365941, -9.79561, -20.5068, 0.000197744, -1.53214E-05, -0.000396289, 0.00016081, 0.00016081, 0.00016081
6808, 1,0.000159607, -4.13883E-05, 3.5181E-05, 2.0513, -2.31426, 0.00100734, 0.543676, 63.1754, 0, 0.00107621, 0.000180179, 0.000320942, 2.86024, 8.67888, 0, 0.00107716, 0.000142194, 0.000269321, 1.30002, 7.85984, 0, 0.00107718, -0.584924, -12.0881, -13.3636, -0.244699, -10.1076, -13.2272, 0.000128201, -7.85759E-05, -0.000190237, 0.00012264, 0.00012264, 0.00012264
6809, 1,0.000351343, -0.000198117, 0.000132779, 0.0743117, -12.3727, 0.000450502, 16.2494, 5.98888, 0, 0.000974849, 0.000416265, 0.000823802, 0.107286, 25.4471, 0, 0.000974541, 0.000287595, 0.00056448, 0.056349, 17.2987, 0, 0.00097467, -0.4355, -19.6764, -56.2293, -0.18412, -15.0716, -36.6403, 0.000396496, -1.41613E-05, -0.000795303, 0.000272848, 0.000272848, 0.000272848
6810, 1,0.000297918, -0.000151419, 0.000101242, 0.615605, -9.47974, 0.000582234, 6.79347, 27.3348, 0, 0.00100867, 0.000347448, 0.000684605, 0.719363, 20.8474, 0, 0.00100878, 0.000249044, 0.000485605, 0.51258, 14.6509, 0, 0.00100888, -0.711111, -16.6882, -45.143, -0.298184, -13.0022, -30.6523, 0.000321212, -8.25817E-06, -0.000651181, 0.000231944, 0.000231944, 0.000231944
6811, 1,0.000251508, -0.000107824, 7.37056E-05, 1.11498, -6.73293, 0.000831651, 2.756, 48.7671, 0, 0.00104251, 0.000288848, 0.00055453, 1.3747, 16.4112, 0, 0.00104306, 0.000215339, 0.000411394, 0.86127, 12.1468, 0, 0.00104313, -0.847, -14.0555, -34.3312, -0.366497, -11.2775, -24.7964, 0.00024796, -7.58923E-06, -0.000506526, 0.000190784, 0.000190784, 0.000190784
6812, 1,0.000193964, -6.76888E-05, 4.92928E-05, 1.60202, -4.14807, 0.00112082, 0.514585, 70.4356, 0, 0.00107641, 0.000221639, 0.000417003, 2.15056, 12.091, 0, 0.00107743, 0.000168388, 0.000325824, 1.06941, 9.75632, 0, 0.00107747, -0.602424, -14.4049, -21.2658, -0.248301, -11.5528, -17.4679, 0.000181393, -7.05665E-05, -0.0003068, 0.000152247, 0.000152247, 0.000152247
6813, 1,0.000389883, -0.00021943, 0.000147032, 0.0884345, -13.7183, 0.000455491, 10.4088, 14.2188, 0, 0.000974964, 0.000461882, 0.000915481, 0.128097, 28.3351, 0, 0.000974741, 0.000319104, 0.000627944, 0.0742461, 19.302, 0, 0.000974883, -0.450793, -21.5213, -63.0334, -0.186755, -16.5385, -41.1808, 0.000441479, -3.50691E-06, -0.000897788, 0.000304173, 0.000304173, 0.000304173
6814, 1,0.000336396, -0.000177244, 0.000118271, 0.546708, -11.1137, 0.000675931, 5.3869, 35.2027, 0, 0.00100878, 0.000394257, 0.000779844, 0.63632, 23.893, 0, 0.00100896, 0.000279175, 0.000546792, 0.457936, 16.6083, 0, 0.00100908, -0.718921, -18.6624, -52.2977, -0.296843, -14.4426, -35.0854, 0.00036869, 1.70574E-06, -0.000758031, 0.00026248, 0.00026248, 0.00026248
6815, 1,0.000288883, -0.000137589, 9.30097E-05, 0.941703, -8.6323, 0.000942653, 2.3978, 56.3046, 0, 0.00104264, 0.000335279, 0.000652465, 1.1473, 19.6335, 0, 0.00104326, 0.000243476, 0.000470188, 0.738724, 14.0706, 0, 0.00104335, -0.854242, -16.1751, -41.8712, -0.36451, -12.7031, -29.1441, 0.000298242, 1.72336E-06, -0.0006184, 0.000220809, 0.000220809, 0.000220809
6816, 1,0.000231134, -9.97884E-05, 6.92057E-05, 1.31835, -6.24316, 0.00123458, 0.505942, 77.6945, 0, 0.00107651, 0.000268161, 0.000518164, 1.72552, 15.5033, 0, 0.0010776, 0.00019579, 0.000383608, 0.914336, 11.6538, 0, 0.00107767, -0.618206, -16.6361, -29.2556, -0.250518, -12.9416, -21.7693, 0.000234626, -6.08858E-05, -0.000425078, 0.000181901, 0.000181901, 0.000181901
6817, 1,0.000428599, -0.00024087, 0.000161371, 0.110396, -15.0713, 0.000519245, 7.37037, 22.445, 0, 0.000975121, 0.000507721, 0.00100756, 0.157298, 31.2324, 0, 0.000974982, 0.000350742, 0.000691635, 0.0971856, 21.3099, 0, 0.000975139, -0.464906, -23.2794, -69.9528, -0.188564, -17.9383, -45.8028, 0.000486631, 9.02404E-06, -0.00100247, 0.000335587, 0.000335587, 0.000335587
6818, 1,0.000375117, -0.000203226, 0.00013545, 0.49856, -12.7552, 0.00077928, 4.44338, 43.0599, 0, 0.00100897, 0.000441455, 0.000875603, 0.578818, 26.9418, 0, 0.00100924, 0.00030944, 0.000608226, 0.419809, 18.5671, 0, 0.00100937, -0.723464, -20.5453, -59.5565, -0.293263, -15.8162, -39.5918, 0.000416289, 1.35251E-05, -0.00086691, 0.000293087, 0.000293087, 0.000293087
6819, 1,0.000327056, -0.000167893, 0.000112842, 0.817736, -10.5559, 0.00105534, 2.12719, 63.8337, 0, 0.00104283, 0.000382902, 0.000751677, 0.988016, 22.8564, 0, 0.00104353, 0.000272077, 0.000529534, 0.648562, 15.9951, 0, 0.00104364, -0.857899, -18.2017, -49.5096, -0.360074, -14.0646, -33.5606, 0.000348611, 1.28661E-05, -0.000732201, 0.000250898, 0.000250898, 0.000250898
6820, 1,0.000269862, -0.000133973, 9.12044E-05, 1.13008, -8.4318, 0.00134863, 0.518132, 84.9519, 0, 0.0010767, 0.000317317, 0.000622013, 1.45354, 18.9168, 0, 0.00107785, 0.000223915, 0.000442203, 0.807196, 13.553, 0, 0.00107795, -0.632449, -18.7698, -37.3481, -0.251577, -14.2662, -26.1412, 0.000287911, -4.92813E-05, -0.000545352, 0.000211608, 0.000211608, 0.000211608
6821, 1,0.000467513, -0.000262442, 0.000175801, 0.139966, -16.4319, 0.000610992, 5.64733, 30.6661, 0, 0.000975264, 0.000553809, 0.00110006, 0.194811, 34.1383, 0, 0.00097521, 0.000382523, 0.000755568, 0.125203, 23.3222, 0, 0.000975381, -0.476582, -24.9378, -77.0007, -0.188721, -19.2615, -50.5163, 0.000531973, 2.36826E-05, -0.00110961, 0.000367103, 0.000367103, 0.000367103
6822, 1,0.000414039, -0.000229341, 0.000152908, 0.46784, -14.4035, 0.00088835, 3.77625, 50.9071, 0, 0.0010091, 0.000488965, 0.000971811, 0.542562, 29.9944, 0, 0.00100944, 0.000339821, 0.000669887, 0.396016, 20.5279, 0, 0.0010096, -0.723914, -22.3252, -66.9342, -0.286912, -17.1149, -44.182, 0.000464038, 2.74394E-05, -0.000978097, 0.000323784, 0.000323784, 0.000323784
6823, 1,0.000365764, -0.000198509, 0.000132975, 0.728396, -12.4935, 0.00116921, 1.92095, 71.3531, 0, 0.00104295, 0.000431307, 0.000851759, 0.87502, 26.0805, 0, 0.00104372, 0.000301004, 0.00058929, 0.582403, 17.9208, 0, 0.00104385, -0.857968, -20.1236, -57.2599, -0.353217, -15.3542, -38.055, 0.000399076, 2.60771E-05, -0.000848186, 0.000281059, 0.000281059, 0.000281059
6824, 1,0.000309557, -0.000169053, 0.000114098, 1.00238, -10.6605, 0.00146305, 0.55274, 92.2065, 0, 0.00107682, 0.000368042, 0.000727486, 1.27346, 22.3321, 0, 0.00107804, 0.000252509, 0.000501366, 0.73318, 15.4545, 0, 0.00107816, -0.644678, -20.793, -45.5586, -0.251192, -15.5183, -30.5939, 0.000341268, -3.54875E-05, -0.000667918, 0.000241382, 0.000241382, 0.000241382
6825, 1,0.000506622, -0.000284153, 0.000190325, 0.173625, -17.8008, 0.000716796, 4.57696, 38.8857, 0, 0.00097546, 0.000600143, 0.001193, 0.2367, 37.0561, 0, 0.000975489, 0.000414444, 0.000819753, 0.155851, 25.3408, 0, 0.000975674, -0.487104, -26.488, -84.1932, -0.18816, -20.5014, -55.333, 0.000577524, 4.06688E-05, -0.00121948, 0.000398734, 0.000398734, 0.000398734
6826, 1,0.000453146, -0.000255577, 0.00017046, 0.451079, -16.0578, 0.00100107, 3.28743, 58.7453, 0, 0.00100929, 0.000536753, 0.00106843, 0.523334, 33.0525, 0, 0.00100971, 0.000370314, 0.000731762, 0.384002, 22.4918, 0, 0.00100988, -0.721391, -23.9921, -74.444, -0.278573, -18.3314, -48.8655, 0.000511934, 4.36636E-05, -0.00109183, 0.000354572, 0.000354572, 0.000354572
6827, 1,0.000404864, -0.000229336, 0.000153304, 0.665897, -14.4405, 0.00128394, 1.76274, 78.8646, 0, 0.00104316, 0.000480274, 0.000952512, 0.796851, 29.3069, 0, 0.001044, 0.000330182, 0.000649391, 0.53591, 19.8486, 0, 0.00104416, -0.854228, -21.9287, -65.1378, -0.343828, -16.5637, -42.6382, 0.000449658, 4.16134E-05, -0.000966652, 0.000311304, 0.000311304, 0.000311304
6828, 1,0.000349938, -0.000204598, 0.000137455, 0.916503, -12.9099, 0.00157794, 0.607456, 99.4599, 0, 0.00107702, 0.000419844, 0.000834091, 1.15406, 25.7503, 0, 0.00107831, 0.000281431, 0.000560972, 0.683681, 17.359, 0, 0.00107846, -0.65455, -22.6939, -53.9024, -0.249248, -16.6903, -35.1374, 0.000394721, -1.92552E-05, -0.000793066, 0.000271238, 0.000271238, 0.000271238
6829, 1,0.000545952, -0.000306005, 0.000204946, 0.212658, -19.1778, 0.000830431, 3.87094, 47.1006, 0, 0.00097557, 0.000646753, 0.00128641, 0.284644, 39.9844, 0, 0.000975683, 0.000446522, 0.000884201, 0.190494, 27.3652, 0, 0.000975883, -0.49519, -27.9176, -91.5405, -0.186049, -21.6486, -60.261, 0.000623294, 6.02098E-05, -0.00133229, 0.000430485, 0.000430485, 0.000430485
6830, 1,0.000492435, -0.000281924, 0.000188087, 0.447568, -17.7177, 0.00111621, 2.91976, 66.5729, 0, 0.00100941, 0.000584805, 0.00116544, 0.520254, 36.1156, 0, 0.00100991, 0.000400919, 0.000793846, 0.383259, 24.4585, 0, 0.0010101, -0.714487, -25.5344, -82.0979, -0.267339, -19.4572, -53.6511, 0.000560003, 6.24186E-05, -0.00120835, 0.000385466, 0.000385466, 0.000385466
6831, 1,0.000444277, -0.000260314, 0.000173771, 0.624543, -16.3942, 0.00139927, 1.64005, 86.3685, 0, 0.00104326, 0.000529679, 0.0010538, 0.74553, 32.5369, 0, 0.00104417, 0.000359568, 0.000709788, 0.505678, 21.7792, 0, 0.00104435, -0.847004, -23.6073, -73.1564, -0.332187, -17.6865, -47.319, 0.000500371, 5.96777E-05, -0.00108784, 0.000341643, 0.000341643, 0.000341643
6832, 1,0.000390904, -0.000240418, 0.000161084, 0.860073, -15.1716, 0.00169334, 0.678601, 106.713, 0, 0.00107713, 0.000472486, 0.000941568, 1.07612, 29.1729, 0, 0.00107848, 0.000310599, 0.000620945, 0.652256, 19.2677, 0, 0.00107866, -0.662658, -24.4617, -62.3943, -0.246195, -17.7752, -39.7816, 0.000448282, -3.50572E-07, -0.000921066, 0.000301183, 0.000301183, 0.000301183
6833, 1,0.000585497, -0.000327999, 0.000219665, 0.255895, -20.5631, 0.000948753, 3.38333, 55.3113, 0, 0.000975773, 0.000693632, 0.00138027, 0.337275, 42.9243, 0, 0.000975969, 0.000478756, 0.000948912, 0.228299, 29.3959, 0, 0.000976183, -0.500956, -29.2165, -99.0556, -0.18255, -22.6952, -65.3098, 0.000669294, 8.25111E-05, -0.00144828, 0.000462364, 0.000462364, 0.000462364
6834, 1,0.000531932, -0.000308384, 0.000205791, 0.456482, -19.3834, 0.00123304, 2.64027, 74.3894, 0, 0.00100962, 0.000633144, 0.00126287, 0.532365, 39.1845, 0, 0.0010102, 0.000431659, 0.00085616, 0.39296, 26.4288, 0, 0.00101041, -0.703028, -26.9407, -89.9099, -0.25318, -20.4844, -58.5488, 0.00060826, 8.39394E-05, -0.00132792, 0.000416475, 0.000416475, 0.000416475
6835, 1,0.000483977, -0.000291417, 0.000194346, 0.603081, -18.3533, 0.0015151, 1.55095, 93.8619, 0, 0.00104344, 0.000579477, 0.00115559, 0.718961, 35.7697, 0, 0.00104443, 0.000389153, 0.000770472, 0.491376, 23.7124, 0, 0.00104463, -0.834839, -25.146, -81.3283, -0.317396, -18.7136, -52.1062, 0.000551231, 8.05281E-05, -0.001212, 0.000372087, 0.000372087, 0.000372087
6836, 1,0.000432558, -0.000276423, 0.000184897, 0.827523, -17.4412, 0.00180922, 0.76613, 113.965, 0, 0.0010773, 0.000525913, 0.00104982, 1.03063, 32.5997, 0, 0.00107872, 0.000339996, 0.000681261, 0.636373, 21.1805, 0, 0.00107892, -0.667728, -26.0841, -71.0472, -0.241292, -18.765, -44.5352, 0.000501973, 2.14659E-05, -0.00105218, 0.000331232, 0.000331232, 0.000331232
6837, 1,0.000625291, -0.000350149, 0.00023449, 0.30423, -21.9571, 0.00107013, 3.04064, 63.5153, 0, 0.00097589, 0.00074082, 0.00147466, 0.395684, 45.8767, 0, 0.000976169, 0.000511169, 0.00101392, 0.270015, 31.4336, 0, 0.000976398, -0.503877, -30.3737, -106.753, -0.177417, -23.6331, -70.4903, 0.00071555, 0.000107799, -0.00156772, 0.000494386, 0.000494386, 0.000494386
6838, 1,0.000571651, -0.000334954, 0.00022357, 0.474163, -21.0548, 0.00135102, 2.42288, 82.1963, 0, 0.00100972, 0.000681774, 0.0013607, 0.555177, 42.2615, 0, 0.00101037, 0.000462546, 0.000918706, 0.409945, 28.404, 0, 0.0010106, -0.688887, -28.2031, -97.8926, -0.237477, -21.4068, -63.5678, 0.000656699, 0.000108407, -0.00145075, 0.000447594, 0.000447594, 0.000447594
6839, 1,0.000523965, -0.000322626, 0.000215009, 0.596794, -20.3172, 0.00163128, 1.48361, 101.351, 0, 0.00104356, 0.000629673, 0.00125785, 0.711154, 39.0085, 0, 0.00104462, 0.000418934, 0.000831435, 0.489478, 25.6502, 0, 0.00104484, -0.819811, -26.5376, -89.668, -0.301005, -19.6398, -57.0099, 0.000602245, 0.000104347, -0.00133938, 0.000402637, 0.000402637, 0.000402637
6840, 1,0.000474969, -0.000312563, 0.000208842, 0.813363, -19.7167, 0.0019255, 0.866162, 121.218, 0, 0.00107742, 0.000580063, 0.00115877, 1.00963, 36.032, 0, 0.00107891, 0.00037028, 0.00074224, 0.632749, 23.0983, 0, 0.00107914, -0.670282, -27.5509, -79.8748, -0.235022, -19.6527, -49.4072, 0.000555804, 4.64152E-05, -0.00118665, 0.000361389, 0.000361389, 0.000361389
6841, 1,0.000665337, -0.000372454, 0.000249421, 0.355958, -23.3604, 0.00119343, 2.79348, 71.7097, 0, 0.000976102, 0.000788317, 0.00156957, 0.457825, 48.8434, 0, 0.000976464, 0.000543768, 0.00107924, 0.314459, 33.4795, 0, 0.000976707, -0.50512, -31.3815, -114.644, -0.1715, -24.4559, -75.8112, 0.000762063, 0.000136241, -0.00169081, 0.00052655, 0.00052655, 0.00052655
6842, 1,0.000611626, -0.000361637, 0.000241429, 0.502793, -22.7319, 0.00146976, 2.25602, 89.9832, 0, 0.0010099, 0.000730723, 0.00145898, 0.591231, 45.3452, 0, 0.00101063, 0.000493606, 0.000981512, 0.435698, 30.3835, 0, 0.00101088, -0.669993, -29.309, -106.057, -0.219052, -22.2156, -68.7157, 0.000705343, 0.000136047, -0.00157706, 0.000478835, 0.000478835, 0.000478835
6843, 1,0.000564294, -0.00035393, 0.000235748, 0.605665, -22.2852, 0.00174773, 1.43862, 108.83, 0, 0.00104374, 0.000680363, 0.00136061, 0.721979, 42.2517, 0, 0.00104487, 0.00044894, 0.000892685, 0.499913, 27.5918, 0, 0.00104512, -0.800855, -27.7691, -98.1851, -0.282535, -20.4564, -62.0365, 0.00065341, 0.000131368, -0.00147019, 0.000433288, 0.000433288, 0.000433288
6844, 1,0.000517972, -0.000348813, 0.000232893, 0.814584, -21.997, 0.00204225, 0.978297, 128.481, 0, 0.0010776, 0.000634847, 0.00126836, 1.00865, 39.471, 0, 0.00107915, 0.000401486, 0.000803903, 0.63968, 25.0221, 0, 0.00107941, -0.670573, -28.8519, -88.8906, -0.227672, -20.4318, -54.4069, 0.000609787, 7.47177E-05, -0.00132474, 0.000391662, 0.000391662, 0.000391662
6845, 1,0.000705659, -0.000394923, 0.000264464, 0.412686, -24.7728, 0.00131785, 2.62023, 79.8724, 0, 0.000976241, 0.000836153, 0.00166504, 0.525766, 51.8239, 0, 0.000976686, 0.000576574, 0.0011449, 0.36273, 35.5337, 0, 0.000976944, -0.503446, -32.2278, -122.74, -0.164302, -25.1545, -81.2823, 0.000808855, 0.000168063, -0.00181777, 0.000558869, 0.000558869, 0.000558869
6846, 1,0.000651874, -0.000388431, 0.000259366, 0.538393, -24.4148, 0.00158882, 2.12888, 97.7373, 0, 0.00101004, 0.000779994, 0.00155768, 0.635465, 48.4375, 0, 0.00101085, 0.000524864, 0.00104458, 0.467035, 32.3683, 0, 0.00101111, -0.648453, -30.251, -114.413, -0.199476, -22.9048, -74.0007, 0.000754176, 0.000167028, -0.00170705, 0.000510181, 0.000510181, 0.000510181
6847, 1,0.000605059, -0.00038532, 0.00025667, 0.627808, -24.2569, 0.00186435, 1.41469, 116.296, 0, 0.00104385, 0.000731691, 0.00146393, 0.748954, 45.4993, 0, 0.00104505, 0.000479225, 0.000954242, 0.521027, 29.5372, 0, 0.00104532, -0.777464, -28.8298, -106.891, -0.261763, -21.1559, -67.1939, 0.000704737, 0.000161804, -0.00160465, 0.000464044, 0.000464044, 0.000464044
6848, 1,0.000561367, -0.000385145, 0.000257028, 0.829777, -24.2803, 0.00215965, 1.10831, 135.759, 0, 0.00107768, 0.000690134, 0.00137848, 1.02555, 42.9151, 0, 0.00107931, 0.000432933, 0.000865896, 0.656349, 26.951, 0, 0.00107959, -0.667071, -29.9739, -98.1042, -0.218477, -21.0935, -59.5412, 0.000663928, 0.000106612, -0.00146666, 0.000422053, 0.000422053, 0.000422053
6849, 1,0.000746269, -0.000417567, 0.000279626, 0.474572, -26.1954, 0.00144214, 2.49815, 87.9558, 0, 0.000976443, 0.000884341, 0.00176111, 0.599174, 54.8204, 0, 0.000976968, 0.000609591, 0.0012109, 0.415229, 37.5971, 0, 0.000977241, -0.499934, -32.905, -131.056, -0.156245, -25.7225, -86.9126, 0.000855931, 0.000203428, -0.00194883, 0.000591345, 0.000591345, 0.000591345
6850, 1,0.000692433, -0.000415349, 0.000277391, 0.581738, -26.1041, 0.00170787, 2.06023, 105.41, 0, 0.00101025, 0.000829617, 0.00165685, 0.689074, 51.5386, 0, 0.00101114, 0.000556355, 0.00110794, 0.504133, 34.3588, 0, 0.00101142, -0.623146, -31.0183, -122.974, -0.178055, -23.4671, -79.4313, 0.00080322, 0.000201556, -0.00184093, 0.00054165, 0.00054165, 0.00054165
6851, 1,0.000646351, -0.000416804, 0.000277729, 0.661643, -26.2328, 0.00198113, 1.41245, 123.741, 0, 0.00104406, 0.00078369, 0.00156788, 0.790033, 48.7538, 0, 0.00104533, 0.000509868, 0.00101618, 0.551341, 31.4878, 0, 0.00104562, -0.749693, -29.7112, -115.8, -0.238556, -21.7322, -72.4928, 0.00075626, 0.000195857, -0.00174303, 0.000494933, 0.000494933, 0.000494933
6852, 1,0.000605091, -0.000421559, 0.000281242, 0.857138, -26.567, 0.00227816, 1.2562, 143.082, 0, 0.00107788, 0.000745851, 0.00148914, 1.0577, 46.3661, 0, 0.00107957, 0.000464613, 0.000928241, 0.681658, 28.8863, 0, 0.00107988, -0.659938, -30.906, -107.532, -0.207402, -21.6304, -64.8211, 0.000718255, 0.000142354, -0.00161273, 0.000452583, 0.000452583, 0.000452583
6853, 1,0.000787131, -0.000440386, 0.000294907, 0.540068, -27.6279, 0.00156388, 2.38778, 95.8547, 0, 0.000976573, 0.000932845, 0.00185772, 0.676629, 57.8311, 0, 0.000977175, 0.00064279, 0.00127723, 0.470333, 39.6684, 0, 0.000977464, -0.49174, -33.4005, -139.601, -0.145268, -26.1493, -92.7107, 0.000903325, 0.000242524, -0.00208416, 0.000624, 0.000624, 0.000624
6854, 1,0.000733344, -0.000442393, 0.000295504, 0.636951, -27.8001, 0.00182758, 2.13273, 112.925, 0, 0.00101038, 0.00087962, 0.00175654, 0.75517, 54.6466, 0, 0.00101134, 0.000588144, 0.00117168, 0.551779, 36.3523, 0, 0.00101164, -0.587695, -31.6023, -131.75, -0.148108, -23.8951, -85.0138, 0.000852581, 0.000239761, -0.00197893, 0.000573338, 0.000573338, 0.000573338
6855, 1,0.000688156, -0.000448383, 0.000298852, 0.705294, -28.2134, 0.00209817, 1.4373, 131.151, 0, 0.00104419, 0.000836217, 0.00167239, 0.84253, 52.0159, 0, 0.00104553, 0.000540921, 0.00107855, 0.589395, 33.4439, 0, 0.00104585, -0.714912, -30.4064, -124.926, -0.209776, -22.1805, -77.9416, 0.000808049, 0.00023368, -0.00188558, 0.000526021, 0.000526021, 0.000526021
6856, 1,0.00064913, -0.000458077, 0.000305546, 0.892931, -28.859, 0.00239865, 1.4264, 150.501, 0, 0.00107794, 0.000801975, 0.00160038, 1.10061, 49.8298, 0, 0.0010797, 0.000496528, 0.000990988, 0.712537, 30.8317, 0, 0.00108004, -0.651198, -31.6444, -117.194, -0.195851, -22.04, -70.2592, 0.000772816, 0.000182118, -0.00176326, 0.000483283, 0.000483283, 0.000483283
6857, 1,0.000828182, -0.000463397, 0.000310321, 0.604053, -29.0711, 0.0016834, 2.3779, 103.468, 0, 0.000976807, 0.000981612, 0.0019548, 0.753822, 60.8507, 0, 0.000977483, 0.000676114, 0.00134375, 0.523075, 41.7421, 0, 0.000977786, -0.472166, -33.7135, -148.367, -0.125209, -26.4357, -98.6656, 0.00095109, 0.000285295, -0.00222369, 0.000656875, 0.000656875, 0.000656875
6858, 1,0.000774611, -0.000469566, 0.000313707, 0.696107, -29.5028, 0.00195399, 2.66889, 120.256, 0, 0.00101062, 0.000930003, 0.00185686, 0.826101, 57.7646, 0, 0.00101164, 0.000620259, 0.00123589, 0.601729, 38.3524, 0, 0.00101196, -0.536588, -31.992, -140.765, -0.104905, -24.1802, -90.7721, 0.000902421, 0.000281922, -0.00212152, 0.000605398, 0.000605398, 0.000605398
6859, 1,0.000730429, -0.000480051, 0.000320034, 0.763168, -30.198, 0.00222185, 1.81184, 138.519, 0, 0.00104441, 0.000889188, 0.00177751, 0.910811, 55.2827, 0, 0.00104582, 0.000572411, 0.00114143, 0.63936, 35.4032, 0, 0.00104615, -0.666063, -30.9001, -134.282, -0.168997, -22.4885, -83.5521, 0.000860208, 0.000275535, -0.0020326, 0.00055741, 0.00055741, 0.00055741
6860, 1,0.000693422, -0.000494665, 0.000329914, 0.940021, -31.154, 0.00252201, 1.63096, 158.054, 0, 0.00107807, 0.000858416, 0.00171205, 1.15676, 53.2974, 0, 0.0010799, 0.000528641, 0.00105403, 0.752113, 32.7798, 0, 0.00108026, -0.635336, -32.1753, -127.082, -0.179024, -22.3113, -75.849, 0.00082759, 0.000226056, -0.00191825, 0.000514139, 0.000514139, 0.000514139
6861, 1,0.000869876, -0.00048662, 0.000325885, 0.677129, -30.5264, 0.00181173, 2.82829, 111.029, 0, 0.000976946, 0.0010311, 0.00205291, 0.841558, 63.8854, 0, 0.000977694, 0.000710025, 0.00141106, 0.584936, 43.8235, 0, 0.000978012, -0.439818, -33.8511, -157.365, -0.0941481, -26.5914, -104.785, 0.000999351, 0.00033182, -0.00236771, 0.000690092, 0.000690092, 0.000690092
6862, 1,0.000816172, -0.000496869, 0.000332001, 0.752245, -31.2122, 0.00209662, 3.98637, 127.576, 0, 0.00101075, 0.000980715, 0.00195772, 0.895504, 60.8867, 0, 0.00101184, 0.000652661, 0.00130051, 0.647361, 40.3528, 0, 0.00101218, -0.464312, -32.1898, -150.006, -0.0429105, -24.3266, -96.689, 0.000952761, 0.000327956, -0.00226855, 0.000637852, 0.000637852, 0.000637852
6863, 1,0.000772909, -0.000511785, 0.000341257, 0.826257, -32.1856, 0.00236337, 2.9811, 145.956, 0, 0.00104454, 0.000942338, 0.00188297, 0.984942, 58.5511, 0, 0.00104602, 0.000604126, 0.00120462, 0.692759, 37.3626, 0, 0.00104638, -0.600411, -31.1811, -143.872, -0.113385, -22.6458, -89.3285, 0.000912746, 0.000321625, -0.00218427, 0.000589115, 0.000589115, 0.000589115
6864, 1,0.000737957, -0.000531295, 0.000354326, 0.998605, -33.4502, 0.00264884, 1.80019, 165.864, 0, 0.00107811, 0.000915152, 0.00182402, 1.22656, 56.764, 0, 0.00108002, 0.000560942, 0.00111728, 0.80014, 34.7273, 0, 0.0010804, -0.613085, -32.4802, -137.199, -0.1586, -22.4297, -81.5935, 0.000882488, 0.000274497, -0.00207784, 0.000545067, 0.000545067, 0.000545067
6865, 1,0.00091288, -0.000510042, 0.000341584, 0.768992, -31.9931, 0.00195971, 3.7577, 119.2, 0, 0.000977159, 0.00108198, 0.00215302, 0.949396, 66.9678, 0, 0.000977987, 0.000745156, 0.00148008, 0.664366, 45.9456, 0, 0.000978321, -0.421911, -33.7954, -166.686, -0.0790818, -26.602, -111.156, 0.00104805, 0.00038319, -0.00251779, 0.000723608, 0.000723608, 0.000723608
6866, 1,0.000858531, -0.0005243, 0.000350385, 0.809177, -32.9286, 0.00225548, 5.63614, 135.461, 0, 0.00101094, 0.00103228, 0.00205977, 0.969333, 64.0387, 0, 0.00101211, 0.000685818, 0.00136614, 0.691982, 42.3798, 0, 0.00101247, -0.404544, -32.195, -159.517, 0.00485841, -24.3373, -102.807, 0.00100331, 0.00037844, -0.00242073, 0.000670422, 0.000670422, 0.000670422
6867, 1,0.000815488, -0.000543596, 0.000362534, 0.883034, -34.1766, 0.00251689, 4.37709, 153.824, 0, 0.00104473, 0.00099559, 0.00198864, 1.05451, 61.8215, 0, 0.00104629, 0.00063595, 0.00126795, 0.737698, 39.3233, 0, 0.00104667, -0.527761, -31.2601, -153.677, -0.0535831, -22.6671, -95.2491, 0.000965468, 0.000371846, -0.00234028, 0.000620936, 0.000620936, 0.000620936
6868, 1,0.000782557, -0.000567999, 0.000378801, 1.0562, -35.7499, 0.00278611, 2.03813, 174.22, 0, 0.00107821, 0.000972011, 0.0019361, 1.29707, 60.2281, 0, 0.00108021, 0.000593253, 0.00118051, 0.844671, 36.6706, 0, 0.00108062, -0.586284, -32.5668, -147.531, -0.135324, -22.4038, -87.4728, 0.000937453, 0.000327374, -0.0022419, 0.000576001, 0.000576001, 0.000576001
6869, 1,0.000956811, -0.000533625, 0.000357378, 0.872006, -33.4705, 0.00212924, 4.76873, 128.629, 0, 0.000977288, 0.00113383, 0.00225475, 1.06698, 70.0978, 0, 0.000978217, 0.000781114, 0.00155045, 0.753604, 48.1071, 0, 0.000978566, -0.418802, -33.5178, -176.357, -0.0785848, -26.4355, -117.807, 0.00109719, 0.000440075, -0.00267461, 0.000757439, 0.000757439, 0.000757439
6870, 1,0.000901616, -0.000551845, 0.000368837, 0.882386, -34.652, 0.00242739, 7.05416, 144.486, 0, 0.00101108, 0.00108459, 0.00216286, 1.06004, 67.2257, 0, 0.00101235, 0.000719616, 0.00143264, 0.751743, 44.4368, 0, 0.00101273, -0.378813, -31.9855, -169.313, 0.0186362, -24.1885, -109.141, 0.00105369, 0.000433989, -0.00257837, 0.000702754, 0.000702754, 0.000702754
6871, 1,0.000858954, -0.000575504, 0.000383878, 0.949631, -36.1728, 0.00268172, 5.53977, 162.729, 0, 0.00104481, 0.00104975, 0.00209526, 1.13662, 65.1177, 0, 0.00104646, 0.000668638, 0.00133212, 0.791352, 41.3071, 0, 0.00104687, -0.490729, -31.1301, -163.732, -0.0303939, -22.548, -101.343, 0.00101785, 0.000426829, -0.00250113, 0.000652355, 0.000652355, 0.000652355
6872, 1,0.000827467, -0.00060478, 0.000403339, 1.11429, -38.0532, 0.00294309, 2.43551, 183.634, 0, 0.00107823, 0.00102922, 0.00204859, 1.37001, 63.6969, 0, 0.00108033, 0.000625849, 0.00124404, 0.888214, 38.6176, 0, 0.00108077, -0.562972, -32.4505, -158.077, -0.118016, -22.2528, -93.4821, 0.000992431, 0.000384637, -0.00241043, 0.00060688, 0.00060688, 0.00060688
6873, 1,0.00100106, -0.000557377, 0.000373275, 0.962548, -34.9584, 0.00231923, 5.61111, 139.581, 0, 0.000977451, 0.00118607, 0.00235734, 1.17159, 73.2797, 0, 0.000978503, 0.000817276, 0.00162138, 0.827275, 50.3135, 0, 0.000978868, -0.450639, -33.0223, -186.366, -0.115028, -26.0976, -124.728, 0.00114641, 0.000502346, -0.00283772, 0.000791195, 0.000791195, 0.000791195
6874, 1,0.00094524, -0.000579526, 0.000387382, 0.976064, -36.3832, 0.00261383, 8.26992, 154.708, 0, 0.00101126, 0.00113746, 0.0022668, 1.16862, 70.4526, 0, 0.00101265, 0.00075386, 0.0014998, 0.830661, 46.5294, 0, 0.00101304, -0.388113, -31.5681, -179.401, -0.00486442, -23.8891, -115.694, 0.00110395, 0.000494454, -0.00274146, 0.000734852, 0.000734852, 0.000734852
6875, 1,0.000903259, -0.000607492, 0.000405271, 1.0258, -38.1732, 0.00286007, 6.49116, 172.788, 0, 0.00104489, 0.00110477, 0.00220285, 1.23102, 68.4465, 0, 0.00104666, 0.000702168, 0.00139717, 0.852925, 43.3216, 0, 0.00104709, -0.491854, -30.7694, -174.078, -0.0473236, -22.2663, -107.651, 0.00106994, 0.000487097, -0.00266751, 0.000683405, 0.000683405, 0.000683405
6876, 1,0.000872976, -0.000641639, 0.000427938, 1.18359, -40.3607, 0.0031209, 2.95909, 194.239, 0, 0.00107832, 0.00108707, 0.00216182, 1.45612, 67.1854, 0, 0.00108054, 0.000658999, 0.00130818, 0.941164, 40.5819, 0, 0.00108101, -0.561436, -32.0938, -168.901, -0.123857, -21.941, -99.6808, 0.00104726, 0.000447246, -0.00258449, 0.000637544, 0.000637544, 0.000637544
6877, 1,0.00104489, -0.000581355, 0.000389312, 1.0463, -36.46, 0.00253258, 6.64356, 151.761, 0, 0.000977563, 0.00123795, 0.00246013, 1.26881, 76.4554, 0, 0.000978758, 0.00085294, 0.00169221, 0.893596, 52.5047, 0, 0.000979139, -0.414141, -32.3183, -196.634, -0.0855469, -25.5963, -131.832, 0.00119696, 0.000568743, -0.00300619, 0.000826079, 0.000826079, 0.000826079
6878, 1,0.000989437, -0.000607335, 0.000406019, 1.05667, -38.1213, 0.00282789, 10.2018, 165.726, 0, 0.00101134, 0.0011909, 0.00237081, 1.2652, 73.738, 0, 0.00101285, 0.000788669, 0.00156691, 0.894819, 48.6772, 0, 0.00101327, -0.520877, -30.9355, -189.758, -0.15622, -23.4315, -122.444, 0.00115249, 0.000560118, -0.00290898, 0.000765077, 0.000765077, 0.000765077
6879, 1,0.000948563, -0.000639605, 0.000426761, 1.15953, -40.1795, 0.00306237, 8.15721, 183.417, 0, 0.00104491, 0.00116081, 0.00231168, 1.38229, 71.7931, 0, 0.0010468, 0.000736644, 0.00146336, 0.969602, 45.3527, 0, 0.00104725, -0.478318, -30.1769, -184.724, -0.0558434, -21.8245, -114.178, 0.00112259, 0.000552212, -0.00283958, 0.000714868, 0.000714868, 0.000714868
6880, 1,0.000917883, -0.000678538, 0.000452573, 1.27588, -42.6701, 0.00331388, 3.80696, 205.37, 0, 0.00107831, 0.00114435, 0.00227467, 1.56768, 70.6129, 0, 0.00108067, 0.00069155, 0.00137186, 1.01569, 42.4838, 0, 0.00108116, -0.46909, -31.4295, -179.94, -0.040034, -21.4008, -106.011, 0.00110304, 0.000515044, -0.00276369, 0.000669107, 0.000669107, 0.000669107
6881, 1,0.00109042, -0.000605627, 0.00040556, 1.17711, -37.9785, 0.00277872, 8.42816, 165.015, 0, 0.00097774, 0.00129166, 0.0025647, 1.41624, 79.6745, 0, 0.000979095, 0.000890216, 0.00176447, 1.00567, 54.7301, 0, 0.000979492, -0.433907, -31.3626, -207.227, -0.117947, -24.8936, -139.179, 0.00124693, 0.000640916, -0.00318057, 0.000860128, 0.000860128, 0.000860128
6882, 1,0.00103281, -0.000635228, 0.000424676, 1.23047, -39.8643, 0.00310244, 15.1678, 176.514, 0, 0.00101147, 0.00124357, 0.00247421, 1.45274, 76.8574, 0, 0.00101311, 0.000822642, 0.00163322, 1.05118, 50.6548, 0, 0.00101354, -0.389438, -29.9597, -200.223, -0.0413354, -22.6868, -129.236, 0.00120392, 0.000630066, -0.00308097, 0.000798169, 0.000798169, 0.000798169
6883, 1,0.000993793, -0.000671869, 0.000448385, 1.08432, -42.1925, 0.00330749, 12.1658, 193.62, 0, 0.00104501, 0.00121682, 0.00242007, 1.33035, 75.4097, 0, 0.00104702, 0.000771077, 0.00152902, 0.87734, 47.6529, 0, 0.00104749, -0.908546, -29.5668, -195.754, -0.516573, -21.4377, -121.004, 0.00117006, 0.000621338, -0.00301487, 0.000740956, 0.000740956, 0.000740956
6884, 1,0.000965513, -0.000715486, 0.000477251, 1.41195, -44.9816, 0.00351093, 5.4815, 215.627, 0, 0.00107841, 0.00120444, 0.00238694, 1.72236, 74.1978, 0, 0.00108089, 0.000726642, 0.00143477, 1.12891, 44.5413, 0, 0.00108141, -0.854866, -30.528, -191.211, -0.435915, -20.7008, -112.487, 0.00115116, 0.000589481, -0.00294442, 0.00069294, 0.00069294, 0.00069294
6885, 1,0.00113358, -0.000630066, 0.000421881, 1.17185, -39.5082, 0.00308058, 12.6628, 178.516, 0, 0.000977754, 0.00134309, 0.00266652, 1.42812, 82.9185, 0, 0.000979272, 0.000925023, 0.00183359, 0.980203, 56.9704, 0, 0.000979684, -0.537311, -30.2343, -217.984, -0.232898, -24.0578, -146.62, 0.0012954, 0.000716933, -0.0033577, 0.000892553, 0.000892553, 0.000892553
6886, 1,0.00108164, -0.00066362, 0.000443766, 1.37705, -41.6327, 0.00344709, 23.3899, 187.38, 0, 0.00101149, 0.0013021, 0.00258629, 1.63816, 80.2873, 0, 0.00101325, 0.000861968, 0.00170777, 1.1751, 52.9365, 0, 0.0010137, -0.422289, -28.8528, -211.587, -0.11284, -21.8882, -136.808, 0.00125662, 0.000707108, -0.00326637, 0.00083196, 0.00083196, 0.00083196
6887, 1,0.00103133, -0.00070355, 0.000469392, 1.4645, -44.1785, 0.00365905, 24.0867, 199.967, 0, 0.00104512, 0.00126499, 0.00251143, 1.71852, 78.0211, 0, 0.00104719, 0.000797794, 0.00157762, 1.23507, 48.9442, 0, 0.00104769, -0.683486, -27.9047, -205.475, -0.285245, -20.0221, -126.525, 0.00121549, 0.000695997, -0.00317734, 0.00076571, 0.00076571, 0.00076571
6888, 1,0.000998109, -0.000753088, 0.000502346, -0.41749, -47.3243, 0.0038949, 13.5161, 220.023, 0.00564781, 0.00107854, 0.00124958, 0.00249011, -0.0861252, 79.5284, 0, 0.00108102, 0.000746663, 0.00148838, -0.725006, 48.3433, 0, 0.00108156, -3.19579, -31.5895, -203.8, -2.8269, -22.0513, -120.152, 0.0011854, 0.000649371, -0.00312506, 0.000702016, 0.000702016, 0.000702016
6889, 1,0.00119014, -0.000655308, 0.000438795, 2.26842, -41.0811, 0.00344324, 19.4555, 192.442, 0, 0.000977903, 0.00140831, 0.00278633, 2.56214, 85.4463, 0, 0.000979603, 0.000973372, 0.00192016, 2.07031, 58.4772, 0, 0.000980031, 0.9357, -27.8866, -229.388, 1.20073, -22.0732, -154.559, 0.00136577, 0.000807149, -0.0035593, 0.000946011, 0.000946011, 0.000946011
6890, 1,0.00110923, -0.000691056, 0.000461855, 1.01932, -43.3589, 0.00391472, 42.2059, 191.827, 0, 0.00101169, 0.00133905, 0.00266275, 1.29204, 83.2018, 0, 0.00101348, 0.000879967, 0.00174655, 0.793717, 54.6932, 0, 0.00101395, -1.12797, -27.3862, -221.091, -0.790575, -20.7089, -142.58, 0.00128675, 0.000782554, -0.00341924, 0.000844424, 0.000844424, 0.000844424
6891, 1,0.0010836, -0.000735757, 0.000490881, 1.52412, -46.191, 0.00433368, 38.2885, 203.167, 0.0120637, 0.0010453, 0.00132714, 0.00261394, 1.77258, 81.9725, 0, 0.00104738, 0.000840114, 0.00163879, 1.28275, 51.5753, 0, 0.0010479, -2.14152, -26.0252, -217.751, -1.84008, -18.4298, -134.456, 0.00124632, 0.000796014, -0.00337231, 0.000773642, 0.000773642, 0.000773642
6892, 1,0.00108012, -0.000790352, 0.000527228, 3.94199, -49.6537, 0.00483378, 13.5436, 224.57, 0.0390364, 0.00107862, 0.00134132, 0.00264793, 4.1321, 79.6101, 0, 0.00108125, 0.000820636, 0.00160046, 3.8345, 46.9063, 0, 0.00108182, 3.39224, -27.109, -215.114, 3.73841, -18.0301, -126.427, 0.00132608, 0.000747967, -0.00336566, 0.000818234, 0.000818234, 0.000818234
6893, 1,0.00120553, -0.000679933, 0.000455082, -1.17417, -42.634, 0.00381683, 28.7822, 203.656, 0, 0.000977919, 0.00143215, 0.00284106, -0.870557, 91.5337, 0, 0.0009797, 0.000979739, 0.00194081, -1.41351, 63.5178, 0, 0.000980146, -5.35247, -28.9475, -240.301, -5.08389, -23.4237, -162.046, 0.00132776, 0.000881421, -0.00369435, 0.000891593, 0.000891593, 0.000891593
6894, 1,0.00115529, -0.000719315, 0.000480635, 1.67489, -45.1279, 0.00485113, 49.138, 198.773, 0.0245985, 0.00101173, 0.00139384, 0.00276745, 1.93272, 85.9791, 0, 0.00101363, 0.00091696, 0.0018146, 1.43742, 56.3122, 0, 0.00101411, -0.376395, -24.2388, -233.322, -0.129981, -17.9077, -150.899, 0.00134528, 0.000893268, -0.00363356, 0.000882716, 0.000882716, 0.000882716
6895, 1,0.00114625, -0.000767328, 0.000511568, 3.03273, -48.1777, 0.00563729, 39.1299, 209.41, 0.0551243, 0.0010453, 0.00139924, 0.00276203, 3.21385, 84.6832, 0, 0.00104753, 0.000894151, 0.00174593, 2.87555, 52.9735, 0, 0.00104807, 1.81213, -23.9535, -231.908, 2.13401, -16.8232, -144.231, 0.00137232, 0.000884467, -0.00363075, 0.000879311, 0.000879311, 0.000879311
6896, 1,0.0011103, -0.000827385, 0.000551863, 1.73329, -51.9735, 0.00581827, 12.394, 226.264, 0.0770079, 0.00107873, 0.00138658, 0.00270964, 2.12217, 85.1659, 0, 0.00108138, 0.000834028, 0.00160961, 1.37287, 50.9392, 0, 0.00108198, -3.77303, -26.6885, -225.036, -3.49338, -18.0081, -131.316, 0.00126211, 0.000848373, -0.00349226, 0.000728786, 0.000728786, 0.000728786
6897, 1,0.00127091, -0.000703974, 0.000470378, 2.22285, -44.1688, 0.00508019, 22.1673, 218.396, 0.0445043, 0.000977895, 0.00150543, 0.00297312, 2.51965, 91.2566, 0, 0.000980003, 0.00103755, 0.00203984, 2.03365, 62.1932, 0, 0.000980466, 0.968501, -22.6017, -252.136, 1.26246, -17.4582, -170.384, 0.00145617, 0.00101939, -0.00395623, 0.00100397, 0.00100397, 0.00100397
6898, 1,0.00121625, -0.000750118, 0.000501887, 2.26152, -47.0292, 0.00637788, 32.4205, 215.235, 0.0847585, 0.00101157, 0.00146454, 0.00290304, 2.54017, 89.7597, 0, 0.00101381, 0.000968276, 0.00191235, 2.00391, 58.9264, 0, 0.00101432, 0.319893, -23.0145, -246.584, 0.403861, -17.2539, -159.929, 0.00141822, 0.000986478, -0.00386106, 0.000933706, 0.000933706, 0.000933706
6899, 1,0.00114204, -0.000798212, 0.000531766, 0.297113, -50.135, 0.00708976, 27.9386, 217.411, 0.114608, 0.00104518, 0.00140686, 0.00282235, 0.587878, 88.6903, 0, 0.00104762, 0.000877569, 0.00176225, 0.0293707, 55.6689, 0, 0.00104818, -0.796463, -22.9325, -242.342, -0.43981, -16.267, -150.3, 0.00138015, 0.000975729, -0.00379487, 0.000867112, 0.000867112, 0.000867112
6900, 1,0.00113723, -0.00086435, 0.00057633, 0.412345, -54.2886, 0.00734405, 9.20835, 231.161, 0.135271, 0.00107859, 0.00142355, 0.00282917, 0.692659, 88.9897, 0, 0.00108141, 0.000852544, 0.00168431, 0.195068, 53.2569, 0, 0.00108204, -0.577569, -26.557, -239.835, -0.397475, -18.3992, -140.974, 0.00139045, 0.000920101, -0.00375437, 0.000831196, 0.000831196, 0.000831196
6901, 1,0.00133822, -0.000730935, 0.000488302, 2.9317, -45.8646, 0.00754851, 7.01821, 232.706, 0.144539, 0.00097755, 0.00158136, 0.00311246, 3.20989, 94.9025, 0, 0.000980063, 0.00109642, 0.00214452, 2.79479, 64.7614, 0, 0.000980543, 1.88277, -20.5072, -266.083, 2.0945, -15.9045, -180.474, 0.00153207, 0.00113828, -0.00421018, 0.00106099, 0.00106099, 0.00106099
6902, 1,0.00127854, -0.000778775, 0.000520905, 4.06609, -48.8396, 0.00825898, 0.651147, 236.62, 0.177377, 0.00101106, 0.00153689, 0.00301262, 4.39495, 91.8952, 0, 0.00101386, 0.0010204, 0.00198256, 3.76077, 59.8814, 0, 0.00101439, 0.638396, -19.6613, -256.663, 0.751398, -14.4895, -165.906, 0.00145748, 0.00110337, -0.00405187, 0.000954755, 0.000954755, 0.000954755
6903, 1,0.0012025, -0.000831857, 0.000554557, 0.681857, -52.2355, 0.0092023, 2.38004, 238.879, 0.208385, 0.00104468, 0.00147769, 0.00295069, 0.9972, 92.5936, 0, 0.0010477, 0.000928008, 0.00184832, 0.383369, 58.2527, 0, 0.00104828, -0.772159, -21.3854, -255.623, -0.536091, -15.3843, -158.838, 0.001442, 0.00108222, -0.00402655, 0.000905443, 0.000905443, 0.000905443
6904, 1,0.00119529, -0.000901049, 0.00060101, 3.1863, -56.6049, 0.00994345, -1.37223, 239.026, 0.243701, 0.0010783, 0.0014934, 0.00295696, 3.31883, 89.7291, 0, 0.00108157, 0.000900017, 0.00176413, 3.19278, 52.485, 0, 0.00108223, 3.0176, -21.6978, -250.507, 3.19131, -14.2662, -146.38, 0.00147918, 0.00105298, -0.00398797, 0.000895765, 0.000895765, 0.000895765
6905, 1,0.00142464, -0.000759366, 0.000507468, 4.85935, -47.6435, 0.0105754, -1.16466, 241.595, 0.263989, 0.000977361, 0.00167597, 0.00324709, 5.0875, 98.6772, 0, 0.000980294, 0.00117527, 0.00224316, 4.76953, 67.4051, 0, 0.000980791, 2.74935, -20.2344, -278.547, 2.94279, -16.2808, -188.877, 0.0016096, 0.00121492, -0.00442561, 0.00112015, 0.00112015, 0.00112015
6906, 1,0.00137468, -0.000808842, 0.000540939, 6.17588, -50.7222, 0.0120214, 2.70562, 256.925, 0.287982, 0.00101069, 0.00164073, 0.00315139, 6.45698, 96.1752, 0, 0.00101414, 0.00110922, 0.00208493, 5.90332, 62.9616, 0, 0.00101468, -0.52365, -17.8654, -270.136, -0.454315, -13.3491, -175.081, 0.00149972, 0.00121895, -0.00427912, 0.000976911, 0.000976911, 0.000976911
6907, 1,0.00131517, -0.000864538, 0.000576317, 5.16902, -54.291, 0.0131154, 2.43306, 258.036, 0.326206, 0.00104418, 0.00160185, 0.00311545, 5.5169, 94.4101, 0, 0.00104793, 0.0010293, 0.00196873, 4.93153, 58.7432, 0, 0.00104854, 1.91834, -17.2853, -267.863, 2.16641, -12.083, -166.313, 0.00152746, 0.00120877, -0.00426801, 0.000970067, 0.000970067, 0.000970067
6908, 1,0.00126676, -0.000938648, 0.000626403, 3.06432, -58.9659, 0.0137842, -0.257062, 247.459, 0.374374, 0.00107784, 0.00157902, 0.00307341, 3.51677, 94.6165, 0, 0.00108167, 0.000955966, 0.00182891, 2.62802, 55.837, 0, 0.00108235, -0.378576, -20.2797, -263.191, -0.226217, -13.6367, -153.648, 0.00148451, 0.00117159, -0.00419122, 0.000876173, 0.000876173, 0.000876173
6909, 1,0.00144221, -0.00078974, 0.000527936, 5.58951, -49.5218, 0.0134126, -1.42519, 247.724, 0.362684, 0.000977034, 0.00169914, 0.0033454, 5.62657, 100.455, 0, 0.000980371, 0.00118811, 0.00230741, 5.6561, 68.0088, 0, 0.000980887, 5.51358, -16.8112, -290.068, 5.63446, -13.5694, -196.092, 0.00169607, 0.00131838, -0.00464437, 0.00118643, 0.00118643, 0.00118643
6910, 1,0.00138633, -0.000838611, 0.000560848, 3.86951, -52.584, 0.0149329, -0.428703, 265.111, 0.385471, 0.00101028, 0.00166522, 0.00327612, 4.25525, 100.568, 0, 0.00101418, 0.00110777, 0.00216573, 3.51029, 66.1433, 0, 0.00101475, 0.405105, -16.8615, -285.248, 0.579181, -13.1889, -185.82, 0.0015885, 0.001313, -0.00453323, 0.00104875, 0.00104875, 0.00104875
6911, 1,0.00132659, -0.000898738, 0.000599416, 2.49133, -56.3932, 0.016118, 2.20815, 265.06, 0.421014, 0.00104375, 0.0016257, 0.0031757, 2.99176, 99.3633, 0, 0.00104794, 0.00102754, 0.00198405, 2.01983, 62.3841, 0, 0.00104857, -3.87827, -15.4249, -278.787, -3.78075, -11.0404, -172.331, 0.00148245, 0.00132696, -0.00442157, 0.000901046, 0.000901046, 0.000901046
6912, 1,0.00136634, -0.000976399, 0.000652142, 8.8802, -61.3056, 0.0166611, -2.58053, 251.991, 0.477927, 0.00107743, 0.00168569, 0.00325792, 8.97408, 94.922, 0, 0.00108179, 0.00104955, 0.00196869, 8.90202, 54.642, 0, 0.0010825, 8.69798, -15.6862, -277.778, 8.85785, -10.0839, -162.7, 0.00168122, 0.00127068, -0.00449196, 0.00104927, 0.00104927, 0.00104927
6913, 1,0.00150928, -0.00082192, 0.000550304, 1.79182, -51.4824, 0.0150799, -4.34125, 250.122, 0.42771, 0.000976981, 0.00178417, 0.00348941, 2.26965, 109.389, 0, 0.000980462, 0.00123635, 0.00240337, 1.49711, 75.7547, 0, 0.000980997, -2.61038, -17.1947, -308.362, -2.65194, -14.8665, -209.746, 0.00166471, 0.00144876, -0.00488834, 0.00113285, 0.00113285, 0.00113285
6914, 1,0.00144443, -0.000867799, 0.000580137, 5.55825, -54.3969, 0.016515, -0.202466, 262.146, 0.446178, 0.00101036, 0.00173325, 0.00335108, 5.98366, 102.719, 4.33681E-19, 0.00101441, 0.00115601, 0.00220028, 5.14771, 67.1072, 4.33681E-19, 0.001015, -1.09852, -13.2582, -293.801, -0.852851, -10.4294, -190.039, 0.00159078, 0.00141855, -0.00467595, 0.0010338, 0.0010338, 0.0010338
6915, 1,0.001385, -0.000934291, 0.000623782, 3.47218, -58.5473, 0.0175333, -1.21265, 262.404, 0.484165, 0.00104379, 0.00169606, 0.00333445, 3.96125, 102.557, 0, 0.00104815, 0.00107568, 0.00209832, 3.17632, 64.2723, 0, 0.0010488, 0.903957, -13.933, -294.641, 0.869656, -10.6359, -183.051, 0.00163395, 0.00140297, -0.00470088, 0.00102913, 0.00102913, 0.00102913
6916, 1,0.00133647, -0.00101413, 0.000678091, 0.533076, -63.6418, 0.0179623, -4.10986, 253.354, 0.526799, 0.00107726, 0.00167711, 0.00329182, 1.19393, 104.481, 0, 0.00108171, 0.000996942, 0.00194227, -0.118619, 62.674, 0, 0.00108245, -4.38387, -17.2641, -291.795, -4.18886, -12.7556, -171.078, 0.00155471, 0.00137756, -0.00462744, 0.000899363, 0.000899363, 0.000899363
6917, 1,0.00158877, -0.000851354, 0.000570073, 7.5091, -53.2988, 0.0161433, -2.38612, 246.949, 0.468875, 0.000976956, 0.00187537, 0.00365088, 8.12204, 107.457, 0, 0.000980562, 0.00130375, 0.00252169, 7.05661, 72.6433, 0, 0.000981116, 5.7287, -7.24333, -320.857, 5.79892, -5.9057, -217.823, 0.00181135, 0.00161802, -0.00517287, 0.00126327, 0.00126327, 0.00126327
6918, 1,0.00150819, -0.000901838, 0.000603548, 5.5203, -56.4219, 0.0172948, -2.91129, 258.352, 0.488565, 0.00101029, 0.00180809, 0.00350415, 6.06201, 107.028, 0, 0.00101436, 0.00120894, 0.00231364, 4.99441, 70.2546, 0, 0.00101497, -0.484136, -9.36502, -311.235, -0.627719, -7.57366, -202.562, 0.00167181, 0.00155833, -0.00496667, 0.0010883, 0.0010883, 0.0010883
6919, 1,0.00142345, -0.000964917, 0.0006444, 2.97743, -60.4517, 0.0182279, -0.385672, 256.971, 0.517901, 0.00104388, 0.0017473, 0.00341307, 3.65888, 106.115, 0, 0.00104821, 0.0010996, 0.00212975, 2.33305, 66.5514, 0, 0.00104888, -3.15974, -9.28144, -305.905, -3.0719, -7.02686, -189.555, 0.00160374, 0.0015456, -0.00487105, 0.00098131, 0.00098131, 0.00098131
6920, 1,0.00139613, -0.00105632, 0.000706645, 3.92772, -66.1944, 0.0188481, -4.53662, 252.31, 0.562892, 0.00107753, 0.00174826, 0.00345422, 4.49019, 104.708, 0, 0.00108215, 0.00104973, 0.00205548, 3.67317, 61.3445, 0, 0.00108291, 3.50736, -10.7022, -306.928, 3.52769, -7.60088, -179.96, 0.00172524, 0.00150532, -0.00492939, 0.00104159, 0.00104159, 0.00104159
6921, 1,0.00161136, -0.00088284, 0.000591406, 4.61475, -55.1845, 0.0166138, -4.43894, 249.601, 0.486432, 0.000977184, 0.00190833, 0.00375043, 5.25529, 113.693, 0, 0.000980821, 0.00131691, 0.00258286, 4.19861, 77.7457, 0, 0.000981393, 2.71677, -6.34873, -337.448, 2.49052, -5.96617, -229.761, 0.00184628, 0.00171629, -0.00540727, 0.00127411, 0.00127411, 0.00127411
6922, 1,0.00153662, -0.000930758, 0.000622562, 4.54561, -58.1713, 0.0179169, -4.28681, 256.986, 0.517727, 0.00101056, 0.00184753, 0.00361009, 5.16106, 110.703, 0, 0.00101468, 0.00122647, 0.00237532, 3.94939, 72.8342, 0, 0.00101531, 0.523369, -7.0633, -325.569, 0.330519, -6.35079, -212.482, 0.00175155, 0.00164997, -0.0051977, 0.00114982, 0.00114982, 0.00114982
6923, 1,0.00149806, -0.00100404, 0.000671193, 5.5577, -62.7151, 0.0190308, -1.55438, 256.507, 0.55083, 0.00104412, 0.00183529, 0.0035419, 6.40224, 107.827, 0, 0.00104858, 0.00116086, 0.00221241, 4.7584, 67.0766, 0, 0.00104927, -1.46339, -3.16908, -318.848, -2.05534, -2.2105, -196.964, 0.0016658, 0.00168754, -0.00510283, 0.00101031, 0.00101031, 0.00101031
6924, 1,0.00145783, -0.00109414, 0.000732718, 5.95776, -68.5227, 0.019492, -5.94713, 254.402, 0.585626, 0.00107745, 0.00182422, 0.00356658, 6.60308, 106.914, 0, 0.0010822, 0.00109508, 0.00211307, 5.44461, 62.016, 0, 0.00108299, 4.49041, -5.59776, -319.636, 4.5401, -3.77093, -186.817, 0.00178007, 0.00162777, -0.0051425, 0.00107286, 0.00107286, 0.00107286
6925, 1,0.00165727, -0.000906954, 0.000605879, 1.22128, -56.7554, 0.0185471, -4.30878, 258.974, 0.535973, 0.000977012, 0.00195873, 0.00387307, 1.62221, 122.179, 0, 0.000980941, 0.00135755, 0.00267552, 0.958672, 84.999, 0, 0.000981533, -3.2172, -7.1692, -356.151, -3.4727, -7.0241, -244.5, 0.00185575, 0.00181053, -0.00564871, 0.0012636, 0.0012636, 0.0012636
6926, 1,0.00160724, -0.000970347, 0.000647825, 4.43157, -60.6867, 0.0207448, -5.88738, 278.902, 0.572834, 0.0010102, 0.00192951, 0.00375608, 4.93447, 115.744, 0, 0.00101504, 0.00128592, 0.00247459, 3.94362, 76.0688, 0, 0.00101569, -0.0697965, -4.91096, -342.252, -0.486161, -4.38175, -223.339, 0.00181897, 0.00176184, -0.00545882, 0.0011841, 0.0011841, 0.0011841
6927, 1,0.00155665, -0.00104438, 0.000697501, 5.02469, -65.3356, 0.0219148, -1.36749, 274.364, 0.608884, 0.00104349, 0.00190491, 0.00370467, 5.60918, 112.993, 0, 0.00104862, 0.00120927, 0.00231996, 4.54693, 70.2546, 0, 0.00104935, 1.17128, -2.87392, -337.275, 0.81694, -2.19216, -209.389, 0.00180184, 0.001763, -0.00539818, 0.00112027, 0.00112027, 0.00112027
6928, 1,0.00142602, -0.00113582, 0.000757993, -0.493949, -71.1204, 0.0213495, -4.54425, 261.858, 0.628815, 0.00107711, 0.00180457, 0.00358652, 0.111565, 114.575, 0, 0.00108217, 0.00104863, 0.00207969, -1.08935, 67.9038, 0, 0.00108299, -4.24723, -7.73848, -331.74, -4.59478, -6.37609, -192.741, 0.00171439, 0.00168033, -0.00525373, 0.000970961, 0.000970961, 0.000970961
6929, 1,0.00180624, -0.000950481, 0.000633065, 5.37811, -59.8318, 0.0223045, -22.7812, 299.773, 0.627536, 0.000934015, 0.00211294, 0.00416701, 4.96347, 127.413, 0, 0.00093909, 0.00150332, 0.00292122, 5.97265, 87.4089, 0, 0.0009397, 4.89636, -6.27411, -380.86, 5.66992, -4.8049, -263.092, 0.0021124, 0.00189571, -0.00607548, 0.00149749, 0.00149749, 0.00149749
6930, 1,0.00175875, -0.00104247, 0.000694155, 0.465941, -66.1317, 0.0258966, -28.3717, 357.682, 0.633601, 0.000965855, 0.0021038, 0.00408501, -0.0370065, 133.178, 0, 0.000972462, 0.00141426, 0.00271172, 0.978111, 87.9573, 0, 0.000973176, -10.7387, -12.3422, -376.454, -7.6988, -9.1767, -246.996, 0.00186964, 0.00187018, -0.00590074, 0.00122078, 0.00122078, 0.00122078
6931, 1,0.0016942, -0.00112923, 0.000749613, 0.559097, -71.718, 0.0269588, -25.8587, 353.505, 0.665815, 0.00099785, 0.00206231, 0.00399199, -0.320305, 130.696, 8.67362E-19, 0.00100487, 0.00132669, 0.00250137, 1.50046, 81.5093, 8.67362E-19, 0.00100567, -13.7869, -9.50551, -368.796, -10.3479, -5.61516, -228.565, 0.00176281, 0.00189421, -0.00577766, 0.0010602, 0.0010602, 0.0010602
6932, 1,0.00163317, -0.00121588, 0.000810672, 6.73445, -76.7501, 0.0244655, -27.7272, 303.154, 0.706251, 0.00102975, 0.0020333, 0.00392502, 6.39577, 120.574, 0, 0.00103611, 0.00123672, 0.00231815, 7.25065, 68.8874, 0, 0.00103698, 6.20211, -10.5235, -357.4, 7.15178, -6.31069, -207.503, 0.00202819, 0.00170218, -0.00568673, 0.00123378, 0.00123378, 0.00123378
6933, 1,0.000980591, -0.000185691, 0.000166432, 53.3672, -9.5124, 0.0441292, 477.233, -153.884, 0.692705, 0.00099148, 0.00104269, 0.000830556, 54.9287, -12.2075, 0, 0.000987648, 0.000949594, 0.000702868, 53.5046, -14.3612, 0, 0.000987682, -0.159384, -13.6345, 50.4164, -0.24798, -7.84589, 51.1774, -0.000231843, -0.000523181, 0.000952864, -0.000271811, -0.000271811, -0.000271811
6934, 1,0.00111987, 0.000214933, 0.000159234, 70.1797, 13.1548, 0.0366453, 456.801, -129.474, 0.564898, 0.001026, 0.00133135, 0.000960387, 82.8943, -29.2907, 0, 0.00102334, 0.000910179, 0.000654023, 57.7003, -21.4431, 0, 0.00102321, 10.2819, -4.27654, 81.8668, 10.0254, -1.66988, 55.9739, -0.000269565, -0.000573758, 0.00131851, -0.000153913, -0.000153913, -0.000153913
6935, 1,0.00153067, 0.000395474, 0.000277906, 99.2261, 24.9315, 0.0301028, 473.986, -157.088, 0.440684, 0.00106499, 0.00192521, 0.0013613, 124.063, -44.4046, 0, 0.00106216, 0.0011368, 0.000807689, 74.4554, -27.7343, 0, 0.00106188, 7.7741, 5.03776, 120.402, 7.21751, 4.53375, 71.4516, -0.000543828, -0.000603593, 0.00186801, -0.000293843, -0.000293843, -0.000293843
6936, 1,0.00189413, 0.000594186, 0.000405256, 110.227, 37.1201, 0.0202191, 465.415, -151.031, 0.253425, 0.00109971, 0.0024811, 0.00174026, 147.097, -39.693, 0, 0.00109728, 0.00131295, 0.000972123, 73.5581, -15.3608, 0, 0.00109685, -9.90061, -6.67705, 135.657, -10.6045, -12.0222, 68.7091, -0.000824528, -0.000777209, 0.00224602, -0.000455188, -0.000455188, -0.000455188
6937, 1,0.000879147, -0.000200347, 0.000189837, 48.8213, -9.83558, 0.043213, 459.55, -150.216, 0.683199, 0.000972544, 0.00102166, 0.000785508, 54.673, -16.9407, 0, 0.000968987, 0.00076316, 0.000540825, 44.9105, -18.1251, 0, 0.000969005, 3.2013, 6.80347, 40.8172, 3.28199, 8.95407, 42.1393, -0.00022676, -0.000163276, 0.000664658, -0.00024762, -0.00024762, -0.00024762
6938, 1,0.00112413, 0.000221553, 0.000156888, 73.8328, 14.0961, 0.0334507, 470.636, -150.174, 0.501374, 0.0010065, 0.00134474, 0.000909519, 87.793, -37.2526, 0, 0.0010037, 0.000904001, 0.000597145, 59.9514, -27.7276, 0, 0.00100355, 10.4742, 15.0057, 86.2778, 10.5894, 13.7381, 58.8553, -0.00038603, -0.000294228, 0.00128461, -0.00023573, -0.00023573, -0.00023573
6939, 1,0.00132837, 0.000406476, 0.000280482, 87.9412, 26.1288, 0.0247689, 464.461, -141.336, 0.335802, 0.00104376, 0.00172199, 0.0012132, 113.649, -44.372, 0, 0.00104157, 0.000946625, 0.000671984, 62.6353, -25.8982, 0, 0.00104126, 3.64117, 16.8398, 112.635, 3.68454, 13.0343, 60.9756, -0.000629666, -0.000355882, 0.00170558, -0.000338333, -0.000338333, -0.000338333
6940, 1,0.00165971, 0.000585178, 0.000395737, 110.537, 37.2877, 0.0179468, 462.745, -143.803, 0.205871, 0.00107841, 0.00223827, 0.00148361, 147.634, -55.8216, 0, 0.00107655, 0.00108826, 0.000713291, 73.6465, -29.9073, 0, 0.0010761, 8.29974, 18.7538, 140.411, 7.84291, 10.8038, 71.0751, -0.000697645, -0.000490802, 0.00209444, -0.000298113, -0.000298113, -0.000298113
6941, 1,0.00100567, -0.000191593, 0.000180976, 54.5045, -9.44987, 0.0414651, 461.371, -151.749, 0.65106, 0.000972333, 0.00112865, 0.00090096, 59.1636, -18.5726, 0, 0.000968872, 0.000906031, 0.000659309, 51.5715, -19.8318, 0, 0.000968892, 6.33924, 2.28338, 47.0951, 6.56904, 3.59919, 49.327, -0.000176667, -0.000284469, 0.000762216, -0.000194911, -0.000194911, -0.000194911
6942, 1,0.00107575, 0.000210423, 0.000150168, 67.019, 13.4876, 0.0329967, 475.943, -155.245, 0.49042, 0.00100655, 0.00128349, 0.000893096, 80.0172, -29.42, 0, 0.00100355, 0.000869347, 0.000598741, 54.2778, -20.1385, 0, 0.0010034, -0.1903, 8.48824, 79.9622, 0.549723, 6.29904, 53.5667, -0.000480475, -0.000319193, 0.00127689, -0.000320283, -0.000320283, -0.000320283
6943, 1,0.0013579, 0.000401354, 0.000278677, 87.8881, 25.8461, 0.0245207, 474.515, -157.057, 0.331178, 0.00104369, 0.00175159, 0.00123572, 113.406, -41.598, 0, 0.00104114, 0.000970807, 0.000697278, 62.645, -23.2556, 0, 0.00104083, 1.58141, 12.8009, 110.412, 2.37902, 7.93672, 59.451, -0.000628259, -0.000406472, 0.00170972, -0.000322752, -0.000322752, -0.000322752
6944, 1,0.00156288, 0.0005695, 0.000387854, 104.844, 36.4707, 0.0148929, 464.169, -147.804, 0.146487, 0.00107811, 0.00212637, 0.00141459, 141.154, -54.255, 0, 0.00107624, 0.00100606, 0.00066658, 68.7136, -28.5562, 0, 0.00107579, 8.50236, 19.5096, 134.753, 8.44851, 10.7014, 66.5188, -0.000670775, -0.000449237, 0.00200056, -0.000266098, -0.000266098, -0.000266098
6945, 1,0.00086992, -0.000171838, 0.000160192, 46.8754, -8.56013, 0.0408058, 487.329, -168.898, 0.63116, 0.000972832, 0.000975685, 0.000757661, 50.2892, -18.0536, 0, 0.000969008, 0.000788486, 0.000580317, 45.6648, -19.4103, 0, 0.00096903, 2.52691, 7.93924, 43.6945, 2.69287, 10.0152, 45.5227, -0.000242063, -0.000167031, 0.000701691, -0.000262408, -0.000262408, -0.000262408
6946, 1,0.0011059, 0.000202773, 0.000144785, 69.0006, 12.9761, 0.0330215, 479.788, -160.986, 0.490582, 0.00100694, 0.00130652, 0.000922432, 81.6591, -30.9556, 0, 0.00100383, 0.000906302, 0.000648783, 56.4909, -22.1108, 0, 0.00100369, 4.71541, 6.56097, 81.5904, 5.82063, 4.53593, 55.9758, -0.000396142, -0.000399779, 0.00129801, -0.000234619, -0.000234619, -0.000234619
6947, 1,0.00159582, 0.000396615, 0.000275786, 99.2296, 25.4471, 0.0257932, 478.681, -163.031, 0.355521, 0.00104355, 0.00197838, 0.00134911, 124.176, -42.9779, 0, 0.00104084, 0.00122177, 0.000843349, 74.6091, -25.1417, 0, 0.00104053, -0.0911239, 7.54457, 121.48, 1.19036, 2.61743, 71.6173, -0.000683703, -0.000557327, 0.00193837, -0.000375693, -0.000375693, -0.000375693
6948, 1,0.00165787, 0.000565316, 0.000385056, 103.596, 36.2287, 0.0159725, 470.584, -157.179, 0.167826, 0.00107831, 0.00221549, 0.00151098, 139.617, -46.742, 0, 0.0010761, 0.0011077, 0.000756161, 67.7788, -21.1913, 0, 0.00107565, -2.38691, 9.02423, 133.589, -2.32065, 0.113625, 65.781, -0.000783448, -0.000560019, 0.00210208, -0.000378541, -0.000378541, -0.000378541
6949, 1,0.000901336, -0.00015567, 0.000142931, 49.7045, -7.86676, 0.0397855, 485.02, -165.253, 0.612609, 0.000972979, 0.000987073, 0.000761192, 52.0209, -19.9106, 0, 0.000969335, 0.000834796, 0.000589949, 49.0479, -21.4454, 0, 0.00096936, 7.10625, 5.20796, 47.4176, 7.26196, 8.0719, 49.0022, -0.000171742, -0.000263027, 0.000757466, -0.000194497, -0.000194497, -0.000194497
6950, 1,0.00114133, 0.000195364, 0.000138711, 65.4103, 12.4404, 0.0322412, 476.859, -156.24, 0.475427, 0.00100708, 0.0013344, 0.000943328, 77.5161, -23.5506, 0, 0.001004, 0.000949228, 0.000684795, 53.4449, -15.235, 0, 0.00100386, -4.19819, -2.15473, 77.0048, -3.0646, -3.58284, 52.3524, -0.000465501, -0.000486295, 0.00133369, -0.000311364, -0.000311364, -0.000311364
6951, 1,0.00138114, 0.000390203, 0.00027046, 85.8167, 24.9494, 0.0243779, 476.298, -160.129, 0.328705, 0.00104307, 0.00175371, 0.00121311, 110.174, -39.2235, 0, 0.00104042, 0.00102113, 0.000716884, 61.9158, -21.9406, 0, 0.00104013, -0.77493, 11.3113, 107.134, 0.560923, 6.59192, 58.6688, -0.000637346, -0.000436689, 0.00171043, -0.000336785, -0.000336785, -0.000336785
6952, 1,0.00159423, 0.000563544, 0.000383082, 102.672, 36.0215, 0.0149854, 468.657, -154.837, 0.148545, 0.00107799, 0.00215168, 0.00144874, 138.558, -49.4535, 0, 0.0010759, 0.00104327, 0.000695599, 66.9341, -24.2571, 0, 0.00107546, 2.48317, 14.6291, 131.248, 2.66072, 6.00222, 64.1083, -0.000722843, -0.000490895, 0.00201633, -0.000321138, -0.000321138, -0.000321138
6953, 1,0.000876846, -0.000141001, 0.00012799, 41.5192, -7.22569, 0.0379483, 485.124, -166.461, 0.579831, 0.000973093, 0.000963796, 0.000787295, 44.361, -12.3196, -8.67362E-19, 0.000969409, 0.000800675, 0.000598778, 39.6862, -14.0064, -8.67362E-19, 0.000969435, 1.93859, -1.78813, 36.8084, 2.19822, 1.50251, 38.3184, -0.00016048, -0.00030384, 0.000663819, -0.000183018, -0.000183018, -0.000183018
6954, 1,0.00107326, 0.000187945, 0.000132867, 62.4447, 11.9315, 0.0302557, 483.051, -167.48, 0.439321, 0.00100758, 0.00125659, 0.000874385, 73.9417, -23.9621, 0, 0.00100435, 0.000891892, 0.000620613, 51.1422, -16.0972, 0, 0.00100422, -4.01738, 2.97286, 72.9308, -2.89597, 1.93966, 49.2479, -0.000467524, -0.000398563, 0.00125465, -0.00032063, -0.00032063, -0.00032063
6955, 1,0.00136203, 0.000381522, 0.000262745, 82.9331, 24.3268, 0.0210729, 474.907, -160.988, 0.266607, 0.00104287, 0.00173578, 0.00118683, 106.999, -35.6631, 0, 0.00104027, 0.000994151, 0.000678083, 59.0762, -18.9605, 0, 0.00103999, -2.4944, 6.63661, 102.847, -1.35754, 2.31788, 55.9212, -0.000615596, -0.000486898, 0.00168111, -0.000328382, -0.000328382, -0.000328382
6956, 1,0.00148696, 0.000558558, 0.00037877, 95.965, 35.6089, 0.0114602, 468.664, -158.553, 0.0803262, 0.001078, 0.00203916, 0.00138019, 131.42, -46.9821, 0, 0.00107592, 0.000942083, 0.000644496, 60.6901, -22.2575, 0, 0.00107549, 1.8642, 15.2671, 123.815, 2.08733, 6.85181, 57.8334, -0.000696315, -0.000436491, 0.00189528, -0.000301073, -0.000301073, -0.000301073
6957, 1,0.000639605, -0.000129572, 0.000115841, 31.3257, -6.72172, 0.0343361, 495.716, -186.069, 0.515899, 0.000973449, 0.000701694, 0.000515459, 31.8439, -10.1321, 0, 0.00096949, 0.000598064, 0.000424765, 32.8453, -11.9301, 0, 0.000969518, -2.21001, 2.4472, 30.1591, -1.91938, 6.42511, 31.2845, -0.000214848, -0.000196132, 0.000574988, -0.000238399, -0.000238399, -0.000238399
6958, 1,0.0010363, 0.000180878, 0.000127075, 60.5849, 11.4442, 0.0259572, 483.402, -171.11, 0.359576, 0.00100771, 0.00121157, 0.000860911, 71.5036, -23.0846, 0, 0.00100459, 0.000863334, 0.000622611, 49.8851, -15.6267, 0, 0.00100447, -3.6587, 3.44461, 69.468, -2.66797, 2.77751, 46.7707, -0.000445439, -0.000383346, 0.00120312, -0.000307691, -0.000307691, -0.000307691
6959, 1,0.00134224, 0.000371038, 0.00025428, 82.8579, 23.6178, 0.0164413, 462.359, -144.422, 0.176802, 0.00104219, 0.00170736, 0.00114393, 106.295, -36.2396, 0, 0.00104009, 0.000981494, 0.000663033, 59.564, -20.0916, 0, 0.00103982, -0.0773238, 6.60928, 102.187, 0.869827, 2.44904, 56.9559, -0.000571889, -0.000489937, 0.0016498, -0.000297395, -0.000297395, -0.000297395
6960, 1,0.00142822, 0.000549874, 0.000372524, 91.4333, 34.9873, 0.00753163, 447.856, -131.584, 0.0025981, 0.00107728, 0.00196458, 0.00133675, 125.978, -44.3661, 0, 0.00107576, 0.000908147, 0.000620242, 57.4348, -20.1914, 0, 0.00107533, 0.872804, 12.6052, 119.62, 1.18832, 4.27369, 55.1122, -0.000675662, -0.000442849, 0.00183853, -0.000287174, -0.000287174, -0.000287174
6961, 1,0.000821294, -0.000125762, 0.000110866, 43.8469, -6.58763, 0.0269404, 480.882, -166.037, 0.377454, 0.00097288, 0.000846307, 0.000618993, 42.9778, -11.9734, 0, 0.000969753, 0.000815775, 0.000565639, 45.876, -13.9127, 0, 0.000969783, -3.21609, -3.40867, 42.5449, -2.92668, 0.937415, 43.7272, -0.000264294, -0.000351639, 0.000809834, -0.000290181, -0.000290181, -0.000290181
6962, 1,0.000967556, 0.000174474, 0.000122036, 58.538, 10.9839, 0.0195693, 469.455, -152.535, 0.236884, 0.00100744, 0.0011333, 0.0007834, 68.7897, -23.3214, 0, 0.00100495, 0.000805488, 0.000562609, 48.5956, -16.245, 0, 0.00100483, -0.622511, 5.40632, 65.1805, 0.287893, 5.02693, 43.4201, -0.000384559, -0.000338594, 0.00110134, -0.000254471, -0.000254471, -0.000254471
6963, 1,0.00116852, 0.000360515, 0.000245788, 71.7928, 22.9132, 0.0125681, 459.958, -143.671, 0.10132, 0.00104202, 0.00152583, 0.00104335, 94.6202, -31.4984, 0, 0.00103998, 0.000813887, 0.000572415, 49.0432, -15.885, 0, 0.00103972, -1.85041, 6.31733, 90.0284, -1.11369, 2.24514, 46.5236, -0.000534052, -0.00041256, 0.00145765, -0.000272382, -0.000272382, -0.000272382
6964, 1,0.00140848, 0.000539501, 0.000364651, 91.1333, 34.2781, 0.0061664, 382.249, -121.882, 0, 0.00107697, 0.00193742, 0.00131517, 125.071, -44.5507, 0, 0.00107562, 0.000892529, 0.000607313, 57.6198, -20.9614, 0, 0.00107521, 1.53796, 13.8475, 118.267, 1.80801, 5.71207, 55.3641, -0.000664411, -0.00041492, 0.00180234, -0.000286149, -0.000286149, -0.000286149
6965, 1,0.000727377, -0.000118359, 0.000102453, 41.6929, -6.28057, 0.0199412, 470.856, -154.308, 0.2439, 0.000972534, 0.000747993, 0.000541866, 40.8522, -14.2222, 0, 0.000969943, 0.000725975, 0.000490221, 43.6676, -16.2776, 0, 0.000969975, 2.30789, -0.0659639, 40.4248, 2.54885, 4.34633, 41.9375, -0.000181515, -0.000305257, 0.000717187, -0.000210259, -0.000210259, -0.000210259
6966, 1,0.000857676, 0.00016481, 0.000114368, 51.3519, 10.3784, 0.0143806, 459.739, -140.914, 0.136076, 0.00100709, 0.00101747, 0.000700652, 61.2837, -20.2395, 0, 0.00100493, 0.000700207, 0.000484222, 41.6353, -13.527, 0, 0.00100482, -2.5378, 4.43412, 58.8223, -1.8122, 4.08343, 38.3099, -0.000375374, -0.000292163, 0.000995731, -0.000254961, -0.000254961, -0.000254961
6967, 1,0.00117204, 0.000350074, 0.00023813, 73.8636, 22.2101, 0.00937087, 454.117, -138.196, 0.0386921, 0.0010419, 0.00151864, 0.00102406, 95.9599, -33.3352, 0, 0.00104008, 0.00082829, 0.000564929, 51.8659, -18.2567, 0, 0.00103983, 0.366468, 8.63538, 91.0038, 1.03715, 4.65111, 49.0818, -0.000515649, -0.000381101, 0.00143759, -0.000263826, -0.000263826, -0.000263826
6968, 1,0.0013295, 0.000527532, 0.000355883, 85.7577, 33.4759, 0.00485473, 297.532, -91.3716, 0, 0.0010764, 0.00184872, 0.0012442, 118.967, -41.8679, 0, 0.00107553, 0.000821119, 0.000549367, 52.8974, -18.9076, 0, 0.00107513, 1.89303, 11.8375, 111.873, 2.12023, 3.87027, 50.7324, -0.000614821, -0.000412273, 0.00170656, -0.00024742, -0.00024742, -0.00024742
6969, 1,0.000676549, -0.000113297, 9.63772E-05, 37.5256, -6.08918, 0.0157515, 470.961, -158.005, 0.163544, 0.000972784, 0.000692115, 0.000498722, 36.5781, -10.9796, 0, 0.000970216, 0.000679561, 0.000460734, 39.5402, -13.1549, 0, 0.00097025, -1.45168, -1.81714, 36.2077, -1.23931, 2.6434, 38.0608, -0.000208761, -0.000279801, 0.000666365, -0.000240026, -0.000240026, -0.000240026
6970, 1,0.000889316, 0.00015794, 0.000109345, 55.9672, 9.9175, 0.0112351, 460.081, -145.174, 0.0753141, 0.00100722, 0.00104119, 0.000703968, 65.4044, -23.4525, 0, 0.00100513, 0.000740028, 0.000500624, 46.7368, -17.0866, 0, 0.00100502, 1.34231, 6.71262, 62.3025, 1.99895, 6.52175, 42.7391, -0.000342778, -0.000282447, 0.00100557, -0.000229299, -0.000229299, -0.000229299
6971, 1,0.00107107, 0.000339212, 0.000230137, 67.2412, 21.4907, 0.00689552, 414.199, -118.538, 0, 0.00104156, 0.00140768, 0.000943666, 88.6392, -30.1393, 0, 0.00104007, 0.000736839, 0.000494553, 45.9306, -15.5913, 0, 0.00103982, -0.174067, 7.30929, 83.2827, 0.407963, 3.39101, 42.975, -0.000476366, -0.000349478, 0.00131483, -0.00023481, -0.00023481, -0.00023481
6972, 1,0.00129275, 0.000514734, 0.000346669, 82.9134, 32.626, 0.00359398, 217.101, -63.333, 0, 0.00107577, 0.00180163, 0.00121552, 115.351, -39.9334, 0, 0.00107536, 0.000791584, 0.000534412, 50.7241, -17.62, 0, 0.00107497, 0.715812, 11.2956, 107.789, 0.906652, 3.52064, 48.4326, -0.000609641, -0.000389935, 0.00164765, -0.000253246, -0.000253246, -0.000253246
6973, 1,0.00059588, -0.000108551, 9.08869E-05, 33.709, -5.9117, 0.0123826, 465.491, -152.351, 0.0978682, 0.000972755, 0.000599338, 0.000431124, 32.1586, -9.36923, 0, 0.000970362, 0.000611991, 0.000415723, 36.2852, -11.6621, 0, 0.000970398, -1.45984, -2.07507, 31.6426, -1.21377, 2.48461, 33.7155, -0.000182457, -0.000251871, 0.000586011, -0.00021488, -0.00021488, -0.00021488
6974, 1,0.000819055, 0.000149733, 0.000102962, 51.3019, 9.39646, 0.00877195, 454.454, -139.674, 0.0270404, 0.00100714, 0.000964505, 0.000651394, 60.3175, -21.0453, 0, 0.00100517, 0.000675493, 0.000455721, 42.4572, -15.0201, 0, 0.00100507, 0.298971, 5.87365, 56.9632, 0.802237, 5.7883, 38.4699, -0.000325949, -0.000253574, 0.000920819, -0.000221105, -0.000221105, -0.000221105
6975, 1,0.0010647, 0.000328506, 0.000222649, 67.4752, 20.7843, 0.00557343, 340.09, -102.955, 0, 0.00104132, 0.00138981, 0.000929856, 88.1214, -30.4219, 0, 0.0010401, 0.000742603, 0.000494071, 46.9536, -16.3989, 0, 0.00103986, 0.576833, 8.31824, 82.3706, 1.13968, 4.47904, 43.578, -0.000464751, -0.000327576, 0.00128591, -0.000231887, -0.000231887, -0.000231887
6976, 1,0.00127483, 0.000501208, 0.000337099, 81.563, 31.7362, 0.00263223, 157.396, -44.1948, 0, 0.00107536, 0.00177175, 0.00118763, 113.157, -38.922, 0, 0.00107527, 0.000783405, 0.000522399, 50.1489, -17.2704, 0, 0.00107489, 0.802985, 10.7577, 105.205, 0.965725, 3.1929, 47.6525, -0.000592267, -0.000383284, 0.00160722, -0.000246934, -0.000246934, -0.000246934
6977, 1,0.000548533, -0.000104809, 8.61446E-05, 32.743, -5.77772, 0.0099231, 463.435, -152.132, 0.0499965, 0.000972872, 0.00054272, 0.000377707, 30.75, -10.2197, 0, 0.000970565, 0.000574431, 0.000389045, 35.7261, -12.6213, 0, 0.000970603, -0.0320684, 0.335252, 30.3559, 0.177709, 4.93799, 32.7482, -0.000164732, -0.000206862, 0.000537097, -0.000199637, -0.000199637, -0.000199637
6978, 1,0.000758868, 0.00014165, 9.7128E-05, 47.6872, 8.8857, 0.007005, 424.584, -125.674, 0, 0.00100707, 0.000897105, 0.000600954, 56.2679, -19.6601, 0, 0.00100533, 0.000622197, 0.000415647, 39.2486, -13.9686, 0, 0.00100524, 0.715167, 4.8792, 53.3859, 1.16458, 4.81265, 35.9286, -0.00029422, -0.000245622, 0.000858679, -0.000195774, -0.000195774, -0.000195774
6979, 1,0.00103015, 0.000317204, 0.000214604, 64.7904, 20.0509, 0.0044247, 267.352, -78.1703, 0, 0.00104104, 0.00134458, 0.0009052, 84.7239, -28.6014, 0, 0.0010402, 0.000718148, 0.000483363, 44.9612, -15.1016, 0, 0.00103997, -0.624466, 7.72632, 78.7024, -0.125607, 3.97422, 41.4562, -0.000461401, -0.000307305, 0.00123277, -0.000238151, -0.000238151, -0.000238151
6980, 1,0.00123228, 0.000487148, 0.000327391, 78.6287, 30.8171, 0.00185489, 109.504, -29.1703, 0, 0.00107512, 0.00171503, 0.0011457, 109.29, -37.383, 0, 0.00107527, 0.000755192, 0.000500178, 48.1646, -16.4051, 0, 0.0010749, 0.920942, 9.76904, 101.459, 1.08651, 2.38983, 45.739, -0.00056591, -0.000378021, 0.00155063, -0.000231166, -0.000231166, -0.000231166
6981, 1,0.000502646, -0.000102203, 8.24524E-05, 29.4591, -5.69514, 0.00826756, 460.157, -149.668, 0.0176886, 0.000972895, 0.000489875, 0.000344066, 27.1442, -8.42027, 0, 0.000970644, 0.000535266, 0.000364456, 32.7197, -10.9288, 0, 0.000970683, -0.97039, -0.72957, 26.9608, -0.822166, 3.89053, 29.718, -0.000155425, -0.000196192, 0.000487933, -0.000193269, -0.000193269, -0.000193269
6982, 1,0.000753, 0.000134702, 9.23565E-05, 47.9221, 8.43256, 0.00602137, 368.301, -112.448, 0, 0.00100691, 0.000883575, 0.000583702, 56.0205, -19.8906, 0, 0.0010054, 0.000624252, 0.000410046, 39.9727, -14.527, 0, 0.00100531, 1.36689, 5.36731, 52.9376, 1.79578, 5.39315, 36.3919, -0.000283136, -0.000234707, 0.000840439, -0.000190269, -0.000190269, -0.000190269
6983, 1,0.000984181, 0.000305784, 0.000206535, 62.0634, 19.3139, 0.00355485, 215.185, -63.2813, 0, 0.00104082, 0.00128769, 0.000864184, 81.2774, -27.4576, 0, 0.00104021, 0.000682727, 0.000457165, 42.9395, -14.4789, 0, 0.00103999, -0.308027, 7.56135, 75.1194, 0.133849, 3.90047, 39.4024, -0.000436516, -0.000289212, 0.00117124, -0.000222705, -0.000222705, -0.000222705
6984, 1,0.00119401, 0.000472824, 0.000317507, 75.9077, 29.8844, 0.00124346, 70.742, -15.833, 0, 0.00107484, 0.00166263, 0.00111179, 105.637, -35.8482, 0, 0.00107519, 0.000730817, 0.000485699, 46.3757, -15.549, 0, 0.00107484, 0.505279, 9.17184, 97.8674, 0.667981, 2.00769, 43.9712, -0.000550903, -0.000364993, 0.0014977, -0.000226945, -0.000226945, -0.000226945
6985, 1,0.000471014, -9.99513E-05, 7.94587E-05, 27.8892, -5.62575, 0.00713893, 442.977, -141.873, 0, 0.00097294, 0.000457279, 0.0003262, 25.567, -8.18278, 0, 0.000970831, 0.000504181, 0.000337491, 31.1429, -10.7913, 0, 0.000970872, 0.0200452, -0.861979, 25.3903, 0.167058, 3.70608, 28.5008, -0.000130246, -0.000191708, 0.000454427, -0.000169622, -0.000169622, -0.000169622
6986, 1,0.000702069, 0.000127344, 8.71678E-05, 44.073, 7.96175, 0.00515518, 314.335, -94.875, 0, 0.00100676, 0.000825508, 0.000549603, 51.7191, -17.637, 0, 0.0010055, 0.000580369, 0.000385813, 36.5686, -12.5971, 0, 0.00100542, 0.123712, 4.14685, 48.6406, 0.50618, 4.24494, 33.0401, -0.000273304, -0.000221935, 0.000781274, -0.00018649, -0.00018649, -0.00018649
6987, 1,0.000938679, 0.000294462, 0.000198615, 59.3012, 18.5827, 0.00291998, 177.932, -53.5189, 0, 0.00104076, 0.00123103, 0.000824215, 77.7881, -26.2683, 0, 0.0010403, 0.000648247, 0.000432803, 40.9019, -13.8094, 0, 0.00104009, -0.15354, 7.43989, 71.5186, 0.24816, 3.88407, 37.2959, -0.000414366, -0.000270323, 0.00111091, -0.000209608, -0.000209608, -0.000209608
6988, 1,0.00114853, 0.000458295, 0.000307468, 72.7492, 28.9401, 0.000871356, 48.2474, -9.13364, 0, 0.00107478, 0.00160304, 0.00107238, 101.546, -34.1757, 0, 0.00107522, 0.000698974, 0.000466211, 44.1377, -14.5621, 0, 0.00107488, 0.170022, 8.50496, 93.8521, 0.324199, 1.58545, 41.7766, -0.000531978, -0.000351763, 0.00143841, -0.000219034, -0.000219034, -0.000219034
6989, 1,0.000454544, -9.84457E-05, 7.71757E-05, 26.7059, -5.58807, 0.00654384, 409.289, -134.367, 0, 0.000972944, 0.000438391, 0.000317686, 24.2818, -7.60888, 0, 0.000970945, 0.000489407, 0.000328799, 30.0246, -10.3136, 0, 0.000970988, 0.0921172, -1.40082, 24.1353, 0.225916, 3.13685, 27.5782, -0.000119452, -0.000192869, 0.000435484, -0.000160565, -0.000160565, -0.000160565
6990, 1,0.0006674, 0.000120203, 8.22622E-05, 42.0498, 7.5033, 0.00449204, 275.978, -85.4212, 0, 0.00100669, 0.000783693, 0.000520427, 49.2445, -16.8619, 0, 0.00100557, 0.000552835, 0.000367126, 34.9919, -12.1412, 0, 0.00100549, 0.517203, 3.8554, 46.2131, 0.869549, 4.03316, 31.521, -0.000252526, -0.000213538, 0.000739522, -0.000171344, -0.000171344, -0.000171344
6991, 1,0.000894636, 0.000282996, 0.000190647, 56.5643, 17.846, 0.00243584, 149.988, -46.6969, 0, 0.00104066, 0.00117563, 0.000786295, 74.319, -25.0158, 0, 0.00104029, 0.000615481, 0.000411079, 38.8936, -13.0743, 0, 0.00104009, -0.167749, 7.11361, 68.1015, 0.196955, 3.67088, 35.355, -0.000394748, -0.000254916, 0.00105557, -0.000198924, -0.000198924, -0.000198924
6992, 1,0.00110893, 0.000443517, 0.000297301, 70.2054, 27.9842, 0.000733061, 41.1676, -8.2884, 0, 0.00107475, 0.00154882, 0.00103421, 98.0483, -32.9175, 0, 0.00107518, 0.000673771, 0.000449818, 42.5443, -13.9909, 0, 0.00107485, 0.152125, 8.04471, 90.5557, 0.29769, 1.38397, 40.2911, -0.000512664, -0.000340733, 0.00138765, -0.00021075, -0.00021075, -0.00021075
6993, 1,0.000421445, -9.69352E-05, 7.4931E-05, 24.406, -5.549, 0.00597711, 373.477, -122.207, 0, 0.00097296, 0.000404106, 0.000298422, 21.9072, -6.56864, 0, 0.000971136, 0.000457506, 0.000308191, 27.7995, -9.36566, 0, 0.00097118, -0.0326843, -2.03136, 21.77, 0.0928629, 2.4619, 25.5422, -0.000105447, -0.000188541, 0.000400273, -0.000148134, -0.000148134, -0.000148134
6994, 1,0.00062802, 0.000113163, 7.7492E-05, 39.318, 7.05155, 0.0039911, 246.458, -77.5676, 0, 0.00100674, 0.00073723, 0.000493058, 46.0638, -15.4542, 0, 0.00100572, 0.000520547, 0.000348269, 32.7068, -11.0491, 0, 0.00100565, 0.202574, 3.04188, 43.1182, 0.531121, 3.30169, 29.3145, -0.000236874, -0.000206657, 0.000694149, -0.000161137, -0.000161137, -0.000161137
6995, 1,0.000851504, 0.000271638, 0.000182769, 53.7871, 17.1152, 0.00208482, 129.272, -41.1403, 0, 0.00104069, 0.00112124, 0.000749417, 70.814, -23.6718, 0, 0.00104039, 0.000583549, 0.000391394, 36.8424, -12.2466, 0, 0.0010402, -0.246167, 6.67124, 64.5904, 0.0860807, 3.3698, 33.2838, -0.000375046, -0.000241175, 0.00100032, -0.000188031, -0.000188031, -0.000188031
6996, 1,0.00106856, 0.000428761, 0.00028713, 67.5663, 27.0284, 0.00061017, 33.7388, -6.00657, 0, 0.00107476, 0.00149412, 0.000995504, 94.4689, -31.5843, 0, 0.0010752, 0.000647199, 0.000434585, 40.8258, -13.3482, 0, 0.00107489, 0.117356, 7.57319, 87.0623, 0.252232, 1.20987, 38.5824, -0.000492385, -0.00032916, 0.00133417, -0.00020159, -0.00020159, -0.00020159
6997, 1,0.00039713, -9.58524E-05, 7.30632E-05, 22.8625, -5.52968, 0.00546835, 341.709, -111.845, 0, 0.00097288, 0.000376207, 0.00028003, 20.1533, -5.92091, 0, 0.00097121, 0.000436752, 0.000295845, 26.445, -8.8078, 0, 0.000971255, -0.0976089, -2.20202, 20.0624, 0.0073588, 2.27824, 24.1378, -9.64615E-05, -0.000180735, 0.000372981, -0.000140952, -0.000140952, -0.000140952
6998, 1,0.000598228, 0.000106315, 7.29072E-05, 37.6613, 6.60993, 0.0036283, 225.911, -73.0198, 0, 0.00100672, 0.000700598, 0.000468139, 43.9689, -14.8885, 0, 0.00100577, 0.000497561, 0.000331616, 31.4842, -10.796, 0, 0.0010057, 0.429457, 3.20075, 41.0353, 0.72772, 3.56601, 28.0943, -0.000223072, -0.0001927, 0.000657217, -0.000152871, -0.000152871, -0.000152871
6999, 1,0.000808322, 0.000260174, 0.000174835, 51.0059, 16.3804, 0.00186409, 116.638, -38.1684, 0, 0.00104066, 0.00106677, 0.000713408, 67.3061, -22.3523, 0, 0.00104039, 0.000551511, 0.000371551, 34.781, -11.4414, 0, 0.00104021, -0.329223, 6.19389, 61.1921, -0.0298829, 3.04558, 31.3084, -0.000355829, -0.00022903, 0.000947552, -0.000177599, -0.000177599, -0.000177599
7000, 1,0.00102807, 0.000413879, 0.000276924, 64.9017, 26.0658, 0.000492633, 26.053, -3.08554, 0, 0.00107469, 0.00143892, 0.000956932, 90.8474, -30.2323, 0, 0.00107516, 0.000621197, 0.000419571, 39.111, -12.6889, 0, 0.00107485, 0.114811, 6.95089, 83.6313, 0.244987, 0.900173, 36.9215, -0.000471105, -0.000320618, 0.00128241, -0.000191333, -0.000191333, -0.000191333
7001, 1,0.000352004, -9.45996E-05, 7.10935E-05, 20.3666, -5.50266, 0.00503219, 314.389, -102.841, 0, 0.000972927, 0.00032856, 0.00024649, 17.4679, -5.19385, 0, 0.000971387, 0.000395181, 0.000266335, 24.1629, -8.16955, 0, 0.000971434, 0.12576, -1.90576, 17.3616, 0.226251, 2.55582, 21.7266, -7.99986E-05, -0.000161273, 0.000325277, -0.000125957, -0.000125957, -0.000125957
7002, 1,0.000557228, 9.93867E-05, 6.82949E-05, 34.8891, 6.16566, 0.00331817, 207.133, -67.5067, 0, 0.0010068, 0.0006529, 0.000437519, 40.7665, -13.5497, 0, 0.00100592, 0.000463165, 0.000309576, 29.1365, -9.76694, 0, 0.00100586, 0.0226006, 2.66259, 37.9638, 0.287681, 3.12686, 25.8863, -0.000210511, -0.000181237, 0.00061148, -0.000145864, -0.000145864, -0.000145864
7003, 1,0.000767434, 0.000248701, 0.000166967, 48.4631, 15.6459, 0.00169315, 106.042, -34.7749, 0, 0.00104072, 0.00101437, 0.000677832, 64.0286, -21.2282, 0, 0.00104049, 0.000522176, 0.00035183, 32.9738, -10.83, 0, 0.00104031, -0.247075, 5.78436, 58.1473, 0.0310884, 2.79838, 29.6606, -0.000336203, -0.000218746, 0.000899408, -0.000166485, -0.000166485, -0.000166485
7004, 1,0.000988701, 0.000398895, 0.000266667, 62.2838, 25.0975, 0.000415909, 20.3167, -0.24465, 0, 0.0010747, 0.0013847, 0.000923938, 87.2653, -28.8637, 0, 0.0010752, 0.000596505, 0.000405507, 37.4519, -12.0152, 0, 0.00107491, 0.0662891, 6.24185, 80.283, 0.193383, 0.524049, 35.328, -0.000450577, -0.000313511, 0.00123257, -0.000181826, -0.000181826, -0.000181826
7005, 1,0.0003087, -9.36613E-05, 6.95118E-05, 17.8106, -5.48972, 0.00467025, 292.16, -95.9199, 0, 0.00097289, 0.000288461, 0.000221236, 15.0227, -4.46708, 0, 0.000971448, 0.000350407, 0.000234695, 21.6033, -7.52927, 0, 0.000971496, 0.402053, -1.84197, 14.8411, 0.508906, 2.55083, 19.5281, -6.22203E-05, -0.000146497, 0.000280946, -0.000109378, -0.000109378, -0.000109378
7006, 1,0.000513309, 9.2482E-05, 6.3759E-05, 32.018, 5.72359, 0.00305184, 190.455, -62.0128, 0, 0.00100677, 0.000602417, 0.000404727, 37.4721, -12.2755, 0, 0.00100596, 0.000425689, 0.000285891, 26.6826, -8.80009, 0, 0.0010059, -0.333656, 2.28866, 34.8714, -0.101621, 2.85245, 23.6494, -0.000197775, -0.000167523, 0.000564365, -0.000138643, -0.000138643, -0.000138643
7007, 1,0.00072781, 0.00023719, 0.000159077, 45.9932, 14.91, 0.00153065, 95.3019, -30.6573, 0, 0.00104071, 0.000963294, 0.000643229, 60.8269, -20.1494, 0, 0.00104053, 0.000493966, 0.00033267, 31.2326, -10.2625, 0, 0.00104037, -0.151596, 5.36271, 55.2372, 0.104705, 2.55547, 28.1274, -0.000317117, -0.000209668, 0.000853744, -0.000155905, -0.000155905, -0.000155905
7008, 1,0.000949109, 0.000383784, 0.000256343, 59.6532, 24.1225, 0.000359344, 15.829, 2.20517, 0, 0.00107467, 0.00133006, 0.000890941, 83.6604, -27.4939, 0, 0.00107519, 0.000571874, 0.000391338, 35.7941, -11.3416, 0, 0.00107491, 0.0132932, 5.47569, 76.9926, 0.137562, 0.106274, 33.7809, -0.000430198, -0.000307554, 0.00118401, -0.000172486, -0.000172486, -0.000172486
7009, 1,0.000286388, -9.35836E-05, 6.88428E-05, 15.7952, -5.51657, 0.00436924, 273.125, -89.4254, 0, 0.000972954, 0.000271062, 0.000221482, 13.287, -3.24747, 0, 0.000971595, 0.000323436, 0.000223977, 19.3804, -6.39375, 0, 0.000971644, 0.212735, -3.29772, 12.8274, 0.332155, 1.01595, 17.8332, -4.65063E-05, -0.000156408, 0.000255361, -9.46779E-05, -9.46779E-05, -9.46779E-05
7010, 1,0.000476804, 8.56654E-05, 5.93563E-05, 29.7456, 5.28687, 0.00285528, 178.655, -58.6387, 0, 0.00100686, 0.000559424, 0.000378832, 34.7838, -11.3717, 0, 0.00100609, 0.000395532, 0.000267497, 24.8176, -8.20093, 0, 0.00100604, -0.116149, 1.74214, 32.489, 0.0918806, 2.40811, 22.1028, -0.00017867, -0.00016358, 0.000526658, -0.000124818, -0.000124818, -0.000124818
7011, 1,0.000687946, 0.000225719, 0.000151243, 43.4239, 14.1769, 0.00139281, 86.4925, -27.5731, 0, 0.00104078, 0.000911911, 0.000610403, 57.5232, -18.9669, 0, 0.00104063, 0.000465679, 0.000315122, 29.3993, -9.5894, 0, 0.00104048, -0.157367, 4.78399, 52.2742, 0.0825537, 2.16914, 26.5165, -0.000298626, -0.00020239, 0.000808792, -0.00014578, -0.00014578, -0.00014578
7012, 1,0.000909457, 0.0003686, 0.000245984, 57.0507, 23.1437, 0.00031602, 12.1993, 4.33899, 0, 0.00107474, 0.00127525, 0.000857431, 80.0776, -26.1654, 0, 0.00107527, 0.000547367, 0.000376929, 34.1738, -10.7104, 0, 0.001075, 0.00327969, 4.7104, 73.7826, 0.125817, -0.293651, 32.299, -0.000409611, -0.000302193, 0.00113651, -0.000162932, -0.000162932, -0.000162932
7013, 1,0.000281715, -9.3828E-05, 6.84584E-05, 16.0316, -5.5587, 0.00415135, 259.299, -84.6652, 0, 0.000972952, 0.00026218, 0.000215777, 13.2871, -3.53657, 0, 0.000971672, 0.000322816, 0.000225198, 19.8038, -6.76505, 0, 0.000971723, 0.949163, -3.14046, 12.801, 1.07244, 1.19705, 18.0257, -3.50632E-05, -0.000156522, 0.000248724, -8.43912E-05, -8.43912E-05, -8.43912E-05
7014, 1,0.000434992, 7.91162E-05, 5.52507E-05, 27.0317, 4.86369, 0.00268316, 167.628, -54.7452, 0, 0.00100685, 0.000511138, 0.000351966, 31.6492, -10.1904, 0, 0.00100612, 0.000360193, 0.000248466, 22.5255, -7.32193, 0, 0.00100608, 0.0376171, 0.963034, 29.5706, 0.226935, 1.7472, 19.9917, -0.000156537, -0.000160485, 0.000482265, -0.000107816, -0.000107816, -0.000107816
7015, 1,0.000647554, 0.000214295, 0.000143432, 40.7969, 13.4465, 0.00127035, 78.6269, -24.7774, 0, 0.00104077, 0.000860118, 0.000578114, 54.1673, -17.7402, 0, 0.00104065, 0.00043668, 0.000297639, 27.5004, -8.87062, 0, 0.0010405, -0.238213, 4.19224, 49.2667, -0.01535, 1.78811, 24.8391, -0.000281018, -0.00019475, 0.000763644, -0.000136534, -0.000136534, -0.000136534
7016, 1,0.00087064, 0.00035339, 0.000235618, 54.5005, 22.1635, 0.000289535, 9.45178, 6.33495, 0, 0.00107472, 0.00122123, 0.000824332, 76.545, -24.8471, 0, 0.00107526, 0.00052374, 0.000363046, 32.6083, -10.0896, 0, 0.001075, -0.0332696, 3.9201, 70.6544, 0.0882972, -0.699868, 30.8805, -0.00038975, -0.000297452, 0.00109052, -0.000154097, -0.000154097, -0.000154097
7017, 1,0.000231276, -9.35361E-05, 6.73739E-05, 12.3953, -5.57429, 0.00395656, 246.683, -80.0826, 0, 0.000973027, 0.000213412, 0.000184811, 9.59028, -1.94415, 0, 0.000971794, 0.000273869, 0.000192707, 16.3909, -5.2546, 0, 0.000971846, 0.179406, -3.55956, 9.2126, 0.271902, 0.767819, 14.7241, -2.60171E-05, -0.000139456, 0.000196773, -7.72357E-05, -7.72357E-05, -7.72357E-05
7018, 1,0.00039774, 7.26994E-05, 5.12493E-05, 24.6896, 4.44706, 0.00252728, 157.728, -51.3324, 0, 0.00100694, 0.000467505, 0.000323681, 28.8925, -9.25337, 0, 0.00100625, 0.000329317, 0.000227995, 20.5979, -6.68565, 0, 0.00100621, 0.0599737, 0.585144, 27.115, 0.240544, 1.4843, 18.3321, -0.000141083, -0.000152895, 0.00044402, -9.72607E-05, -9.72607E-05, -9.72607E-05
7019, 1,0.000606967, 0.000202933, 0.000135686, 38.2051, 12.7196, 0.00115024, 70.9042, -22.0191, 0, 0.00104086, 0.000808143, 0.000545374, 50.8478, -16.572, 0, 0.00104077, 0.000407529, 0.000279628, 25.6381, -8.20873, 0, 0.00104063, -0.16908, 3.57008, 46.3151, 0.0401082, 1.39279, 23.1933, -0.000261126, -0.000188686, 0.000718736, -0.000124907, -0.000124907, -0.000124907
7020, 1,0.000831686, 0.000338178, 0.000225271, 51.9506, 21.1833, 0.000277207, 7.41774, 8.26286, 0, 0.0010748, 0.00116709, 0.000791162, 73.0135, -23.5269, 0, 0.00107536, 0.000499926, 0.000349046, 31.0411, -9.46672, 0, 0.00107511, -0.0730336, 3.10571, 67.548, 0.0467644, -1.11344, 29.4668, -0.000369909, -0.000293113, 0.00104492, -0.000145292, -0.000145292, -0.000145292
7021, 1,0.000198356, -9.37216E-05, 6.68402E-05, 9.86852, -5.61217, 0.00381564, 238.139, -77.5605, 0, 0.000973066, 0.000187894, 0.000172761, 7.40272, -1.0101, 0, 0.000971858, 0.00023615, 0.000167217, 13.7922, -4.40292, 0, 0.000971912, 0.0368132, -3.76599, 6.75948, 0.113811, 0.512311, 12.5826, -1.414E-05, -0.00012836, 0.000158646, -6.6938E-05, -6.6938E-05, -6.6938E-05
7022, 1,0.000364972, 6.63997E-05, 4.73596E-05, 22.5302, 4.03614, 0.00239082, 149.283, -48.6469, 0, 0.00100696, 0.00042855, 0.00029848, 26.3306, -8.31479, 0, 0.0010063, 0.000302679, 0.000210228, 18.837, -6.04666, 0, 0.00100626, -0.0399546, 0.0860033, 24.8983, 0.132881, 1.10477, 16.9023, -0.000128279, -0.000147866, 0.000410961, -8.93169E-05, -8.93169E-05, -8.93169E-05
7023, 1,0.000567568, 0.000191636, 0.000128035, 35.684, 11.9963, 0.00103439, 63.5415, -19.471, 0, 0.00104086, 0.000757331, 0.000513206, 47.5986, -15.4207, 0, 0.00104079, 0.000379681, 0.000262263, 23.8509, -7.56221, 0, 0.00104066, -0.124638, 2.92781, 43.4589, 0.0752736, 0.991658, 21.6197, -0.000242016, -0.000183266, 0.000675526, -0.000113944, -0.000113944, -0.000113944
7024, 1,0.00079296, 0.000322973, 0.000215405, 49.4386, 20.2035, 0.000275091, 5.89319, 10.1527, 0, 0.00107478, 0.00111316, 0.000758151, 69.5195, -22.2336, 0, 0.00107534, 0.000476387, 0.000335245, 29.5132, -8.87018, 0, 0.00107511, -0.0704607, 2.26959, 64.5016, 0.0483372, -1.53362, 28.0958, -0.00034957, -0.000289584, 0.00100007, -0.000135967, -0.000135967, -0.000135967
7025, 1,0.000174964, -9.42388E-05, 6.66858E-05, 7.92643, -5.66604, 0.00368301, 229.69, -74.6347, 0, 0.000973207, 0.000171278, 0.00016916, 5.86617, -0.165954, 0, 0.000972032, 0.000207214, 0.000149936, 11.6819, -3.64097, 0, 0.000972087, -0.0152633, -4.19954, 4.71266, 0.0574875, 0.0429956, 10.8224, -1.79303E-06, -0.00012354, 0.000127785, -5.59324E-05, -5.59324E-05, -5.59324E-05
7026, 1,0.000331035, 6.02938E-05, 4.36795E-05, 20.256, 3.63447, 0.00226183, 141.164, -45.9272, 0, 0.00100706, 0.000388617, 0.000274063, 23.6613, -7.30093, 0, 0.00100643, 0.000274693, 0.000192964, 16.9558, -5.33121, 0, 0.0010064, -0.122371, -0.512148, 22.5373, 0.0402884, 0.637374, 15.316, -0.000113978, -0.000143724, 0.000376069, -7.99097E-05, -7.99097E-05, -7.99097E-05
7027, 1,0.000529621, 0.000180348, 0.000120537, 33.2354, 11.2739, 0.000927949, 56.7432, -17.082, 0, 0.00104094, 0.000707974, 0.000481975, 44.4227, -14.2729, 0, 0.00104089, 0.000353281, 0.000245888, 22.1348, -6.91789, 0, 0.00104077, -0.143691, 2.24757, 40.7148, 0.0475761, 0.564449, 20.1416, -0.000224325, -0.000178655, 0.000634603, -0.000104364, -0.000104364, -0.000104364
7028, 1,0.000755014, 0.000307779, 0.000205781, 46.9764, 19.2245, 0.000281169, 4.75638, 12.0385, 0, 0.00107486, 0.00106, 0.000725569, 66.0749, -20.949, 0, 0.00107543, 0.000453671, 0.000321943, 28.0364, -8.28169, 0, 0.00107521, -0.0825013, 1.40588, 61.5236, 0.036254, -1.9681, 26.7769, -0.000329668, -0.000286714, 0.000956458, -0.000127045, -0.000127045, -0.000127045
7029, 1,0.000154786, -9.49299E-05, 6.67054E-05, 6.17902, -5.72884, 0.00354343, 220.718, -71.4466, 0, 0.000973223, 0.000157945, 0.000169, 4.58057, 0.663712, 0, 0.000972085, 0.000180347, 0.000134895, 9.66673, -2.8941, 0, 0.000972141, -0.0336674, -4.6627, 2.70523, 0.0372966, -0.447877, 9.09289, 1.1016E-05, -0.000119486, 9.74624E-05, -4.44244E-05, -4.44244E-05, -4.44244E-05
7030, 1,0.000297174, 5.44056E-05, 4.02152E-05, 17.9801, 3.24296, 0.0021349, 133.083, -43.1325, 0, 0.00100708, 0.00034898, 0.000250365, 21.0003, -6.29113, 0, 0.00100648, 0.000246572, 0.000175978, 15.0638, -4.61892, 0, 0.00100645, -0.157105, -1.13882, 20.1693, -0.00333337, 0.146974, 13.7131, -9.87608E-05, -0.000140175, 0.00034092, -6.9546E-05, -6.9546E-05, -6.9546E-05
7031, 1,0.000491931, 0.000169098, 0.000113282, 30.7939, 10.5537, 0.000829251, 50.333, -14.721, 0, 0.00104095, 0.000658926, 0.000451208, 41.2568, -13.1164, 0, 0.00104093, 0.000327071, 0.000229893, 20.4224, -6.26365, 0, 0.00104081, -0.17341, 1.52451, 37.998, 0.00934899, 0.10685, 18.6748, -0.00020674, -0.000174766, 0.000594365, -9.48691E-05, -9.48691E-05, -9.48691E-05
7032, 1,0.000717745, 0.000292595, 0.00019617, 44.5607, 18.2463, 0.000293466, 3.91627, 13.9222, 0, 0.00107485, 0.00100752, 0.000693376, 62.6768, -19.6755, 0, 0.00107544, 0.000431645, 0.000309062, 26.6064, -7.70369, 0, 0.00107523, -0.103598, 0.521025, 58.6092, 0.0154397, -2.41216, 25.5078, -0.000310129, -0.000284423, 0.000913967, -0.00011847, -0.00011847, -0.00011847
7033, 1,0.000138628, -9.58002E-05, 6.68991E-05, 4.66508, -5.80082, 0.00340072, 211.545, -68.1894, 0, 0.00097332, 0.000148562, 0.000172901, 3.54991, 1.49649, 0, 0.00097222, 0.00015594, 0.00012242, 7.72568, -2.14482, 0, 0.000972278, -0.046751, -5.16243, 0.71972, 0.0234525, -0.971583, 7.38259, 2.39661E-05, -0.000116026, 6.75435E-05, -3.27669E-05, -3.27669E-05, -3.27669E-05
7034, 1,0.000264319, 4.87958E-05, 3.70223E-05, 15.7449, 2.86442, 0.0020085, 125, -40.3034, 0, 0.00100717, 0.000310621, 0.000228099, 18.3926, -5.2833, 0, 0.00100659, 0.000219194, 0.000159887, 13.2007, -3.90774, 0, 0.00100657, -0.172869, -1.79653, 17.8193, -0.0264102, -0.369505, 12.1191, -8.31937E-05, -0.00013723, 0.000306059, -5.87872E-05, -5.87872E-05, -5.87872E-05
7035, 1,0.000454467, 0.000157897, 0.000106119, 28.3695, 9.83637, 0.000736174, 44.1858, -12.3547, 0, 0.00104102, 0.000610138, 0.000420732, 38.1104, -11.9669, 0, 0.00104101, 0.000301072, 0.000214162, 18.7254, -5.61483, 0, 0.00104091, -0.189654, 0.774904, 35.3155, -0.0147041, -0.367682, 17.2269, -0.000188994, -0.000171501, 0.000554707, -8.51729E-05, -8.51729E-05, -8.51729E-05
7036, 1,0.000680878, 0.000277428, 0.000186573, 42.1765, 17.2692, 0.000309984, 3.28629, 15.7978, 0, 0.00107492, 0.000955441, 0.000661484, 59.3111, -18.4112, 0, 0.00107551, 0.000410014, 0.00029649, 25.2073, -7.13399, 0, 0.00107532, -0.122106, -0.382692, 55.7384, -0.00268401, -2.86547, 24.2701, -0.000290679, -0.000282642, 0.000872224, -0.000109967, -0.000109967, -0.000109967
7037, 1,0.000127062, -9.68512E-05, 6.72635E-05, 3.45236, -5.88226, 0.00325668, 202.287, -64.9045, 0, 0.000973341, 0.000143169, 0.000180833, 2.76203, 2.32927, 0, 0.00097228, 0.000134954, 0.000113384, 5.91035, -1.39678, 0, 0.000972339, -0.0561277, -5.6899, -1.24178, 0.0140759, -1.51989, 5.69616, 3.69769E-05, -0.000113033, 3.80315E-05, -2.10545E-05, -2.10545E-05, -2.10545E-05
7038, 1,0.000233166, 4.35315E-05, 3.41669E-05, 13.5855, 2.5019, 0.00188243, 116.922, -37.4616, 0, 0.00100718, 0.000274321, 0.000207852, 15.8777, -4.28257, 0, 0.00100663, 0.000193162, 0.000145115, 11.3966, -3.20296, 0, 0.00100662, -0.180009, -2.47474, 15.5025, -0.0393831, -0.902649, 10.5509, -6.75726E-05, -0.00013475, 0.000271723, -4.79332E-05, -4.79332E-05, -4.79332E-05
7039, 1,0.00041753, 0.00014676, 9.90153E-05, 25.9767, 9.12255, 0.000648655, 38.2996, -9.98462, 0, 0.00104104, 0.000561909, 0.000390787, 34.9974, -10.8243, 0, 0.00104105, 0.000275604, 0.000198954, 17.0594, -4.97148, 0, 0.00104095, -0.198074, 0.000939354, 32.6699, -0.0297472, -0.85767, 15.8019, -0.000171202, -0.000168813, 0.000515688, -7.53833E-05, -7.53833E-05, -7.53833E-05
7040, 1,0.000644346, 0.000262302, 0.000177007, 39.818, 16.2945, 0.000329284, 2.79713, 17.6674, 0, 0.00107492, 0.000903731, 0.000629893, 55.9729, -17.1527, 0, 0.00107553, 0.000388696, 0.000284189, 23.8319, -6.56891, 0, 0.00107534, -0.137257, -1.3039, 52.8994, -0.0173604, -3.32809, 23.0522, -0.00027125, -0.000281302, 0.000831037, -0.000101464, -0.000101464, -0.000101464
7041, 1,0.000120041, -9.80696E-05, 6.77833E-05, 2.54972, -5.9726, 0.00311231, 193.009, -61.6149, 0, 0.000973424, 0.000141313, 0.000192341, 2.16982, 3.16439, 0, 0.000972401, 0.000118306, 0.0001087, 4.30311, -0.647916, 0, 0.000972461, -0.0651346, -6.24286, -3.18516, 0.00577006, -2.09045, 4.02843, 5.0017E-05, -0.000110431, 8.84317E-06, -9.32403E-06, -9.32403E-06, -9.32403E-06
7042, 1,0.00020435, 3.87059E-05, 3.17443E-05, 11.5302, 2.15961, 0.00175694, 108.867, -34.6154, 0, 0.00100727, 0.000240818, 0.000190348, 13.4892, -3.28584, 0, 0.00100676, 0.000168999, 0.000132172, 9.67403, -2.50186, 0, 0.00100675, -0.185435, -3.17251, 13.2155, -0.0493119, -1.45143, 9.00633, -5.19922E-05, -0.000132673, 0.000237897, -3.7088E-05, -3.7088E-05, -3.7088E-05
7043, 1,0.00038136, 0.000135702, 9.198E-05, 23.6268, 8.41295, 0.000567891, 32.733, -7.61432, 0, 0.00104115, 0.000514479, 0.00036156, 31.9297, -9.68827, 0, 0.00104118, 0.000250909, 0.000184459, 15.4358, -4.33351, 0, 0.00104109, -0.203674, -0.79261, 30.0611, -0.0408362, -1.35954, 14.4009, -0.000153463, -0.000166604, 0.00047731, -6.56039E-05, -6.56039E-05, -6.56039E-05
7044, 1,0.000608193, 0.000247235, 0.000167491, 37.4858, 15.3233, 0.000350551, 2.40507, 19.5359, 0, 0.00107503, 0.000852445, 0.000598668, 52.6639, -15.8986, 0, 0.00107565, 0.000367719, 0.000272192, 22.4801, -6.00691, 0, 0.00107548, -0.150558, -2.23883, 50.0853, -0.0298469, -3.79796, 21.8485, -0.00025185, -0.000280305, 0.000790293, -9.29616E-05, -9.29616E-05, -9.29616E-05
7045, 1,0.000117128, -9.94501E-05, 6.84517E-05, 1.91084, -6.07156, 0.00296804, 183.733, -58.3229, 0, 0.000973439, 0.000142463, 0.000206888, 1.72764, 4.00136, 0, 0.000972455, 0.000106642, 0.000109007, 3.0103, 0.101291, 0, 0.000972517, -0.0736045, -6.81677, -5.1137, -0.00158131, -2.67918, 2.37689, 6.30839E-05, -0.000108138, -2.00917E-05, 2.4162E-06, 2.4162E-06, 2.4162E-06
7046, 1,0.000178596, 3.44227E-05, 2.98594E-05, 9.6156, 1.84244, 0.00163234, 100.855, -31.771, 0, 0.0010073, 0.000210954, 0.000176419, 11.2698, -2.29253, 0, 0.00100681, 0.000147308, 0.000121647, 8.06288, -1.80393, 0, 0.00100681, -0.190668, -3.88555, 10.9538, -0.05806, -2.01261, 7.48246, -3.64736E-05, -0.000130907, 0.000204498, -2.62809E-05, -2.62809E-05, -2.62809E-05
7047, 1,0.000346182, 0.000124748, 8.50361E-05, 21.3296, 7.70881, 0.000495866, 27.579, -5.24489, 0, 0.00104117, 0.000468091, 0.000333287, 28.9178, -8.55761, 0, 0.00104122, 0.000227201, 0.000170888, 13.8636, -3.69955, 0, 0.00104114, -0.209017, -1.60292, 27.4848, -0.0506564, -1.87152, 13.0208, -0.00013581, -0.000164799, 0.000439509, -5.58689E-05, -5.58689E-05, -5.58689E-05
7048, 1,0.000572514, 0.000232247, 0.000158043, 35.1846, 14.3563, 0.00037331, 2.08575, 21.4045, 0, 0.00107504, 0.0008017, 0.000567915, 49.3898, -14.6487, 0, 0.00107567, 0.000347157, 0.000260563, 21.1552, -5.44793, 0, 0.00107551, -0.163135, -3.18333, 47.2927, -0.0411522, -4.27245, 20.6574, -0.0002325, -0.000279567, 0.000749924, -8.44803E-05, -8.44803E-05, -8.44803E-05
7049, 1,0.000117644, -0.000100987, 6.92601E-05, 1.46445, -6.17908, 0.00282408, 174.467, -55.0283, 0, 0.000973505, 0.00014607, 0.000223942, 1.39534, 4.84164, 0, 0.00097256, 9.9996E-05, 0.000114347, 2.08719, 0.851726, 0, 0.000972623, -0.0823935, -7.4101, -7.03243, -0.00863088, -3.28435, 0.737804, 7.61843E-05, -0.000106107, -4.88519E-05, 1.41683E-05, 1.41683E-05, 1.41683E-05
7050, 1,0.000156722, 3.07947E-05, 2.86267E-05, 7.88649, 1.55573, 0.00150898, 92.9008, -28.9272, 0, 0.00100735, 0.000185668, 0.000167015, 9.27044, -1.30116, 0, 0.0010069, 0.000128778, 0.000114237, 6.60051, -1.10804, 0, 0.0010069, -0.196883, -4.61206, 8.71243, -0.0666973, -2.58455, 5.97537, -2.10162E-05, -0.000129396, 0.000171448, -1.55148E-05, -1.55148E-05, -1.55148E-05
7051, 1,0.000312246, 0.000113924, 7.82095E-05, 19.0967, 7.01132, 0.000434904, 22.9453, -2.87691, 0, 0.0010412, 0.00042301, 0.000306235, 25.974, -7.43153, 0, 0.00104128, 0.000204717, 0.000158477, 12.3535, -3.06908, 0, 0.0010412, -0.214917, -2.42611, 24.9356, -0.0599874, -2.39115, 11.6584, -0.000118248, -0.000163313, 0.000402191, -4.61847E-05, -4.61847E-05, -4.61847E-05
7052, 1,0.000537425, 0.000217366, 0.00014869, 32.9203, 13.395, 0.000397295, 1.82444, 23.2747, 0, 0.00107509, 0.00075164, 0.000537774, 46.158, -13.4035, 0, 0.00107573, 0.000327091, 0.00024938, 19.8608, -4.89212, 0, 0.00107558, -0.174998, -4.13354, 44.5189, -0.0514205, -4.7494, 19.4772, -0.000213205, -0.00027902, 0.000709878, -7.60254E-05, -7.60254E-05, -7.60254E-05
7053, 1,0.000120894, -0.000102673, 7.02E-05, 1.15008, -6.29476, 0.0026806, 165.221, -51.7315, 0, 0.000973608, 0.000151668, 0.000243038, 1.14443, 5.68523, 0, 0.000972701, 9.77935E-05, 0.000124149, 1.4834, 1.60341, 0, 0.000972766, -0.0911341, -8.01927, -8.94529, -0.0152533, -3.90295, -0.892024, 8.93272E-05, -0.000104269, -7.75152E-05, 2.59366E-05, 2.59366E-05, 2.59366E-05
7054, 1,0.000139467, -2.83624E-05, 2.81385E-05, 6.38832, -1.3941, 0.00138719, 85.0214, -26.0858, 0, 0.00100743, 0.000165783, 0.000162965, 7.54098, -0.311885, 0, 0.00100701, 0.000114056, 0.000110592, 5.3272, -0.414165, 0, 0.00100701, -0.203508, -5.34748, 6.48665, -0.07496, -3.16414, 4.4816, -5.60919E-06, -0.000128053, 0.000138651, -4.78235E-06, -4.78235E-06, -4.78235E-06
7055, 1,0.000279878, 0.000103263, 7.15339E-05, 16.9428, 6.32211, 0.000387145, 18.9309, -0.511262, 0, 0.00104127, 0.000379585, 0.000280763, 23.1147, -6.30972, 0, 0.00104137, 0.000183744, 0.000147522, 10.918, -2.44179, 0, 0.00104131, -0.221193, -3.2581, 22.4085, -0.0688269, -2.91599, 10.3102, -0.000100766, -0.000162057, 0.000365253, -3.65459E-05, -3.65459E-05, -3.65459E-05
7056, 1,0.000503034, 0.000202613, 0.000139455, 30.6979, 12.4407, 0.000422371, 1.61334, 25.1477, 0, 0.00107515, 0.0007024, 0.000508382, 42.9754, -12.1628, 0, 0.0010758, 0.000307596, 0.00023872, 18.6002, -4.3394, 0, 0.00107566, -0.186158, -5.08506, 41.7595, -0.0607225, -5.22645, 18.3054, -0.000193966, -0.000278573, 0.000670061, -6.75966E-05, -6.75966E-05, -6.75966E-05
7057, 1,0.000126277, -0.000104503, 7.12654E-05, 0.92567, -6.41845, 0.00253775, 156.002, -48.4326, 0, 0.000973605, 0.000158879, 0.000263807, 0.954789, 6.5326, 0, 0.000972737, 9.91559E-05, 0.00013754, 1.09741, 2.35661, 0, 0.000972803, -0.0998653, -8.64128, -10.8567, -0.0214432, -4.53229, -2.5161, 0.00010252, -0.000102559, -0.000106161, 3.77267E-05, 3.77267E-05, 3.77267E-05
7058, 1,0.000127258, -3.10592E-05, 2.84446E-05, 5.15101, -1.62614, 0.0012675, 77.2405, -23.2459, 0, 0.00100743, 0.000151754, 0.000164734, 6.11188, 0.676106, 0, 0.00100704, 0.000103548, 0.000111124, 4.27246, 0.278174, 0, 0.00100705, -0.210674, -6.08916, 4.27151, -0.0829323, -3.74912, 2.99753, 9.75891E-06, -0.000126816, 0.000106018, 5.92377E-06, 5.92377E-06, 5.92377E-06
7059, 1,0.000249529, 9.28209E-05, 6.50667E-05, 14.8884, 5.64398, 0.000353759, 15.5888, 1.85293, 0, 0.0010413, 0.000338327, 0.000257381, 20.3633, -5.19197, 0, 0.00104142, 0.000164647, 0.000138388, 9.57293, -1.81747, 0, 0.00104137, -0.227747, -4.09568, 19.8993, -0.0771297, -3.44396, 8.97349, -8.33577E-05, -0.000160967, 0.000328621, -2.69471E-05, -2.69471E-05, -2.69471E-05
7060, 1,0.000469483, 0.000188025, 0.000130373, 28.5238, 11.4948, 0.000448401, 1.44567, 27.0232, 0, 0.00107518, 0.000654161, 0.000479922, 39.8501, -10.926, 0, 0.00107584, 0.000288763, 0.000228676, 17.3767, -3.78948, 0, 0.00107572, -0.196965, -6.03477, 39.0098, -0.0691867, -5.70171, 17.1394, -0.000174781, -0.000278155, 0.000630392, -5.91926E-05, -5.91926E-05, -5.91926E-05
7061, 1,0.000133319, -0.000106475, 7.24527E-05, 0.764045, -6.55004, 0.00239575, 146.82, -45.1316, 0, 0.000973709, 0.000167409, 0.000285961, 0.81246, 7.38419, 0, 0.000972879, 0.000103216, 0.000153657, 0.846141, 3.11162, 0, 0.000972947, -0.108535, -9.27257, -12.7715, -0.0272236, -5.16943, -4.13821, 0.000115773, -0.000100904, -0.00013488, 4.95438E-05, 4.95438E-05, 4.95438E-05
7062, 1,0.000120016, -3.45373E-05, 2.95319E-05, 4.17432, -1.89605, 0.00115053, 69.5887, -20.4087, 0, 0.00100755, 0.000143461, 0.000172211, 4.97999, 1.6631, 0, 0.00100719, 9.72311E-05, 0.000115816, 3.44041, 0.969178, 0, 0.0010072, -0.218077, -6.83306, 2.06185, -0.0904404, -4.33662, 1.51953, 2.50995E-05, -0.0001256, 7.34519E-05, 1.6611E-05, 1.6611E-05, 1.6611E-05
7063, 1,0.000221738, 8.26697E-05, 5.88806E-05, 12.9568, 4.98033, 0.000334432, 12.9048, 4.21571, 0, 0.00104139, 0.000299868, 0.000236733, 17.7482, -4.07781, 0, 0.00104153, 0.000147812, 0.000131468, 8.33434, -1.19584, 0, 0.00104148, -0.234348, -4.93483, 17.4026, -0.084763, -3.97251, 7.6448, -6.60109E-05, -0.000159956, 0.000292187, -1.73805E-05, -1.73805E-05, -1.73805E-05
7064, 1,0.00043694, 0.000173647, 0.00012149, 26.4057, 10.5599, 0.000475299, 1.31647, 28.9018, 0, 0.00107525, 0.000607147, 0.00045262, 36.7931, -9.69376, 0, 0.00107592, 0.000270695, 0.000219355, 16.1946, -3.24248, 0, 0.00107581, -0.206942, -6.97812, 36.2663, -0.076642, -6.17272, 15.9768, -0.000155647, -0.000277682, 0.000590789, -5.08108E-05, -5.08108E-05, -5.08108E-05
7065, 1,0.000141655, -0.000108582, 7.37538E-05, 0.647585, -6.68934, 0.00225482, 137.683, -41.8269, 0, 0.000973733, 0.000177016, 0.000309271, 0.707054, 8.24059, 0, 0.000972942, 0.00010927, 0.000171804, 0.678319, 3.86876, 0, 0.000973011, -0.117155, -9.91035, -14.6943, -0.0326003, -5.81166, -5.76203, 0.000129095, -9.92419E-05, -0.000163752, 6.13942E-05, 6.13942E-05, 6.13942E-05
7066, 1,0.000117208, -3.87306E-05, 3.13326E-05, 3.42836, -2.20112, 0.00103714, 62.1054, -17.5729, 0, 0.00100755, 0.000140282, 0.000184783, 4.11053, 2.64967, 0, 0.00100722, 9.46766E-05, 0.000124244, 2.80768, 1.65918, 0, 0.00100724, -0.225762, -7.5761, -0.147136, -0.0974991, -4.92405, 0.0440153, 4.04224E-05, -0.00012434, 4.08651E-05, 2.72857E-05, 2.72857E-05, 2.72857E-05
7067, 1,0.000197151, 7.29162E-05, 5.3082E-05, 11.1755, 4.33642, 0.000327508, 10.8036, 6.57658, 0, 0.00104139, 0.000265022, 0.000219635, 15.3051, -2.96712, 0, 0.00104155, 0.000133624, 0.00012715, 7.21786, -0.576765, 0, 0.00104151, -0.241079, -5.77126, 14.9137, -0.0917592, -4.49906, 6.32111, -4.87249E-05, -0.000158936, 0.000255861, -7.844E-06, -7.844E-06, -7.844E-06
7068, 1,0.000405595, 0.000159533, 0.00011286, 24.3513, 9.63837, 0.000503011, 1.22296, 30.7831, 0, 0.00107527, 0.00056161, 0.000426732, 33.8157, -8.46539, 0, 0.00107595, 0.000253504, 0.000210869, 15.0572, -2.69804, 0, 0.00107585, -0.216373, -7.91095, 33.5235, -0.0832172, -6.63718, 14.8145, -0.00013656, -0.000277062, 0.000551151, -4.24488E-05, -4.24488E-05, -4.24488E-05
7069, 1,0.00015103, -0.000110825, 7.51683E-05, 0.565474, -6.83626, 0.00211525, 128.607, -38.52, 0, 0.00097382, 0.000187541, 0.000333578, 0.632222, 9.10193, 0, 0.000973067, 0.000116807, 0.000191473, 0.564814, 4.6282, 0, 0.000973138, -0.125588, -10.5503, -16.6299, -0.0375166, -6.45566, -7.39142, 0.000142493, -9.74875E-05, -0.000192873, 7.32821E-05, 7.32821E-05, 7.32821E-05
7070, 1,0.000118066, -4.35378E-05, 3.37458E-05, 2.86848, -2.53657, 0.000928429, 54.8429, -14.7393, 0, 0.00100764, 0.000141338, 0.000201571, 3.45364, 3.63573, 0, 0.00100734, 9.52328E-05, 0.000135757, 2.33584, 2.34825, 0, 0.00100736, -0.233433, -8.3137, -2.36005, -0.103988, -5.50827, -1.43249, 5.57326E-05, -0.000122945, 8.16486E-06, 3.79522E-05, 3.79522E-05, 3.79522E-05
7071, 1,0.000176421, 6.37102E-05, 4.78226E-05, 9.57152, 3.71949, 0.000330725, 9.18071, 8.93627, 0, 0.00104148, 0.000234714, 0.000207018, 13.0736, -1.85954, 0, 0.00104166, 0.000122373, 0.000125728, 6.23478, 0.0399984, 0, 0.00104163, -0.247669, -6.60108, 12.4274, -0.0979886, -5.02105, 4.99904, -3.14875E-05, -0.000157825, 0.000219544, 1.66939E-06, 1.66939E-06, 1.66939E-06
7072, 1,0.000375684, 0.000145757, 0.000104557, 22.3703, 8.73399, 0.000531462, 1.16146, 32.667, 0, 0.00107534, 0.000517879, 0.00040259, 30.9321, -7.24072, 0, 0.00107604, 0.000237316, 0.000203348, 13.9688, -2.15607, 0, 0.00107595, -0.225156, -8.82937, 30.7767, -0.0888176, -7.09272, 13.6498, -0.000117517, -0.000276214, 0.000511389, -3.41029E-05, -3.41029E-05, -3.41029E-05
7073, 1,0.000161247, -0.000113201, 7.66917E-05, 0.510057, -6.99077, 0.00197745, 119.611, -35.2107, 0, 0.000973831, 0.000198843, 0.000358751, 0.582544, 9.96883, 0, 0.000973117, 0.000125463, 0.000212305, 0.488571, 5.39027, 0, 0.000973189, -0.133864, -11.1891, -18.5835, -0.0419907, -7.09852, -9.03032, 0.000155975, -9.55705E-05, -0.000222331, 8.52136E-05, 8.52136E-05, 8.52136E-05
7074, 1,0.00012181, -4.88533E-05, 3.66644E-05, 2.45035, -2.8974, 0.000825906, 47.8715, -11.907, 0, 0.00100763, 0.000145742, 0.000221696, 2.95987, 4.62179, 0, 0.00100736, 9.82329E-05, 0.000149694, 1.98595, 3.03669, 0, 0.00100739, -0.241153, -9.04236, -4.58186, -0.109926, -6.08651, -2.91363, 7.10381E-05, -0.000121341, -2.47396E-05, 4.86156E-05, 4.86156E-05, 4.86156E-05
7075, 1,0.000160084, 5.52596E-05, 4.33106E-05, 8.16631, 3.13961, 0.00034181, 7.93135, 11.2941, 0, 0.00104149, 0.000209851, 0.000199794, 11.0912, -0.754765, 0, 0.00104169, 0.000114184, 0.000127332, 5.38965, 0.654698, 0, 0.00104167, -0.254261, -7.42003, 9.93859, -0.103559, -5.53586, 3.67533, -1.42969E-05, -0.000156534, 0.000183138, 1.11616E-05, 1.11616E-05, 1.11616E-05
7076, 1,0.000347476, 0.000132417, 9.66796E-05, 20.4731, 7.85157, 0.000560617, 1.12941, 34.5542, 0, 0.00107535, 0.000476343, 0.000380588, 28.1588, -6.01963, 0, 0.00107606, 0.000222267, 0.000196934, 12.9335, -1.61629, 0, 0.00107598, -0.233198, -9.72915, 28.0213, -0.0935032, -7.5371, 12.4795, -9.8513E-05, -0.000275051, 0.000471408, -2.57706E-05, -2.57706E-05, -2.57706E-05
7077, 1,0.000172167, -0.000115706, 7.83207E-05, 0.476587, -7.15266, 0.00184182, 110.713, -31.8984, 0, 0.000973943, 0.000210823, 0.000384695, 0.554729, 10.8414, 0, 0.000973268, 0.000134986, 0.000234051, 0.439629, 6.15516, 0, 0.000973342, -0.141948, -11.8224, -20.56, -0.0460283, -7.73674, -10.6827, 0.000169546, -9.34043E-05, -0.000252219, 9.7192E-05, 9.7192E-05, 9.7192E-05
7078, 1,0.000127777, -5.45811E-05, 3.99907E-05, 2.1377, -3.27892, 0.000731488, 41.2827, -9.07644, 0, 0.00100775, 0.000152738, 0.000244408, 2.58852, 5.60823, 0, 0.00100751, 0.000103106, 0.000165488, 1.72603, 3.72477, 0, 0.00100754, -0.248814, -9.75798, -6.8179, -0.115273, -6.65579, -4.40325, 8.6347E-05, -0.000119442, -5.79486E-05, 5.92814E-05, 5.92814E-05, 5.92814E-05
7079, 1,0.000148394, 4.78313E-05, 3.98144E-05, 6.96979, 2.60954, 0.000358896, 6.96786, 13.6505, 0, 0.00104159, 0.000191078, 0.000198613, 9.38419, 0.347542, 0, 0.00104181, 0.000108978, 0.000131884, 4.67884, 1.26755, 0, 0.00104179, -0.260624, -8.22389, 7.44188, -0.108324, -6.04072, 2.3464, 2.85787E-06, -0.000154974, 0.00014654, 2.06395E-05, 2.06395E-05, 2.06395E-05
7080, 1,0.000321264, 0.000119635, 8.93521E-05, 18.67, 6.99709, 0.000590429, 1.12506, 36.4445, 0, 0.00107542, 0.000437442, 0.000361172, 25.5133, -4.80161, 0, 0.00107614, 0.00020849, 0.000191762, 11.9546, -1.07847, 0, 0.00107608, -0.240517, -10.606, 25.2514, -0.0972091, -7.9677, 11.3003, -7.95399E-05, -0.000273479, 0.000431099, -1.74461E-05, -1.74461E-05, -1.74461E-05
7081, 1,0.000183685, -0.00011834, 8.00536E-05, 0.461711, -7.3219, 0.00170896, 101.941, -28.5828, 0, 0.000973967, 0.000223405, 0.000411338, 0.546157, 11.72, 0, 0.000973331, 0.000145197, 0.000256537, 0.41184, 6.92306, 0, 0.000973406, -0.149625, -12.4462, -22.5643, -0.0495212, -8.36707, -12.3526, 0.000183216, -9.09083E-05, -0.000282633, 0.000109223, 0.000109223, 0.000109223
7082, 1,0.000135456, -6.06417E-05, 4.36444E-05, 1.90383, -3.67721, 0.00064748, 35.1858, -6.24747, 0, 0.00100777, 0.000161737, 0.000269124, 2.30932, 6.59534, 0, 0.00100756, 0.000109413, 0.000182702, 1.53271, 4.41268, 0, 0.0010076, -0.256328, -10.4565, -9.07317, -0.11997, -7.21304, -5.90502, 0.000101666, -0.000117165, -9.15566E-05, 6.99543E-05, 6.99543E-05, 6.99543E-05
7083, 1,0.000141244, 4.17252E-05, 3.76338E-05, 5.97755, 2.14342, 0.000380516, 6.2213, 16.0058, 0, 0.0010416, 0.000178571, 0.000203655, 7.95976, 1.44762, 0, 0.00104184, 0.000106499, 0.000139134, 4.09175, 1.87878, 0, 0.00104184, -0.266843, -9.00837, 4.93236, -0.112364, -6.53303, 1.00905, 1.99784E-05, -0.000153057, 0.000109654, 3.01053E-05, 3.01053E-05, 3.01053E-05
7084, 1,0.000297369, 0.000107573, 8.27345E-05, 16.9719, 6.17829, 0.000620841, 1.14632, 38.3371, 0, 0.00107542, 0.000401679, 0.000344852, 23.0148, -3.58626, 0, 0.00107615, 0.000196117, 0.000187969, 11.0354, -0.542273, 0, 0.00107609, -0.247171, -11.4558, 22.4617, -0.100013, -8.38216, 10.109, -6.05938E-05, -0.000271408, 0.00039036, -9.12675E-06, -9.12675E-06, -9.12675E-06
7085, 1,0.000195724, -0.000121099, 8.18871E-05, 0.463146, -7.49836, 0.00157956, 93.3274, -25.2647, 0, 0.000974051, 0.000236528, 0.000438621, 0.554916, 12.6049, 0, 0.000973453, 0.000155972, 0.000279641, 0.401366, 7.69413, 0, 0.000973531, -0.156947, -13.0562, -24.6016, -0.052482, -8.986, -14.0439, 0.000196988, -8.79969E-05, -0.000313665, 0.00012131, 0.00012131, 0.00012131
7086, 1,0.00014447, -6.69743E-05, 4.75636E-05, 1.72992, -4.08925, 0.000576327, 29.6981, -3.41998, 0, 0.00100786, 0.000172308, 0.000295419, 2.10072, 7.58343, 0, 0.00100768, 0.000116833, 0.00020102, 1.38965, 5.10067, 0, 0.00100772, -0.263485, -11.1337, -11.3531, -0.123904, -7.75514, -7.42296, 0.000117006, -0.000114423, -0.000125666, 8.06412E-05, 8.06412E-05, 8.06412E-05
7087, 1,0.000138203, 3.71892E-05, 3.7018E-05, 5.17216, -1.78195, 0.00040562, 5.64226, 18.3597, 0, 0.00104169, 0.000171962, 0.000214555, 6.80289, 2.54574, 0, 0.00104196, 0.000106392, 0.000148727, 3.61361, 2.48855, 0, 0.00104196, -0.272731, -9.76882, 2.40434, -0.115536, -7.0097, -0.340431, 3.70738E-05, -0.000150685, 7.237E-05, 3.95647E-05, 3.95647E-05, 3.95647E-05
7088, 1,0.000276107, 9.64287E-05, 7.70275E-05, 15.3893, 5.40494, 0.000651852, 1.19307, 40.2326, 0, 0.00107551, 0.000369587, 0.000332161, 20.6829, -2.37351, 0, 0.00107626, 0.000185265, 0.000185676, 10.1787, -0.00765065, 0, 0.00107622, -0.252943, -12.2737, 19.6471, -0.101782, -8.77752, 8.90225, -4.16687E-05, -0.000268741, 0.000349089, -8.08571E-07, -8.08571E-07, -8.08571E-07
7089, 1,0.000208225, -0.000123983, 8.38199E-05, 0.479382, -7.68198, 0.00145449, 84.9137, -21.9427, 0, 0.000974081, 0.000250145, 0.000466503, 0.579736, 13.4961, 0, 0.000973521, 0.000167222, 0.000303274, 0.405769, 8.46851, 0, 0.000973601, -0.163624, -13.648, -26.6768, -0.0547706, -9.58998, -15.7608, 0.00021087, -8.45843E-05, -0.000345412, 0.000133459, 0.000133459, 0.000133459
7090, 1,0.000154536, -7.35309E-05, 5.16995E-05, 1.6022, -4.51264, 0.000520138, 24.9209, -0.593506, 0, 0.00100788, 0.000184121, 0.000322969, 1.94679, 8.57287, 0, 0.00100773, 0.000125125, 0.000220206, 1.28508, 5.78901, 0, 0.00100777, -0.270332, -11.786, -13.6623, -0.127106, -8.27938, -8.96055, 0.000132371, -0.000111141, -0.000160364, 9.13459E-05, 9.13459E-05, 9.13459E-05
7091, 1,0.000138661, -4.18055E-05, 3.80604E-05, 4.52801, -2.20345, 0.000433409, 5.19269, 20.7123, 0, 0.00104168, 0.000170487, 0.00023056, 5.88177, 3.6425, 0, 0.00104197, 0.000108271, 0.000160283, 3.22774, 3.09733, 0, 0.00104198, -0.278349, -10.5017, -0.147492, -0.11794, -7.46855, -1.70548, 5.41518E-05, -0.00014778, 3.45923E-05, 4.90227E-05, 4.90227E-05, 4.90227E-05
7092, 1,0.000257765, 8.64372E-05, 7.24652E-05, 13.9308, 4.6882, 0.000683409, 1.26257, 42.1313, 0, 0.00107552, 0.000341677, 0.000323617, 18.5353, -1.16296, 0, 0.00107627, 0.000176029, 0.000184979, 9.38635, 0.525745, 0, 0.00107624, -0.257982, -13.0556, 16.8025, -0.102668, -9.15154, 7.67697, -2.27619E-05, -0.000265392, 0.000307188, 7.51015E-06, 7.51015E-06, 7.51015E-06
7093, 1,0.000221147, -0.000126993, 8.58512E-05, 0.509329, -7.87277, 0.00133482, 76.7514, -18.6182, 0, 0.000974197, 0.000264224, 0.000494954, 0.619591, 14.3942, 0, 0.000973675, 0.000178881, 0.000327377, 0.423482, 9.24643, 0, 0.000973756, -0.169649, -14.2171, -28.7958, -0.0563587, -10.1753, -17.5077, 0.000224869, -8.05763E-05, -0.000377982, 0.000145673, 0.000145673, 0.000145673
7094, 1,0.000165458, -8.02764E-05, 5.60164E-05, 1.51165, -4.94564, 0.000480004, 20.9083, 2.23141, 0, 0.00100797, 0.00019695, 0.00035155, 1.83696, 9.56382, 0, 0.00100785, 0.000134123, 0.000240096, 1.21137, 6.47781, 0, 0.0010079, -0.276741, -12.4083, -16.0064, -0.129485, -8.78208, -10.5219, 0.000147767, -0.000107218, -0.000195757, 0.000102072, 0.000102072, 0.000102072
7095, 1,0.000141987, -4.83075E-05, 4.06497E-05, 4.01848, -2.69722, 0.00046335, 4.84726, 23.0637, 0, 0.00104178, 0.000173246, 0.00025077, 5.15841, 4.73796, 0, 0.00104209, 0.000111787, 0.000173454, 2.91912, 3.70513, 0, 0.00104211, -0.283468, -11.2016, -2.7288, -0.119398, -7.9061, -3.08988, 7.12184E-05, -0.000144235, -3.79323E-06, 5.8484E-05, 5.8484E-05, 5.8484E-05
7096, 1,0.000242552, 7.78405E-05, 6.92908E-05, 12.6022, 4.03943, 0.000715542, 1.35692, 44.0324, 0, 0.00107561, 0.000318356, 0.000319634, 16.5854, 0.0457606, 0, 0.00107638, 0.000168461, 0.000185937, 8.65887, 1.05815, 0, 0.00107637, -0.262078, -13.7967, 13.9215, -0.102509, -9.50111, 6.42917, -3.86299E-06, -0.000261253, 0.000264536, 1.58366E-05, 1.58366E-05, 1.58366E-05
7097, 1,0.000234465, -0.000130129, 8.79819E-05, 0.552118, -8.07085, 0.00122181, 68.8997, -15.2906, 0, 0.000974199, 0.000278748, 0.000523966, 0.673718, 15.2995, 0, 0.000973716, 0.000190912, 0.000351915, 0.453284, 10.0283, 0, 0.000973799, -0.175296, -14.7591, -30.9642, -0.0574507, -10.7385, -19.2891, 0.000238989, -7.58851E-05, -0.000411475, 0.000157956, 0.000157956, 0.000157956
7098, 1,0.000177091, -8.71846E-05, 6.04878E-05, 1.45143, -5.38694, 0.00045562, 17.6461, 5.05569, 0, 0.00100798, 0.000210625, 0.000380995, 1.76321, 10.5567, 0, 0.00100789, 0.000143702, 0.00026057, 1.16276, 7.16738, 0, 0.00100794, -0.282914, -12.997, -18.3901, -0.131208, -9.26039, -12.1105, 0.000163196, -0.000102575, -0.000231933, 0.000112822, 0.000112822, 0.000112822
7099, 1,0.000147613, -5.6101E-05, 4.45334E-05, 3.61839, -3.25111, 0.000495004, 4.58468, 25.4142, 0, 0.00104179, 0.00017938, 0.00027433, 4.59509, 5.83259, 0, 0.00104212, 0.000116638, 0.000187941, 2.6741, 4.31231, 0, 0.00104215, -0.288317, -11.8649, -5.34458, -0.120107, -8.3199, -4.49694, 8.82759E-05, -0.000139968, -4.28781E-05, 6.79498E-05, 6.79498E-05, 6.79498E-05
7100, 1,0.00023059, 7.0856E-05, 6.77224E-05, 11.4065, 3.46848, 0.000748199, 1.47274, 45.9373, 0, 0.0010756, 0.000299897, 0.00032049, 14.8413, 1.25308, 0, 0.00107638, 0.000162581, 0.000188574, 7.99617, 1.58992, 0, 0.00107637, -0.265286, -14.4933, 10.9993, -0.10141, -9.82418, 5.15582, 1.50331E-05, -0.000256246, 0.00022104, 2.41738E-05, 2.41738E-05, 2.41738E-05
7101, 1,0.000248157, -0.000133393, 9.02124E-05, 0.607197, -8.27629, 0.00111688, 61.4268, -11.9582, 0, 0.000974303, 0.000293699, 0.000553526, 0.741586, 16.2126, 0, 0.000973858, 0.000203281, 0.000376859, 0.494429, 10.8145, 0, 0.000973943, -0.180227, -15.2696, -33.1879, -0.0578472, -11.276, -21.1096, 0.000253242, -7.04173E-05, -0.000446003, 0.000170316, 0.000170316, 0.000170316
7102, 1,0.000189329, -9.42368E-05, 6.50941E-05, 1.41701, -5.83561, 0.000445409, 15.0598, 7.87897, 0, 0.00100808, 0.000225022, 0.000411189, 1.72012, 11.5516, 0, 0.00100802, 0.000153775, 0.000281545, 1.13552, 7.85782, 0, 0.00100808, -0.288459, -13.5471, -20.8193, -0.132012, -9.71077, -13.7307, 0.000178668, -9.71166E-05, -0.000269004, 0.000123602, 0.000123602, 0.000123602
7103, 1,0.000155078, -6.48966E-05, 4.94222E-05, 3.30723, -3.85148, 0.00052808, 4.39175, 27.763, 0, 0.00104189, 0.000188177, 0.000300528, 4.16011, 6.92622, 0, 0.00104224, 0.000122589, 0.000203506, 2.48209, 4.91878, 0, 0.00104227, -0.292521, -12.4864, -7.99974, -0.119805, -8.70666, -5.92987, 0.00010533, -0.000134882, -8.27622E-05, 7.74239E-05, 7.74239E-05, 7.74239E-05
7104, 1,0.000221875, -7.0168E-05, 6.78912E-05, 10.3431, -3.46275, 0.000781392, 1.61185, 47.8442, 0, 0.00107569, 0.000286355, 0.00032624, 13.3041, 2.45909, 0, 0.00107649, 0.000158366, 0.000192868, 7.39717, 2.12109, 0, 0.00107649, -0.267563, -15.1404, 8.03072, -0.099326, -10.1176, 3.85367, 3.39286E-05, -0.000250271, 0.000176598, 3.25231E-05, 3.25231E-05, 3.25231E-05
7105, 1,0.000262206, -0.000136785, 9.25415E-05, 0.674375, -8.48898, 0.00102168, 54.4116, -8.62169, 0, 0.000974333, 0.000309061, 0.000583617, 0.823081, 17.133, 0, 0.000973926, 0.000215963, 0.000402182, 0.54652, 11.6046, 0, 0.000974013, -0.184099, -15.7433, -35.4717, -0.057323, -11.7836, -22.973, 0.000267632, -6.40779E-05, -0.000481658, 0.000182756, 0.000182756, 0.000182756
7106, 1,0.000202092, -0.000101419, 6.98207E-05, 1.4048, -6.29097, 0.000447106, 13.0412, 10.7012, 0, 0.0010081, 0.000240047, 0.000442042, 1.70342, 12.549, 0, 0.00100807, 0.000164274, 0.000302957, 1.12671, 8.54942, 0, 0.00100813, -0.293346, -14.0547, -23.2989, -0.13189, -10.1302, -15.3862, 0.000194191, -9.07595E-05, -0.000307063, 0.000134417, 0.000134417, 0.000134417
7107, 1,0.000164021, -7.44441E-05, 5.50642E-05, 3.06789, -4.48669, 0.00056236, 4.25729, 30.1109, 0, 0.00104189, 0.000199074, 0.00032881, 3.82712, 8.0196, 0, 0.00104227, 0.000129454, 0.000219968, 2.33397, 5.52507, 0, 0.00104231, -0.296105, -13.062, -10.7007, -0.118543, -9.06369, -7.39297, 0.000122391, -0.000128884, -0.000123563, 8.69138E-05, 8.69138E-05, 8.69138E-05
7108, 1,0.000216298, -7.74864E-05, 6.98048E-05, 9.40822, -4.06993, 0.000815137, 1.77481, 49.7535, 0, 0.00107568, 0.000277579, 0.000336739, 11.9683, 3.66384, 0, 0.00107648, 0.000155759, 0.000198764, 6.86001, 2.65176, 0, 0.0010765, -0.268384, -15.733, 5.00988, -0.0959592, -10.3783, 2.51902, 5.28355E-05, -0.000243224, 0.000131093, 4.08923E-05, 4.08923E-05, 4.08923E-05
7109, 1,0.000276594, -0.000140303, 9.49689E-05, 0.752866, -8.70893, 0.000937843, 47.9335, -5.28078, 0, 0.000974437, 0.000324819, 0.000614226, 0.917386, 18.0612, 0, 0.000974068, 0.000228939, 0.000427866, 0.608727, 12.399, 0, 0.000974157, -0.18707, -16.1756, -37.8211, -0.0559921, -12.2575, -24.8836, 0.00028216, -5.67736E-05, -0.000518543, 0.000195276, 0.000195276, 0.000195276
7110, 1,0.000215315, -0.000108719, 7.4655E-05, 1.41218, -6.75235, 0.000458334, 11.4761, 13.5229, 0, 0.00100819, 0.000255624, 0.00047348, 1.70994, 13.5487, 0, 0.00100819, 0.000175144, 0.000324753, 1.13419, 9.24216, 0, 0.00100826, -0.297331, -14.5152, -25.8337, -0.130687, -10.5153, -17.0805, 0.000209768, -8.34167E-05, -0.000346202, 0.000145271, 0.000145271, 0.000145271
7111, 1,0.00017416, -8.45483E-05, 6.12642E-05, 2.88706, -5.1477, 0.000597662, 4.17303, 32.4573, 0, 0.00104197, 0.000211639, 0.000358747, 3.57581, 9.11283, 0, 0.00104237, 0.00013708, 0.000237178, 2.22261, 6.13125, 0, 0.00104242, -0.29918, -13.5873, -13.452, -0.116401, -9.38803, -8.88932, 0.00013946, -0.000121884, -0.000165369, 9.6419E-05, 9.6419E-05, 9.6419E-05
7112, 1,0.000213644, -8.6428E-05, 7.33459E-05, 8.59397, -4.75254, 0.000849374, 1.95897, 51.6649, 0, 0.00107576, 0.000273232, 0.000351657, 10.8207, 4.86822, 0, 0.00107658, 0.000154662, 0.000206171, 6.38118, 3.18256, 0, 0.00107661, -0.268319, -16.2676, 1.93126, -0.0917191, -10.6042, 1.1483, 7.17552E-05, -0.000235023, 8.44275E-05, 4.92823E-05, 4.92823E-05, 4.92823E-05
7113, 1,0.000291311, -0.000143951, 9.74954E-05, 0.841967, -8.93634, 0.00086678, 42.0609, -1.93395, 0, 0.000974469, 0.000340964, 0.000645354, 1.02371, 18.998, 0, 0.000974139, 0.000242193, 0.000453902, 0.680365, 13.1982, 0, 0.00097423, -0.189265, -16.5619, -40.2428, -0.0539717, -12.694, -26.8468, 0.000296836, -4.8407E-05, -0.000556778, 0.000207882, 0.000207882, 0.000207882
7114, 1,0.000228949, -0.000116128, 7.95883E-05, 1.43668, -7.2194, 0.000477, 10.2643, 16.3444, 0, 0.00100821, 0.000271698, 0.000505452, 1.73677, 14.5516, 0, 0.00100824, 0.000186345, 0.000346898, 1.1559, 9.9365, 0, 0.00100831, -0.300975, -14.9244, -28.4294, -0.128798, -10.8628, -18.8179, 0.000225399, -7.49948E-05, -0.000386523, 0.000156161, 0.000156161, 0.000156161
7115, 1,0.000185292, -9.50689E-05, 6.78821E-05, 2.75511, -5.82793, 0.000633848, 4.13282, 34.8016, 0, 0.00104198, 0.000225562, 0.000390026, 3.3914, 10.2058, 0, 0.00104239, 0.000145363, 0.000255028, 2.14297, 6.73727, 0, 0.00104245, -0.301043, -14.0574, -16.2589, -0.112937, -9.67639, -10.4225, 0.000156547, -0.000113787, -0.000208288, 0.000105948, 0.000105948, 0.000105948
7116, 1,0.000213655, -9.67911E-05, 7.83127E-05, 7.89205, -5.5006, 0.000884149, 2.16684, 53.5781, 0, 0.00107575, 0.000272879, 0.000370563, 9.84627, 6.07196, 0, 0.00107658, 0.000154973, 0.000214988, 5.95781, 3.71334, 0, 0.00107662, -0.266694, -16.7384, -1.21077, -0.0861819, -10.7917, -0.262114, 9.06977E-05, -0.000225556, 3.64825E-05, 5.76996E-05, 5.76996E-05, 5.76996E-05
7117, 1,0.000306378, -0.000147735, 0.000100126, 0.943302, -9.17134, 0.000809501, 36.8449, 1.41668, 0, 0.000974557, 0.000357524, 0.000677027, 1.14404, 19.9426, 0, 0.000974264, 0.000255739, 0.000480302, 0.762631, 14.0017, 0, 0.000974358, -0.189788, -16.8959, -42.7421, -0.0506698, -13.0881, -28.8664, 0.000311669, -3.88631E-05, -0.000596473, 0.00022058, 0.00022058, 0.00022058
7118, 1,0.000242983, -0.000123644, 8.46181E-05, 1.47822, -7.69195, 0.000501446, 9.32708, 19.1653, 0, 0.00100829, 0.000288251, 0.000537945, 1.78374, 15.5573, 0, 0.00100835, 0.000197865, 0.000369382, 1.19177, 10.6323, 0, 0.00100843, -0.303316, -15.2775, -31.0909, -0.125603, -11.1691, -20.602, 0.0002411, -6.54048E-05, -0.000428127, 0.000167098, 0.000167098, 0.000167098
7119, 1,0.000197252, -0.00010591, 7.48199E-05, 2.66337, -6.52307, 0.000670819, 4.13028, 37.1458, 0, 0.00104204, 0.000240598, 0.000422419, 3.26124, 11.2997, 0, 0.00104248, 0.000154208, 0.000273435, 2.08995, 7.34401, 0, 0.00104255, -0.302771, -14.4689, -19.1275, -0.108919, -9.92663, -11.9965, 0.000173651, -0.00010451, -0.000252419, 0.000115497, 0.000115497, 0.000115497
7120, 1,0.000216039, -0.000108345, 8.44721E-05, 7.29159, -6.30325, 0.000919414, 2.39434, 55.4954, 0, 0.00107583, 0.000276032, 0.00039298, 9.02579, 7.27643, 0, 0.00107667, 0.000156571, 0.000225103, 5.58556, 4.24504, 0, 0.00107673, -0.264224, -17.1434, -4.42165, -0.079875, -10.9395, -1.71573, 0.000109669, -0.000214763, -1.28299E-05, 6.61478E-05, 6.61478E-05, 6.61478E-05
7121, 1,0.000321751, -0.000151649, 0.000102856, 1.05386, -9.41393, 0.000766336, 32.3001, 4.77417, 0, 0.000974581, 0.000374447, 0.000709203, 1.27479, 20.8965, 0, 0.000974326, 0.000269539, 0.000507033, 0.853079, 14.8105, 0, 0.000974423, -0.189746, -17.1753, -45.3243, -0.0468488, -13.4377, -30.9468, 0.000326657, -2.80864E-05, -0.000637708, 0.000233368, 0.000233368, 0.000233368
7122, 1,0.000257362, -0.00013126, 8.97356E-05, 1.53364, -8.16974, 0.000530288, 8.59865, 21.9855, 0, 0.00100832, 0.000305222, 0.000570904, 1.84715, 16.5668, 0, 0.00100841, 0.00020966, 0.000392167, 1.23917, 11.3302, 0, 0.00100849, -0.305579, -15.5715, -33.8234, -0.122033, -11.4319, -22.4367, 0.00025686, -5.45747E-05, -0.000471095, 0.000178075, 0.000178075, 0.000178075
7123, 1,0.000209945, -0.000117004, 8.20111E-05, 2.60754, -7.22988, 0.000708506, 4.16348, 39.4883, 0, 0.00104206, 0.000256598, 0.00045577, 3.17849, 12.3939, 0, 0.00104251, 0.000163568, 0.000292348, 2.06156, 7.95107, 0, 0.00104259, -0.303194, -14.8166, -22.062, -0.103646, -10.1353, -13.6143, 0.000190786, -9.396E-05, -0.00029786, 0.000125077, 0.000125077, 0.000125077
7124, 1,0.000220539, -0.000120865, 9.16022E-05, 6.78446, -7.14986, 0.000955281, 2.64896, 57.4141, 0, 0.00107582, 0.000282249, 0.000418457, 8.34364, 8.4804, 0, 0.00107668, 0.000159361, 0.000236416, 5.26234, 4.77693, 0, 0.00107674, -0.259808, -17.4753, -7.70608, -0.0721153, -11.0431, -3.2156, 0.000128674, -0.000202513, -6.36244E-05, 7.46295E-05, 7.46295E-05, 7.46295E-05
7125, 1,0.000337474, -0.000155703, 0.000105693, 1.17637, -9.66439, 0.000736878, 28.4122, 8.13182, 0, 0.000974696, 0.000391787, 0.000741937, 1.41931, 21.8591, 0, 0.000974479, 0.000283625, 0.000534129, 0.953777, 15.6242, 0, 0.000974577, -0.188109, -17.3922, -47.9969, -0.0419476, -13.7368, -33.0938, 0.000341814, -1.59257E-05, -0.000680637, 0.000246253, 0.000246253, 0.000246253
7126, 1,0.000272099, -0.000138976, 9.49421E-05, 1.6042, -8.65273, 0.000562472, 8.03175, 24.8012, 0, 0.0010084, 0.000322623, 0.00060434, 1.9284, 17.5796, 0, 0.00100851, 0.000221742, 0.00041526, 1.29918, 12.0299, 0, 0.00100861, -0.30698, -15.8002, -36.6317, -0.117585, -11.6466, -24.3255, 0.000272688, -4.23946E-05, -0.000515534, 0.000189095, 0.000189095, 0.000189095
7127, 1,0.000223238, -0.000128295, 8.93992E-05, 2.58072, -7.94582, 0.000746767, 4.22651, 41.8279, 0, 0.00104215, 0.000273382, 0.000489901, 3.13379, 13.4892, 0, 0.00104263, 0.000173353, 0.00031168, 2.05321, 8.5589, 0, 0.00104271, -0.304035, -15.0966, -25.0669, -0.098401, -10.2995, -15.2788, 0.000207925, -8.20468E-05, -0.000344684, 0.000134665, 0.000134665, 0.000134665
7128, 1,0.000226861, -0.000134153, 9.95041E-05, 6.3588, -8.03131, 0.000991699, 2.92521, 59.3381, 0, 0.00107589, 0.00029106, 0.000446528, 7.78024, 9.68489, 0, 0.00107676, 0.000163207, 0.000248793, 4.9828, 5.30982, 0, 0.00107684, -0.254295, -17.7315, -11.0689, -0.0635916, -11.1007, -4.76513, 0.000147709, -0.000188739, -0.000115982, 8.31426E-05, 8.31426E-05, 8.31426E-05
7129, 1,0.00035353, -0.000159894, 0.000108634, 1.31002, -9.92269, 0.000719803, 25.1195, 11.4867, 0, 0.000974737, 0.000409521, 0.000775205, 1.57625, 22.8307, 0, 0.000974557, 0.000297987, 0.000561577, 1.06444, 16.4428, 0, 0.000974658, -0.185347, -17.5432, -50.7636, -0.0360433, -13.9821, -35.3102, 0.000357134, -2.32291E-06, -0.000725319, 0.000259233, 0.000259233, 0.000259233
7130, 1,0.000287164, -0.00014679, 0.000100235, 1.68821, -9.14079, 0.000597113, 7.59188, 27.6028, 0, 0.00100844, 0.000340423, 0.000638219, 2.02565, 18.5963, 0, 0.00100858, 0.000234083, 0.000438635, 1.37023, 12.7318, 0, 0.00100868, -0.308409, -15.9605, -39.5199, -0.112998, -11.8108, -26.2715, 0.000288572, -2.87983E-05, -0.000561507, 0.000200147, 0.000200147, 0.000200147
7131, 1,0.000237123, -0.000139759, 9.69602E-05, 2.58295, -8.66961, 0.000785669, 4.32677, 44.1593, 0, 0.00104213, 0.000290922, 0.000524781, 3.1263, 14.5846, 0, 0.00104263, 0.000183571, 0.000331437, 2.0657, 9.16699, 0, 0.00104273, -0.303524, -15.3026, -28.1477, -0.0920366, -10.4153, -16.9937, 0.000225093, -6.86562E-05, -0.000393017, 0.000144278, 0.000144278, 0.000144278
7132, 1,0.000234817, -0.000148064, 0.000108032, 6.00771, -8.94098, 0.00102906, 3.23915, 61.2712, 0, 0.00107585, 0.000302145, 0.000476889, 7.32285, 10.89, 0, 0.00107673, 0.000168041, 0.000262181, 4.74508, 5.84387, 0, 0.00107682, -0.2471, -17.9048, -14.5182, -0.0538904, -11.1081, -6.36962, 0.000166789, -0.000173286, -0.000170075, 9.16986E-05, 9.16986E-05, 9.16986E-05
7133, 1,0.00036991, -0.000164228, 0.000111683, 1.45289, -10.1891, 0.000713431, 22.355, 14.8198, 0, 0.000974839, 0.000427648, 0.000809037, 1.74403, 23.814, 0, 0.000974697, 0.00031261, 0.000589387, 1.18278, 17.269, 0, 0.0009748, -0.1825, -17.6226, -53.637, -0.0305457, -14.1691, -37.6073, 0.000372636, 1.28741E-05, -0.000771966, 0.000272318, 0.000272318, 0.000272318
7134, 1,0.000302542, -0.000154699, 0.000105609, 1.78661, -9.63378, 0.000633142, 7.23504, 30.3815, 0, 0.00100855, 0.000358601, 0.000672517, 2.13947, 19.6155, 0, 0.00100872, 0.000246673, 0.000462273, 1.45359, 13.4345, 0, 0.00100882, -0.307999, -16.0472, -42.4912, -0.10644, -11.9202, -28.2767, 0.00030453, -1.37095E-05, -0.00060909, 0.000211249, 0.000211249, 0.000211249
7135, 1,0.000251504, -0.000151367, 0.000104664, 2.60966, -9.40022, 0.000825282, 4.47076, 46.4783, 0, 0.00104224, 0.000309094, 0.000560309, 3.14976, 15.6805, 0, 0.00104276, 0.000194155, 0.000351571, 2.09612, 9.77504, 0, 0.00104286, -0.301193, -15.4333, -31.3071, -0.0834577, -10.4814, -18.7602, 0.000242305, -5.37598E-05, -0.00044291, 0.000153935, 0.000153935, 0.000153935
7136, 1,0.000244181, -0.00016248, 0.000117064, 5.71998, -9.87365, 0.00106772, 3.59973, 63.2231, 0, 0.00107595, 0.000315159, 0.000509224, 6.95457, 12.0984, 0, 0.00107684, 0.000173752, 0.000276491, 4.5432, 6.38105, 0, 0.00107694, -0.238652, -17.9955, -18.061, -0.0433377, -11.0656, -8.03419, 0.000185946, -0.000156115, -0.000226015, 0.000100322, 0.000100322, 0.000100322
7137, 1,0.000386686, -0.000168713, 0.000114848, 1.61384, -10.4641, 0.000713937, 19.9047, 18.1733, 0, 0.000974866, 0.000446238, 0.000843476, 1.93111, 24.8038, 0, 0.000974761, 0.000327562, 0.0006176, 1.31808, 18.0971, 0, 0.000974867, -0.173017, -17.6233, -56.6152, -0.018524, -14.2915, -39.9812, 0.000388374, 2.97023E-05, -0.000820585, 0.000285565, 0.000285565, 0.000285565
7138, 1,0.000318201, -0.000162715, 0.000111075, 1.89831, -10.1324, 0.000669832, 6.93634, 33.1247, 0, 0.00100855, 0.000377133, 0.00070725, 2.26921, 20.6366, 0, 0.00100876, 0.000259471, 0.000486175, 1.5477, 14.1371, 0, 0.00100886, -0.301287, -16.0579, -45.5507, -0.0938185, -11.9738, -30.3438, 0.000320646, 2.90598E-06, -0.000658388, 0.000222471, 0.000222471, 0.000222471
7139, 1,0.000266323, -0.000163104, 0.000112494, 2.65754, -10.1368, 0.000866141, 4.67817, 48.7919, 0, 0.00104225, 0.000327823, 0.000596468, 3.20013, 16.7776, 0, 0.00104279, 0.00020506, 0.000372095, 2.14192, 10.3838, 0, 0.0010429, -0.291913, -15.4828, -34.558, -0.0679757, -10.4943, -20.5893, 0.000259681, -3.72251E-05, -0.000494623, 0.000163748, 0.000163748, 0.000163748
7140, 1,0.000254818, -0.000177309, 0.000126507, 5.4923, -10.8251, 0.00110846, 4.0316, 65.2106, 0, 0.00107597, 0.000329873, 0.000543305, 6.66769, 13.3066, 0, 0.00107687, 0.000180293, 0.000291674, 4.378, 6.9181, 0, 0.00107699, -0.224673, -17.9939, -21.7012, -0.0278676, -10.966, -9.76039, 0.000205219, -0.000137067, -0.000283945, 0.000109048, 0.000109048, 0.000109048
7141, 1,0.000403525, -0.000173354, 0.000118127, 1.76246, -10.7477, 0.000714901, 17.4415, 21.5759, 0, 0.000974986, 0.000464961, 0.000878388, 2.1076, 25.8118, 0, 0.000974919, 0.000342512, 0.000646081, 1.43931, 18.939, 0, 0.000975028, -0.157294, -17.554, -59.7239, -0.00162731, -14.3583, -42.4569, 0.00040452, 4.80931E-05, -0.00087147, 0.000299123, 0.000299123, 0.000299123
7142, 1,0.00033448, -0.000170837, 0.000116627, 2.04679, -10.6365, 0.00070325, 6.42122, 35.9487, 0, 0.00100866, 0.000396353, 0.000742843, 2.43802, 21.6502, 0, 0.0010089, 0.000272821, 0.000510774, 1.6763, 14.83, 0, 0.00100901, -0.266813, -15.978, -48.7056, -0.0534433, -11.9585, -32.478, 0.000337221, 2.11783E-05, -0.000709678, 0.000234117, 0.000234117, 0.000234117
7143, 1,0.000281653, -0.000174952, 0.000120432, 2.73628, -10.8786, 0.000908192, 4.89392, 51.1693, 0, 0.00104234, 0.000347169, 0.000633331, 3.28618, 17.8679, 0, 0.00104291, 0.000216374, 0.000393112, 2.21366, 10.9853, 0, 0.00104302, -0.264323, -15.4401, -37.8993, -0.0336693, -10.4438, -22.4784, 0.000277338, -1.8946E-05, -0.000548253, 0.000173842, 0.000173842, 0.000173842
7144, 1,0.0002665, -0.000192474, 0.000136288, 5.3098, -11.792, 0.00115198, 4.54493, 67.2646, 0, 0.00107606, 0.000345984, 0.000578831, 6.44363, 14.519, 0, 0.00107699, 0.000187518, 0.000307585, 4.23836, 7.45898, 0, 0.00107711, -0.210401, -17.8969, -25.4496, -0.0121571, -10.8074, -11.5574, 0.000224567, -0.000115992, -0.000344045, 0.000117843, 0.000117843, 0.000117843
7145, 1,0.000420328, -0.00017819, 0.000121557, 1.89592, -11.0416, 0.000730773, 16.0743, 24.4531, 0, 0.000975027, 0.000483742, 0.000913336, 2.27232, 26.8149, 0, 0.00097499, 0.000357351, 0.000674362, 1.54232, 19.7717, 0, 0.000975101, -0.139208, -17.434, -62.8715, 0.0151813, -14.3897, -44.9407, 0.000420634, 6.73477E-05, -0.00092311, 0.000312529, 0.000312529, 0.000312529
7146, 1,0.000350438, -0.000179036, 0.000122241, 2.14482, -11.1445, 0.000725207, 5.24028, 38.9279, 0, 0.00100867, 0.000415328, 0.000778967, 2.55948, 22.7057, 0, 0.00100893, 0.000285767, 0.00053574, 1.75094, 15.5634, 0, 0.00100905, -0.228801, -15.8258, -52.0626, -0.0103633, -11.8924, -34.7875, 0.000354523, 4.1446E-05, -0.000764374, 0.000246452, 0.000246452, 0.000246452
7147, 1,0.000297573, -0.000186884, 0.000128461, 2.8343, -11.624, 0.000942617, 4.53135, 53.8377, 0, 0.00104235, 0.000367188, 0.00067108, 3.39554, 18.9705, 0, 0.00104294, 0.000228203, 0.00041485, 2.30066, 11.599, 0, 0.00104306, -0.231486, -15.3007, -41.3793, 0.00654002, -10.3278, -24.4756, 0.000295297, 1.40207E-06, -0.000604453, 0.000184253, 0.000184253, 0.000184253
7148, 1,0.000279533, -0.000207919, 0.000146355, 5.20106, -12.7713, 0.00119421, 4.83406, 69.5377, 0, 0.00107605, 0.000363745, 0.000615835, 6.30856, 15.7141, 0, 0.00107699, 0.000195789, 0.000324377, 4.15573, 7.98346, 0, 0.00107713, -0.183762, -17.686, -29.2726, 0.0154727, -10.5738, -13.392, 0.000243909, -9.28456E-05, -0.000405933, 0.000126636, 0.000126636, 0.000126636
7149, 1,0.000439877, -0.00018325, 0.000125177, 2.16082, -11.3476, 0.000793605, 17.6342, 26.3838, 0, 0.000975161, 0.000505365, 0.000950804, 2.5715, 27.7843, 0, 0.000975139, 0.000374866, 0.000704921, 1.77485, 20.5655, 0, 0.000975253, -0.106118, -17.2138, -66.0328, 0.0474462, -14.3434, -47.4005, 0.000436538, 8.83209E-05, -0.000975711, 0.00032566, 0.00032566, 0.00032566
7150, 1,0.000365798, -0.00018736, 0.000127961, 2.23448, -11.659, 0.000754922, 4.77528, 41.4289, 0, 0.00100879, 0.000433805, 0.00081445, 2.67634, 23.7189, 0, 0.00100908, 0.00029801, 0.000559858, 1.81342, 16.2519, 0, 0.0010092, -0.148269, -15.6058, -55.4026, 0.075109, -11.7781, -37.0528, 0.000372055, 6.23431E-05, -0.000819241, 0.00025898, 0.00025898, 0.00025898
7151, 1,0.000313194, -0.000198894, 0.00013657, 2.88307, -12.3728, 0.000955414, 3.1039, 56.5682, 0, 0.00104244, 0.00038697, 0.000708804, 3.45832, 20.1119, 0, 0.00104305, 0.000239683, 0.000436427, 2.33605, 12.2511, 0, 0.00104318, -0.229655, -15.1064, -44.9996, 0.0163341, -10.1848, -26.5847, 0.000313204, 2.32978E-05, -0.000662778, 0.000194621, 0.000194621, 0.000194621
7152, 1,0.00029332, -0.000223597, 0.000156658, 5.09801, -13.7607, 0.00122075, 4.17913, 72.0861, 0, 0.00107615, 0.000382513, 0.000653956, 6.19217, 16.9354, 0, 0.00107712, 0.000204549, 0.000341776, 4.06377, 8.53468, 0, 0.00107726, -0.185334, -17.3884, -33.2326, 0.0139266, -10.2929, -15.3251, 0.000263065, -6.75738E-05, -0.000470184, 0.000135234, 0.000135234, 0.000135234
7153, 1,0.000462052, -0.000188383, 0.000128847, 2.46986, -11.6587, 0.000884158, 20.8841, 27.8114, 0, 0.000975242, 0.000529658, 0.000991903, 2.91356, 28.8624, 0, 0.000975225, 0.000394932, 0.000738909, 2.05189, 21.4631, 0, 0.000975343, -0.143119, -16.8424, -69.6015, 0.013575, -14.1654, -50.2376, 0.00045269, 0.000114293, -0.00103532, 0.000339047, 0.000339047, 0.000339047
7154, 1,0.000384039, -0.000195828, 0.000133817, 2.40097, -12.1807, 0.000808536, 5.93806, 43.2831, 0, 0.00100884, 0.000455264, 0.000852693, 2.87431, 24.7984, 0, 0.00100915, 0.00031304, 0.000586521, 1.9479, 17.0049, 0, 0.00100927, -0.18718, -15.325, -58.8829, 0.0419329, -11.6337, -39.4228, 0.000388125, 8.55479E-05, -0.00087603, 0.000270037, 0.000270037, 0.000270037
7155, 1,0.000329208, -0.000211065, 0.000144829, 2.96423, -13.1291, 0.000968467, 2.38129, 58.3768, 0, 0.00104248, 0.000407324, 0.000746703, 3.56161, 21.2178, 0, 0.00104311, 0.000251355, 0.000457851, 2.39491, 12.8673, 0, 0.00104325, -0.22856, -14.8393, -48.5855, 0.0233108, -10.0032, -28.6221, 0.000330538, 4.61035E-05, -0.000720865, 0.000204373, 0.000204373, 0.000204373
7156, 1,0.000307219, -0.000239537, 0.000167217, 4.98683, -14.762, 0.00124216, 3.88603, 73.8488, 0, 0.00107619, 0.000401645, 0.000692446, 6.07905, 18.1532, 0, 0.00107717, 0.00021317, 0.000359047, 3.95238, 9.08219, 0, 0.00107733, -0.185677, -17.044, -37.2299, 0.0117786, -10.0054, -17.2529, 0.000282188, -4.1354E-05, -0.000535293, 0.000143763, 0.000143763, 0.000143763
7157, 1,0.000482378, -0.000193636, 0.000132581, 2.67324, -11.9775, 0.000960371, 23.717, 28.8897, 0, 0.000975371, 0.000552129, 0.00103174, 3.14777, 29.9827, 0, 0.000975354, 0.000413094, 0.00077144, 2.22425, 22.3973, 0, 0.000975474, -0.168193, -16.3737, -73.4062, -0.0106146, -13.897, -53.2842, 0.000469773, 0.000142781, -0.00109907, 0.000353223, 0.000353223, 0.000353223
7158, 1,0.000404154, -0.000204335, 0.000139705, 2.6607, -12.7049, 0.00085214, 7.12964, 44.4684, 0, 0.00100896, 0.000478599, 0.000892338, 3.16419, 25.88, 0, 0.00100926, 0.000329942, 0.000614509, 2.17711, 17.7574, 0, 0.00100939, -0.262009, -14.8214, -62.5567, -0.0249481, -11.2887, -41.9586, 0.000403492, 0.000113289, -0.00093669, 0.000280398, 0.000280398, 0.000280398
7159, 1,0.000348081, -0.000223323, 0.000153184, 3.19459, -13.8894, 0.00101079, 3.67126, 59.3312, 0, 0.00104259, 0.000430638, 0.000787003, 3.81874, 22.3055, 0, 0.00104322, 0.00026578, 0.000481489, 2.59773, 13.4648, 0, 0.00104337, -0.252186, -14.3927, -52.2718, 0.00805723, -9.68079, -30.7217, 0.000347069, 7.22888E-05, -0.000781235, 0.000213367, 0.000213367, 0.000213367
7160, 1,0.000323912, -0.000255724, 0.000178012, 5.01405, -15.7749, 0.00129806, 6.16883, 74.3639, 0, 0.00107633, 0.000423825, 0.000733411, 6.11539, 19.3648, 0, 0.00107729, 0.000224315, 0.000378307, 3.96817, 9.62324, 0, 0.00107746, -0.247496, -16.578, -41.269, -0.0535248, -9.64557, -19.1706, 0.000299918, -1.25943E-05, -0.000601448, 0.00015086, 0.00015086, 0.00015086
7161, 1,0.00050384, -0.000199107, 0.000136495, 2.86882, -12.3083, 0.00102959, 26.0506, 30.1951, 0, 0.000975469, 0.000575815, 0.00107316, 3.37563, 31.1961, 0, 0.000975453, 0.000432327, 0.000805288, 2.38813, 23.419, 0, 0.000975576, -0.288784, -15.8904, -77.4092, -0.129701, -13.6355, -56.4919, 0.000486297, 0.000172866, -0.00116536, 0.000366766, 0.000366766, 0.000366766
7162, 1,0.000422989, -0.00021299, 0.000145702, 2.87611, -13.2366, 0.000873971, 7.7494, 45.033, 0, 0.00100905, 0.000500747, 0.000930818, 3.41318, 26.9521, 0, 0.00100934, 0.000345465, 0.000641115, 2.35836, 18.498, 0, 0.00100948, -0.317913, -14.2341, -66.3043, -0.0766946, -10.8815, -44.5358, 0.000419093, 0.00014228, -0.000998678, 0.000290871, 0.000290871, 0.000290871
7163, 1,0.000366891, -0.000235665, 0.000161611, 3.42029, -14.6533, 0.00103863, 4.98712, 59.32, 0, 0.00104268, 0.000453856, 0.000827378, 4.06966, 23.413, 0, 0.00104329, 0.000280213, 0.000505163, 2.79839, 14.0813, 0, 0.00104345, -0.242363, -13.8321, -56.1646, 0.0246626, -9.27578, -32.9929, 0.000364606, 0.000100693, -0.00084515, 0.000223319, 0.000223319, 0.000223319
7164, 1,0.00034066, -0.000271956, 0.000188862, 5.0253, -16.7891, 0.00136916, 10.1227, 73.5473, 0, 0.00107641, 0.000446196, 0.000774163, 6.14604, 20.6169, 0, 0.00107734, 0.000235324, 0.00039705, 3.95122, 10.2048, 0, 0.00107752, -0.42496, -15.8176, -45.6081, -0.234098, -9.03105, -21.3492, 0.000315829, 2.25141E-05, -0.000672791, 0.000156144, 0.000156144, 0.000156144
7165, 1,0.000526069, -0.000204748, 0.000140517, 3.10301, -12.6493, 0.00110541, 28.6309, 31.5874, 0, 0.000975609, 0.000600373, 0.00111546, 3.6457, 32.408, 0, 0.000975596, 0.000452218, 0.000839701, 2.58638, 24.4331, 0, 0.000975723, -0.404158, -15.1677, -81.652, -0.246444, -13.1503, -59.9027, 0.000502865, 0.000207808, -0.00123653, 0.000380201, 0.000380201, 0.000380201
7166, 1,0.000442046, -0.000221747, 0.000151798, 3.14939, -13.7736, 0.00088975, 8.06072, 45.6218, 0, 0.00100918, 0.000523244, 0.000969906, 3.72493, 27.9761, 0, 0.00100947, 0.000361082, 0.000668069, 2.59253, 19.1884, 0, 0.00100962, -0.291856, -13.4905, -70.1459, -0.0434274, -10.3456, -47.1763, 0.000435627, 0.000173505, -0.00106305, 0.000302311, 0.000302311, 0.000302311
7167, 1,0.000384196, -0.000248178, 0.000170204, 3.56062, -15.4249, 0.00103854, 5.57537, 58.5066, 0, 0.00104285, 0.000475704, 0.000865862, 4.2408, 24.5681, 0, 0.00104343, 0.000293019, 0.000526679, 2.90883, 14.7454, 0, 0.0010436, -0.352111, -13.3103, -60.042, -0.0797785, -8.94584, -35.2106, 0.000380334, 0.000128522, -0.000907455, 0.000231427, 0.000231427, 0.000231427
7168, 1,0.000356257, -0.000288411, 0.000199941, 5.0765, -17.8131, 0.00144285, 15.3952, 71.096, 0, 0.00107664, 0.000467565, 0.000812388, 6.22368, 21.7734, 0, 0.0010775, 0.000245088, 0.000412942, 3.9684, 10.6911, 0, 0.0010777, -0.554836, -14.936, -49.8294, -0.368151, -8.33697, -23.3682, 0.000331223, 5.8171E-05, -0.000742617, 0.000160885, 0.000160885, 0.000160885
7169, 1,0.000548522, -0.000210699, 0.000144751, 3.49927, -13.0082, 0.00122024, 33.5871, 32.2592, 0, 0.0009757, 0.000625318, 0.00115773, 4.08269, 33.3971, 0, 0.000975682, 0.000472175, 0.000873648, 2.9418, 25.2154, 0, 0.000975811, -0.236147, -14.1473, -85.8078, -0.0849733, -12.3819, -63.1792, 0.000521851, 0.000245574, -0.00130933, 0.00039581, 0.00039581, 0.00039581
7170, 1,0.000463409, -0.000230668, 0.000158009, 3.48976, -14.3201, 0.000920833, 9.91347, 45.103, 0, 0.00100929, 0.000548141, 0.00101176, 4.10681, 29.0908, 0, 0.00100955, 0.000378894, 0.000697532, 2.88993, 19.9651, 0, 0.0010097, -0.362806, -12.574, -74.3357, -0.10935, -9.66511, -50.1208, 0.000451467, 0.000209413, -0.00113289, 0.000312936, 0.000312936, 0.000312936
7171, 1,0.000403851, -0.000260616, 0.000178735, 4.06614, -16.193, 0.001112, 10.5136, 56.517, 0, 0.00104299, 0.000499841, 0.00090475, 4.77603, 25.4147, 0, 0.00104352, 0.000308228, 0.000548651, 3.38402, 15.1004, 0, 0.0010437, -0.146284, -12.1502, -63.9477, 0.135088, -8.00795, -37.4283, 0.000397854, 0.000164679, -0.000974873, 0.000241376, 0.000241376, 0.000241376
7172, 1,0.000378535, -0.000304869, 0.000211065, 5.40669, -18.837, 0.00159392, 22.9052, 70.5783, 0, 0.00107672, 0.000495668, 0.000856433, 6.58732, 22.9574, 0, 0.00107755, 0.000261479, 0.000434551, 4.25291, 11.2064, 0, 0.00107775, -0.759327, -13.6388, -54.4739, -0.571695, -7.2828, -25.7648, 0.000345484, 0.000103658, -0.000821584, 0.000164608, 0.000164608, 0.000164608
7173, 1,0.000577373, -0.000217188, 0.000149391, 4.0927, -13.3964, 0.001378, 40.831, 32.5717, 0, 0.000975948, 0.000656926, 0.00120735, 4.72675, 34.5041, 0, 0.000975918, 0.000498277, 0.000914339, 3.48449, 26.1053, 0, 0.000976051, -0.189485, -12.9357, -90.387, -0.0570489, -11.4555, -66.8032, 0.000540034, 0.00028937, -0.00138927, 0.000410207, 0.000410207, 0.000410207
7174, 1,0.00048889, -0.000239646, 0.000164289, 4.14453, -14.8709, 0.000949071, 10.6661, 45.8726, 0, 0.00100949, 0.000577233, 0.00105759, 4.80522, 30.1072, 0, 0.00100974, 0.000400748, 0.000730753, 3.49983, 20.6403, 0, 0.0010099, -0.30517, -11.2336, -78.7828, -0.0377692, -8.59375, -53.2892, 0.000468401, 0.000252474, -0.00120938, 0.000324782, 0.000324782, 0.000324782
7175, 1,0.000432543, -0.000273345, 0.000187531, 4.80207, -16.9753, 0.00136652, 20.6645, 59.0254, 0, 0.00104312, 0.000532995, 0.000957178, 5.54138, 26.5745, 0, 0.00104367, 0.000332561, 0.000584043, 4.0931, 15.7704, 0, 0.00104385, 0.101748, -11.1178, -68.7073, 0.389518, -7.27376, -40.4268, 0.000421182, 0.00020354, -0.00105589, 0.000257085, 0.000257085, 0.000257085
7176, 1,0.00040682, -0.000321457, 0.000222402, 5.915, -19.8669, 0.00185694, 29.6084, 78.283, 0, 0.00107675, 0.000530109, 0.000913344, 7.1407, 24.282, 0, 0.00107769, 0.000283569, 0.000468653, 4.71208, 11.8656, 0, 0.00107791, -0.708796, -12.546, -59.5912, -0.506136, -6.52366, -28.567, 0.000367448, 0.000148521, -0.00090991, 0.000176376, 0.000176376, 0.000176376
7177, 1,0.000616437, -0.000224125, 0.000154407, 5.20351, -13.8095, 0.00152956, 46.0441, 35.2289, 0, 0.000976108, 0.000698908, 0.00126167, 5.89058, 35.5508, 0, 0.000976102, 0.000534437, 0.000959195, 4.54261, 26.9236, 0, 0.000976239, -0.548995, -11.2051, -94.8984, -0.438544, -10.0365, -70.2958, 0.000548676, 0.000343184, -0.00146872, 0.000414824, 0.000414824, 0.000414824
7178, 1,0.000506128, -0.000248671, 0.000170636, 4.08371, -15.4257, 0.00101275, 4.73559, 57.8951, 0, 0.00100944, 0.000598184, 0.00110044, 4.79146, 31.6136, 0, 0.00100987, 0.000414261, 0.000760741, 3.3913, 21.8024, 0, 0.00101003, -0.510582, -10.3856, -83.9448, -0.218924, -8.03761, -57.1508, 0.000487428, 0.000292447, -0.00129283, 0.000338892, 0.000338892, 0.000338892
7179, 1,0.000448252, -0.000286483, 0.000196538, 4.47012, -17.778, 0.00158018, 18.4882, 75.5033, 0, 0.00104292, 0.000553398, 0.00100624, 5.25506, 28.3618, 0, 0.00104372, 0.000343719, 0.000615749, 3.7178, 17.0693, 0, 0.00104391, 0.186717, -10.7714, -74.5006, 0.444288, -7.2661, -44.3861, 0.000450908, 0.000238086, -0.00114916, 0.000278451, 0.000278451, 0.000278451
7180, 1,0.000441679, -0.000338067, 0.000233819, 6.79072, -20.8968, 0.0021344, 31.7829, 92.9613, 0, 0.00107661, 0.000571235, 0.0009749, 8.07211, 25.5, 0, 0.00107779, 0.00031213, 0.000507288, 5.52572, 12.4234, 0, 0.00107802, -0.682711, -10.8707, -64.9466, -0.462684, -5.24948, -31.5581, 0.000387269, 0.000204865, -0.00100584, 0.000186135, 0.000186135, 0.000186135
7181, 1,0.000647019, -0.000232249, 0.000160519, 4.77665, -14.2804, 0.00176796, 55.8683, 37.2262, 0, 0.000976309, 0.000732626, 0.00132065, 5.52127, 38.0304, 0, 0.000976296, 0.000562032, 0.00100821, 4.06569, 29.1676, 0, 0.000976437, -1.79618, -11.8352, -100.46, -1.72107, -11.0516, -74.7301, 0.000561319, 0.000370668, -0.00154908, 0.000423056, 0.000423056, 0.000423056
7182, 1,0.000514123, -0.00025772, 0.00017708, 3.54362, -15.9819, 0.00109397, -0.197193, 69.6987, 0, 0.00100942, 0.000610257, 0.00113667, 4.31644, 33.0928, 0, 0.00101002, 0.000418117, 0.000783536, 2.78281, 22.9345, 0, 0.00101019, -0.553897, -9.65904, -89.0654, -0.218486, -7.62747, -60.9574, 0.000509567, 0.000329355, -0.00137587, 0.000356507, 0.000356507, 0.000356507
7183, 1,0.000449346, -0.000299947, 0.000205809, 4.01418, -18.596, 0.00158457, 6.38619, 92.0478, 0, 0.00104281, 0.000559764, 0.0010335, 4.87079, 29.3469, 0, 0.00104387, 0.000339758, 0.00062506, 3.19361, 17.5641, 0, 0.00104407, 0.604962, -9.94409, -78.7015, 0.816967, -6.7949, -46.7144, 0.000475022, 0.000269807, -0.00122098, 0.000293885, 0.000293885, 0.000293885
7184, 1,0.00045708, -0.000355132, 0.000245892, 7.35317, -21.9497, 0.00222449, 22.4125, 111.247, 0, 0.0010765, 0.000593515, 0.00100508, 8.69586, 25.9031, 0, 0.00107799, 0.000320782, 0.000513883, 6.04713, 12.1601, 0, 0.00107823, -0.57821, -9.83131, -67.2996, -0.304013, -4.64494, -31.5314, 0.000395851, 0.000235462, -0.00105156, 0.000185355, 0.000185355, 0.000185355
7185, 1,0.000653899, -0.000240456, 0.000166486, 3.96947, -14.7638, 0.00184777, 57.7857, 39.7406, 0, 0.000976436, 0.000743017, 0.00135103, 4.78284, 39.5973, 0, 0.000976438, 0.00056542, 0.00102736, 3.19086, 30.4756, 0, 0.000976582, -2.20892, -11.5148, -105.068, -2.168, -11.0745, -78.1843, 0.000577356, 0.000402619, -0.0016225, 0.00043432, 0.00043432, 0.00043432
7186, 1,0.000543698, -0.000267774, 0.000184489, 4.3015, -16.5871, 0.000910562, -3.74242, 62.9134, 0, 0.00100971, 0.000644307, 0.00119264, 5.14882, 34.1298, 0, 0.00101018, 0.000443359, 0.000825113, 3.47344, 23.6146, 0, 0.00101035, -0.0840848, -8.42444, -93.881, 0.303396, -6.80914, -64.338, 0.000535783, 0.00037049, -0.00146005, 0.000378202, 0.000378202, 0.000378202
7187, 1,0.000486427, -0.000314184, 0.000215924, 4.67449, -19.4492, 0.00137025, 1.70066, 84.7309, 0, 0.00104317, 0.000603338, 0.00109259, 5.64415, 30.9939, 0, 0.00104408, 0.000369793, 0.000664276, 3.72564, 18.7201, 0, 0.00104429, -0.490663, -9.04649, -83.4444, -0.314576, -6.38582, -49.4598, 0.000477649, 0.000314392, -0.00129492, 0.000288047, 0.000288047, 0.000288047
7188, 1,0.000471069, -0.000372638, 0.000258179, 5.44478, -23.0241, 0.00224174, 20.3355, 115.206, 0, 0.00107663, 0.000614545, 0.00106036, 6.86461, 29.3762, 0, 0.00107814, 0.000327772, 0.000544852, 4.06852, 14.9638, 0, 0.00107839, -2.69312, -11.0143, -74.4211, -2.39358, -6.36809, -36.1296, 0.00040586, 0.00026812, -0.00115058, 0.000185373, 0.000185373, 0.000185373
7189, 1,0.000678025, -0.000250496, 0.000173804, 3.5157, -15.3486, 0.00173972, 49.6058, 43.8449, 0, 0.00097675, 0.00077176, 0.00140822, 4.43798, 42.0244, 0, 0.000976779, 0.000584999, 0.00107114, 2.63146, 32.605, 0, 0.000976929, -3.28678, -10.8558, -111.931, -3.3132, -10.8534, -83.6484, 0.000592779, 0.000452489, -0.00172717, 0.000443644, 0.000443644, 0.000443644
7190, 1,0.000577107, -0.00027827, 0.000192139, 5.41705, -17.2171, 0.00110292, 11.2299, 55.0758, 0, 0.00101023, 0.000681829, 0.00124544, 6.32115, 34.9728, 0, 0.00101056, 0.00047297, 0.000863414, 4.54497, 24.091, 0, 0.00101073, 0.287225, -6.03354, -99.1721, 0.70238, -4.85715, -68.1182, 0.000556756, 0.000432252, -0.00155646, 0.000393987, 0.000393987, 0.000393987
7191, 1,0.000527303, -0.000327845, 0.000225607, 6.11027, -20.2745, 0.00141474, 10.9688, 75.1345, 0, 0.00104384, 0.000650403, 0.00114572, 7.1909, 31.8812, 0, 0.00104458, 0.000404292, 0.000697786, 5.04215, 19.118, 0, 0.00104479, -1.33133, -6.02339, -88.2889, -1.16692, -3.87974, -52.3074, 0.000473759, 0.000390185, -0.00138121, 0.000276243, 0.000276243, 0.000276243
7192, 1,0.00049976, -0.000390528, 0.000270851, 5.69539, -24.1102, 0.00226135, 25.4048, 109.529, 0, 0.00107711, 0.000650854, 0.00112007, 7.23928, 31.2147, 0, 0.00107848, 0.000348722, 0.000578957, 4.17711, 16.1463, 0, 0.00107875, -3.32601, -9.26174, -81.0563, -3.02558, -5.26658, -40.1468, 0.000421589, 0.000330889, -0.00125892, 0.000190811, 0.000190811, 0.000190811
7193, 1,0.000707685, -0.000261129, 0.000181561, 4.28502, -15.9731, 0.00143135, 30.9996, 49.05, 0, 0.000977131, 0.000806463, 0.00146855, 5.32523, 43.1252, 0, 0.000977225, 0.00060948, 0.00111576, 3.27552, 33.3791, 0, 0.00097738, -2.36995, -8.16597, -118.84, -2.42706, -8.65224, -89.058, 0.000629533, 0.000525006, -0.00185431, 0.000474638, 0.000474638, 0.000474638
7194, 1,0.000593336, -0.000289343, 0.000200453, 5.24772, -17.8761, 0.00109218, 6.79667, 60.2666, 0, 0.00101055, 0.000703452, 0.0012808, 6.27075, 36.4092, 0, 0.00101094, 0.000483896, 0.000882262, 4.25964, 25.1608, 0, 0.00101113, -0.53258, -4.72159, -103.974, -0.0819877, -4.07657, -71.3237, 0.000561988, 0.000480981, -0.00163373, 0.000394265, 0.000394265, 0.000394265
7195, 1,0.000527879, -0.00034188, 0.00023598, 5.99745, -21.1173, 0.00137404, 4.95339, 80.5944, 0, 0.00104404, 0.000657723, 0.00116657, 7.21076, 32.3447, 0, 0.00104485, 0.00039814, 0.000697495, 4.79758, 19.0925, 0, 0.00104508, -0.771001, -4.7401, -91.5229, -0.564452, -3.20868, -53.5044, 0.000493004, 0.000421577, -0.00143938, 0.000288756, 0.000288756, 0.000288756
7196, 1,0.000512842, -0.000409609, 0.000284619, 5.79227, -25.2483, 0.00201285, 9.93729, 114.32, 0, 0.00107724, 0.000672436, 0.00115192, 7.50694, 32.368, 0, 0.00107868, 0.000353269, 0.000583086, 4.08569, 16.6512, 0, 0.00107895, -3.9963, -6.82506, -86.2827, -3.73671, -3.62563, -42.5912, 0.00042558, 0.000394142, -0.00134488, 0.000183759, 0.000183759, 0.000183759
7197, 1,0.000753518, -0.000273765, 0.0001913, 5.6458, -16.7059, 0.00116178, 10.5822, 59.203, 0, 0.000977473, 0.000858654, 0.00153912, 6.85104, 44.5648, 0, 0.000977705, 0.000649053, 0.00116752, 4.47583, 34.4561, 0, 0.000977865, -2.59059, -5.67645, -125.427, -2.635, -6.8415, -93.8918, 0.000647578, 0.000597699, -0.00196841, 0.000487267, 0.000487267, 0.000487267
7198, 1,0.000627052, -0.000301834, 0.000210124, 6.97967, -18.5966, 0.00108582, -1.13474, 70.4134, 0, 0.00101082, 0.000744448, 0.00132627, 8.21531, 36.268, 0, 0.00101138, 0.000510102, 0.000907986, 5.76787, 24.6666, 0, 0.00101157, 0.0326485, -1.71832, -107.118, 0.484072, -1.78284, -72.7011, 0.00057194, 0.000542469, -0.00170289, 0.000398742, 0.000398742, 0.000398742
7199, 1,0.000562165, -0.000357097, 0.000247637, 7.81321, -22.0017, 0.00148361, 1.98898, 91.5036, 0, 0.00104426, 0.000699284, 0.00121248, 9.20098, 32.1769, 0, 0.00104526, 0.000425445, 0.000721362, 6.4478, 18.4735, 0, 0.00104549, 0.131736, -1.93285, -94.7296, 0.336478, -1.21908, -54.5379, 0.000509785, 0.000477119, -0.00150899, 0.000298467, 0.000298467, 0.000298467
7200, 1,0.000535586, -0.000430823, 0.000300287, 7.52052, -26.4886, 0.00186575, -2.9866, 122.456, 0, 0.00107751, 0.000705257, 0.0011836, 9.47012, 31.8491, 0, 0.0010791, 0.000365967, 0.000583304, 5.57501, 15.4807, 0, 0.00107939, -3.32062, -3.02552, -89.2011, -3.14272, -0.876964, -42.4225, 0.000431709, 0.000461507, -0.00140996, 0.000177951, 0.000177951, 0.000177951
7201, 1,0.000809891, -0.000289644, 0.000203191, 7.3849, -17.6059, 0.00119994, 0.332893, 75.8061, 0, 0.000977655, 0.000923499, 0.00163366, 8.83989, 46.2268, 0, 0.000978124, 0.000696977, 0.00123934, 5.96738, 35.7183, 0, 0.000978291, -2.58003, -1.83851, -134.262, -2.7745, -3.83455, -100.546, 0.000674013, 0.000702013, -0.00212613, 0.000504259, 0.000504259, 0.000504259
7202, 1,0.000678712, -0.000316757, 0.000221584, 8.38392, -19.4314, 0.00152696, 6.7018, 87.9485, 0, 0.0010109, 0.000804602, 0.00141313, 9.88987, 37.793, 0, 0.00101173, 0.000553026, 0.000971727, 6.89006, 25.8415, 0, 0.00101192, 0.281286, 1.3062, -114.967, 0.609924, 0.338049, -78.4725, 0.000601445, 0.000630049, -0.00184473, 0.000420165, 0.000420165, 0.000420165
7203, 1,0.000629068, -0.000374245, 0.000260975, 10.6877, -22.979, 0.00188617, 9.58262, 106.872, 0, 0.00104436, 0.000774592, 0.00130025, 12.3052, 32.726, 0, 0.00104561, 0.000484298, 0.000783497, 9.10559, 18.5677, 0, 0.00104585, 0.929166, 2.14674, -101.254, 1.09843, 1.81172, -58.6132, 0.000535667, 0.000570029, -0.0016367, 0.000316482, 0.000316482, 0.000316482
7204, 1,0.000598494, -0.000454245, 0.000317706, 9.07754, -27.8659, 0.00220364, 0.296552, 139.459, 0, 0.00107772, 0.000779354, 0.00128125, 11.2848, 34.2247, 0, 0.00107956, 0.000417847, 0.000646559, 6.87261, 17.1177, 0, 0.00107986, -4.69567, 0.804677, -98.7831, -4.54521, 1.66552, -48.4734, 0.000440144, 0.000573569, -0.00156902, 0.000174227, 0.000174227, 0.000174227
7205, 1,0.000895107, -0.000305174, 0.00021456, 10.387, -18.5368, 0.00152837, 5.84517, 89.2356, 0, 0.0009781, 0.00101534, 0.00176311, 11.9557, 48.1158, 0, 0.000978753, 0.000775754, 0.00134685, 8.86455, 37.0787, 0, 0.000978928, -1.69303, 2.48024, -145.135, -1.89246, -0.218603, -109.125, 0.0007226, 0.000818954, -0.00232231, 0.000544447, 0.000544447, 0.000544447
7206, 1,0.000724924, -0.000334372, 0.000234085, 9.7081, -20.4518, 0.00207625, 23.296, 100.501, 0, 0.00101116, 0.000858534, 0.00150002, 11.3898, 39.1689, 0, 0.00101217, 0.000591396, 0.00103341, 8.03299, 26.7126, 0, 0.00101237, 1.3108, 4.33591, -123.154, 1.39635, 2.65337, -84.1876, 0.00064519, 0.000715446, -0.0019962, 0.000450874, 0.000450874, 0.000450874
7207, 1,0.000662654, -0.000394455, 0.000275193, 10.7413, -24.1713, 0.00238759, 25.2951, 117.592, 0, 0.00104449, 0.000815979, 0.00137146, 12.4935, 35.0039, 0, 0.00104589, 0.000510343, 0.000826751, 9.03275, 20.2028, 0, 0.00104614, 0.528901, 4.38828, -109.929, 0.546453, 3.25301, -64.4079, 0.000563216, 0.000651879, -0.00178307, 0.000330737, 0.000330737, 0.000330737
7208, 1,0.000624206, -0.000478977, 0.000334617, 10.5448, -29.3769, 0.00245897, 8.81426, 144.26, 0, 0.00107807, 0.000812897, 0.00132197, 12.7852, 34.45, 0, 0.00107999, 0.000436651, 0.000656268, 8.3354, 16.4095, 0, 0.00108031, -4.23414, 5.44663, -104.562, -4.14785, 5.334, -50.4148, 0.000453306, 0.000668459, -0.00168073, 0.000171356, 0.000171356, 0.000171356
7209, 1,0.000847426, -0.000310353, 0.000214362, 4.06072, -19.0681, 0.00173104, 3.22039, 105.55, 0, 0.000978371, 0.000963253, 0.00177019, 5.13376, 54.0853, 0, 0.000979188, 0.000732139, 0.00135197, 3.01554, 42.2733, 0, 0.000979376, -4.34803, -2.71682, -155.191, -4.50116, -4.58244, -117.736, 0.000760566, 0.000799358, -0.00243755, 0.000571214, 0.000571214, 0.000571214
7210, 1,0.000709153, -0.000350733, 0.000241186, 5.44867, -21.6603, 0.00229878, 13.2701, 128.079, 0, 0.00101167, 0.000840061, 0.00154049, 6.56193, 44.3703, 0, 0.00101305, 0.00057864, 0.00106107, 4.35771, 30.7395, 0, 0.00101327, -0.87213, 0.232257, -132.471, -0.888063, -0.443289, -90.8872, 0.00068088, 0.000710679, -0.00211153, 0.000465969, 0.000465969, 0.000465969
7211, 1,0.000620014, -0.000412378, 0.000282956, 7.24943, -25.5276, 0.0025798, 17.1896, 140.699, 0, 0.00104513, 0.000771447, 0.00137367, 8.39399, 37.5813, 0, 0.00104688, 0.000469366, 0.000811609, 6.14067, 21.4029, 0, 0.00104715, 0.464234, 1.25122, -114.459, 0.680047, 1.21873, -66.1074, 0.000602156, 0.00062586, -0.00183781, 0.000352199, 0.000352199, 0.000352199
7212, 1,0.000547909, -0.000494125, 0.000339219, 4.92717, -30.6278, 0.00252223, 7.09207, 150.623, 0, 0.0010786, 0.000730617, 0.00128224, 6.33513, 37.9355, 0, 0.00108057, 0.000366179, 0.000606821, 3.54854, 18.4421, 0, 0.00108091, -5.37555, -0.285799, -108.145, -5.0099, 0.777346, -51.0936, 0.000483755, 0.000597852, -0.00169713, 0.000184822, 0.000184822, 0.000184822
7213, 1,0.000737463, -0.000299876, 0.000203883, -1.91562, -19.3241, 0.00200219, 15.8528, 105.823, 0, 0.000968613, 0.000839855, 0.00163324, -2.23095, 56.2522, 0, 0.000969393, 0.000637952, 0.00124252, -1.46046, 42.4138, 0, 0.00096961, -4.64421, -13.6521, -150.46, -4.32215, -10.7825, -112.137, 0.000788309, 0.000599763, -0.00230085, 0.000577046, 0.000577046, 0.000577046
7214, 1,0.000644177, -0.000358071, 0.00024259, 1.58637, -23.1914, 0.00236197, 16.8126, 127.323, 0, 0.00100189, 0.000764109, 0.00145279, 0.991486, 47.177, 0, 0.00100319, 0.000527937, 0.00097974, 2.35567, 30.3559, 0, 0.00100347, 0.87268, -12.5577, -129.846, 1.70303, -7.49002, -85.2806, 0.000761784, 0.000485438, -0.00201273, 0.000514504, 0.000514504, 0.000514504
7215, 1,0.000562698, -0.000419594, 0.000282723, 2.55955, -27.1488, 0.00264927, 21.8371, 138.833, 0, 0.00103485, 0.000708326, 0.00130407, 2.14348, 42.0507, 0, 0.00103648, 0.000417239, 0.000739335, 2.98735, 22.4228, 0, 0.00103681, 1.13974, -12.6466, -114.645, 2.43873, -6.44983, -63.2574, 0.000686322, 0.00040327, -0.00177191, 0.000404916, 0.000404916, 0.000404916
7216, 1,0.000425104, -0.00048388, 0.00032782, -2.73156, -31.1286, 0.00262978, 16.9299, 144.13, 0, 0.00106753, 0.000593403, 0.00112261, -2.99728, 41.5456, 0, 0.00106931, 0.000258768, 0.000475704, -2.38326, 19.3966, 0, 0.00106969, -5.90693, -14.0557, -104.674, -5.11683, -6.88284, -46.19, 0.000528804, 0.000361484, -0.0015644, 0.000197006, 0.000197006, 0.000197006
7217, 1,0.000870883, -0.000769757, 0.000511831, 4.91743, -48.6205, 0.0110535, 234.348, -81.16, 0.157386, 0.000968476, 0.00111873, 0.00215424, 4.40125, 64.7214, 0, 0.000966063, 0.000628244, 0.00114859, 5.63782, 31.7089, 0, 0.00096658, 0.499819, -24.5, -170.164, 1.7138, -14.188, -82.6526, 0.00101724, 0.00049402, -0.00256158, 0.000521557, 0.000521557, 0.000521557
7218, 1,0.000778335, -0.000529585, 0.000359843, 2.2061, -33.9745, 0.00209831, 40.9621, 78.4242, 0, 0.0010014, 0.000962629, 0.00177279, 1.98082, 58.3037, 0, 0.00100173, 0.000596163, 0.00106014, 2.53193, 34.2882, 0, 0.00100212, 1.38029, -21.765, -154.526, 2.30784, -14.4422, -90.7303, 0.000950467, 0.000463641, -0.00236014, 0.000592117, 0.000592117, 0.000592117
7219, 1,0.000535157, -0.000320904, 0.000226851, -0.811715, -20.8295, 0.00501383, -30.7815, 290.245, 0.0406992, 0.00103223, 0.000661484, 0.00120637, -0.574496, 42.9686, 0, 0.00103649, 0.000414173, 0.00077641, -0.63515, 27.9135, 0, 0.00103674, -7.56855, -14.8968, -106.44, -7.3721, -10.6824, -65.6861, 0.000534175, 0.000377919, -0.00160914, 0.000303325, 0.000303325, 0.000303325
7220, 1,0.000556803, -0.000187535, 0.000143721, 6.73473, -11.2392, 0.0122745, -2.45693, 262.098, 0.280447, 0.00106581, 0.00059449, 0.00103005, 6.62287, 26.9674, 0, 0.00107073, 0.000519458, 0.000839433, 6.94584, 20.7937, 0, 0.00107084, 6.21731, -1.00056, -86.119, 6.869, -1.94348, -67.3065, 0.000590649, 0.000419842, -0.00144774, 0.000511357, 0.000511357, 0.000511357
7221, 1,0.000806083, -0.00076955, 0.000532981, -3.36712, -47.3734, 0.0073684, 202.991, -38.6413, 0.0773195, 0.000978749, 0.00109535, 0.00208606, -0.783359, 69.7666, 0, 0.000977, 0.000521666, 0.00103556, -5.68182, 40.0732, 0, 0.000977471, -13.1887, -14.9275, -181.183, -13.0298, -11.6146, -95.575, 0.000809195, 0.000775247, -0.00271663, 0.00034357, 0.00034357, 0.00034357
7222, 1,0.00078643, -0.000517725, 0.000359333, 9.30298, -31.9813, 0.00169578, 0.904563, 106.461, 0, 0.00101122, 0.00098505, 0.0017263, 11.1829, 47.3418, 0, 0.00101219, 0.000589507, 0.00101412, 7.50639, 27.1781, 0, 0.00101252, 0.31551, 2.15091, -144.492, 0.179956, 2.63507, -84.3493, 0.000754365, 0.00079638, -0.00231889, 0.000434202, 0.000434202, 0.000434202
7223, 1,0.000596973, -0.000314962, 0.000223067, 8.18591, -19.3553, 0.00609468, 6.15522, 255.067, 0.0702587, 0.00104349, 0.00070445, 0.00124809, 8.89051, 32.6809, 0, 0.00104744, 0.000496152, 0.000831083, 7.82807, 20.8433, 0, 0.00104764, 6.98033, -0.382214, -104.641, 6.51076, -1.99131, -67.0495, 0.00067694, 0.000527464, -0.00173449, 0.000482466, 0.000482466, 0.000482466
7224, 1,0.00044516, -0.000171215, 0.000136092, -0.281636, -9.86798, 0.0116064, -9.09575, 236.487, 0.29934, 0.00107808, 0.000506622, 0.000931549, 1.03626, 31.2172, 0, 0.00108251, 0.000393227, 0.000723661, -1.2993, 26.7036, 0, 0.00108258, -4.59389, -4.74135, -84.3162, -4.61767, -9.85487, -65.6383, 0.000423049, 0.000424538, -0.00135376, 0.0003551, 0.0003551, 0.0003551
7225, 1,0.00100733, -0.000738974, 0.000515235, 17.7628, -45.3112, 0.00608553, 229.053, -80.0944, 0.0519678, 0.000978644, 0.00129296, 0.00215019, 20.7582, 53.6441, 0, 0.000976483, 0.000726636, 0.0011352, 15.0432, 25.6094, 0, 0.000976928, 1.44319, 5.85202, -168.227, 1.43744, 8.63218, -86.8979, 0.000867199, 0.000958583, -0.00269637, 0.00042443, 0.00042443, 0.00042443
7226, 1,0.000827798, -0.000495808, 0.000346946, 13.2087, -30.3976, 0.00153021, 10.6771, 82.8064, 0, 0.00101082, 0.00102571, 0.00170433, 15.6069, 43.9785, 0, 0.00101146, 0.000630007, 0.00101366, 10.817, 25.2878, 0, 0.00101176, -2.37254, 3.41079, -132.974, -2.44851, 2.82813, -76.2431, 0.000643635, 0.000769812, -0.00212703, 0.000347919, 0.000347919, 0.000347919
7227, 1,0.000712708, -0.000298773, 0.000214023, 15.4783, -18.1571, 0.00564615, 11.3627, 238.113, 0.0617252, 0.00104278, 0.000839355, 0.00138993, 17.4663, 30.3282, 0, 0.00104644, 0.000587351, 0.000966854, 13.5561, 19.6599, 0, 0.00104662, 6.8639, 7.2535, -105.102, 6.75353, 4.52903, -70.2622, 0.000633317, 0.000653589, -0.00177882, 0.00046459, 0.00046459, 0.00046459
7228, 1,0.000532533, -0.000158585, 0.000126545, 6.90831, -9.04797, 0.0106481, 8.54236, 222.413, 0.263495, 0.00107743, 0.000603782, 0.0010318, 8.66099, 26.7305, 0, 0.00108153, 0.000468746, 0.000823309, 5.4263, 22.8421, 0, 0.0010816, 0.608731, 3.03151, -83.8317, 0.280373, -2.85798, -65.9487, 0.000453546, 0.000530746, -0.00141765, 0.000388461, 0.000388461, 0.000388461
7229, 1,0.00091153, -0.000707861, 0.000490768, 12.1066, -43.4938, 0.00702661, 253.882, -86.8357, 0.0625217, 0.00097824, 0.00118218, 0.00201707, 14.7252, 54.1724, 0, 0.000975955, 0.000643144, 0.00104809, 9.66788, 27.0652, 0, 0.000976384, -3.90373, -0.106932, -158.506, -4.02682, 4.36901, -81.5378, 0.000763054, 0.000840005, -0.00248226, 0.000332579, 0.000332579, 0.000332579
7230, 1,0.000654243, -0.000471883, 0.000328867, 8.27511, -29.0345, 0.00115593, 17.1311, 50.4752, 0, 0.00101132, 0.000839853, 0.00148995, 10.3195, 39.2012, 0, 0.00101151, 0.000468931, 0.000836336, 6.25179, 21.13, 0, 0.00101181, 1.81642, -0.331255, -119.089, 1.9988, 0.469268, -65.8581, 0.000655206, 0.000615319, -0.00190661, 0.000374676, 0.000374676, 0.000374676
7231, 1,0.000550869, -0.000277271, 0.000198296, 4.59208, -16.9342, 0.00418603, 24.3968, 214.942, 0.010784, 0.00104294, 0.000669314, 0.00117822, 6.48384, 33.7644, -1.35525E-20, 0.00104604, 0.000432989, 0.000783809, 2.70262, 23.6462, -1.35525E-20, 0.00104621, -3.34144, 0.973778, -98.9256, -3.10646, -0.700184, -67.132, 0.000466974, 0.000576632, -0.00159129, 0.000313978, 0.000313978, 0.000313978
7232, 1,0.000614419, -0.00013403, 0.000107015, 15.1996, -7.66058, 0.0092867, 4.89638, 218.78, 0.2228, 0.00107696, 0.000680935, 0.00106269, 16.9604, 20.1037, 0, 0.00108098, 0.000551215, 0.000875123, 13.5886, 16.8342, 0, 0.00108104, 6.35067, 10.356, -77.0179, 6.07932, 5.14004, -61.7218, 0.000464842, 0.000593616, -0.00138428, 0.000410253, 0.000410253, 0.000410253
7233, 1,0.000888453, -0.000676893, 0.000466078, 14.1912, -41.7637, 0.00647982, 338.796, -104.991, 0.0195695, 0.000977948, 0.00113943, 0.00191964, 16.1329, 49.5547, 0, 0.00097548, 0.000640787, 0.00100177, 12.4899, 23.1678, 0, 0.000975898, -1.6238, 1.15719, -148.198, -1.65825, 7.51529, -75.3605, 0.000738711, 0.000794366, -0.00233736, 0.000321563, 0.000321563, 0.000321563
7234, 1,0.000604605, -0.000452152, 0.0003134, 7.02864, -27.9343, 0.000451691, -6.33581, 37.2361, 0, 0.00101107, 0.00077628, 0.00139386, 8.55439, 37.5781, 0, 0.00101106, 0.000436377, 0.000774724, 5.70272, 19.9543, 0, 0.00101135, 1.90212, -3.73825, -110.898, 2.26115, -1.50589, -60.6182, 0.000629939, 0.000517106, -0.00175681, 0.000360174, 0.000360174, 0.000360174
7235, 1,0.000515394, -0.000261122, 0.00018532, 4.01754, -16.0364, 0.00335092, 4.43379, 206.686, 0, 0.0010427, 0.000623686, 0.00111438, 5.56223, 32.0364, 0, 0.00104566, 0.000407708, 0.000746795, 2.49283, 22.2807, 0, 0.00104582, -2.14601, -1.06564, -92.8975, -1.8035, -1.54316, -63.4955, 0.000462583, 0.000510227, -0.00149247, 0.000317389, 0.000317389, 0.000317389
7236, 1,0.00050172, -0.000110015, 8.73893E-05, 5.67481, -6.32673, 0.00798904, 3.94759, 221.662, 0.173139, 0.00107655, 0.000559487, 0.000949191, 7.26965, 24.4462, 0, 0.00108042, 0.000446958, 0.000789586, 4.28463, 21.7175, 0, 0.00108047, -0.449218, 1.70565, -74.5951, -0.656732, -2.48222, -62.0134, 0.000385199, 0.000488346, -0.00126984, 0.000340095, 0.000340095, 0.000340095
7237, 1,0.000722651, -0.000651863, 0.000446595, 3.93106, -40.3099, 0.00666136, 408.302, -125.801, 0, 0.000977764, 0.000960836, 0.00169943, 5.52869, 52.5823, 0, 0.000974938, 0.000488078, 0.00081944, 2.59936, 26.9224, 0, 0.000975344, -9.44745, -11.3516, -136.948, -9.49134, -3.54025, -67.7355, 0.000621335, 0.000575851, -0.00205061, 0.000215545, 0.000215545, 0.000215545
7238, 1,0.000573844, -0.000434369, 0.000299996, 6.32768, -26.9192, 0.000422432, -2.56799, 30.0771, 0, 0.00101081, 0.000737828, 0.001339, 7.69065, 36.2684, 0, 0.00101071, 0.000411753, 0.000741949, 5.06824, 19.1126, 0, 0.00101099, 2.17309, -7.41072, -103.568, 2.67311, -4.10592, -55.905, 0.000614392, 0.000418036, -0.00162095, 0.000354953, 0.000354953, 0.000354953
7239, 1,0.000475366, -0.00024878, 0.000175705, 2.78962, -15.3087, 0.00323913, 9.73202, 192.684, 0, 0.00104258, 0.000577912, 0.0010528, 4.17115, 31.2852, 0, 0.00104531, 0.000372902, 0.000701965, 1.42045, 21.9207, 0, 0.00104547, -2.41059, -6.91306, -84.5318, -2.10938, -6.54824, -57.1045, 0.000443369, 0.000378411, -0.00132925, 0.000303312, 0.000303312, 0.000303312
7240, 1,0.000463947, -8.8968E-05, 7.02759E-05, 6.18972, -5.16592, 0.00727475, 6.2241, 230.2, 0.13624, 0.00107597, 0.000512784, 0.000870698, 7.58943, 21.2941, 0, 0.00107996, 0.000415861, 0.000737481, 4.8458, 19.022, 0, 0.00108, 1.34375, 0.426308, -65.6522, 1.22875, -2.74429, -55.5506, 0.000370232, 0.00041979, -0.00113518, 0.000334021, 0.000334021, 0.000334021
7241, 1,0.000758671, -0.000634202, 0.000434541, 5.46928, -39.2085, 0.00709386, 441.063, -142.426, 0, 0.000977642, 0.000985096, 0.00175669, 6.93525, 51.3814, 2.71051E-20, 0.000974573, 0.000539594, 0.000916437, 4.25343, 26.4321, 2.71051E-20, 0.000974967, -4.42362, -26.9294, -122.791, -4.40988, -18.6196, -56.2668, 0.000708957, 0.000227994, -0.0017709, 0.000315612, 0.000315612, 0.000315612
7242, 1,0.000602066, -0.000420093, 0.000289116, 8.13361, -26.0613, 0.000439494, 5.21303, 20.7069, 0, 0.00101048, 0.00075766, 0.00130955, 9.28048, 35.4488, 0, 0.00101023, 0.000447998, 0.000736591, 7.06369, 18.7837, 0, 0.00101051, -1.02449, -9.59922, -95.7228, -0.606933, -5.4703, -50.274, 0.000533082, 0.000358463, -0.00146677, 0.000279593, 0.000279593, 0.000279593
7243, 1,0.000504468, -0.000235204, 0.000164963, 4.2977, -14.5285, 0.00309402, 12.9079, 179.261, 0, 0.00104238, 0.000598743, 0.0010526, 5.45538, 30.7695, 0, 0.00104489, 0.000410419, 0.000724158, 3.14726, 21.7806, 0, 0.00104504, -3.53366, -5.9521, -82.8226, -3.25873, -4.7661, -57.3169, 0.000410032, 0.000392265, -0.00130141, 0.000275232, 0.000275232, 0.000275232
7244, 1,0.000480504, -7.26695E-05, 5.68161E-05, 7.6903, -4.24905, 0.00676698, 8.10248, 233.679, 0.11212, 0.00107545, 0.000519978, 0.000877245, 8.88521, 19.725, 0, 0.00107946, 0.000441737, 0.000768467, 6.53641, 17.854, 0, 0.00107949, 3.78469, 1.41704, -64.3769, 3.66433, -0.920001, -56.3064, 0.00039514, 0.000418487, -0.00113335, 0.000364982, 0.000364982, 0.000364982
7245, 1,0.000768036, -0.000610615, 0.000417101, 10.8429, -37.8244, 0.00664655, 410.451, -129.709, 0, 0.000977176, 0.000985637, 0.00170258, 12.1512, 44.2726, 0, 0.000974421, 0.000555894, 0.000886889, 9.72345, 20.0438, 0, 0.000974804, 1.22076, -20.1306, -113.908, 1.29505, -11.043, -50.3834, 0.000716435, 0.000261346, -0.00169636, 0.00033569, 0.00033569, 0.00033569
7246, 1,0.000570122, -0.000405982, 0.000278525, 5.69353, -25.2128, 0.000361488, 1.58614, 20.6892, 0, 0.00101009, 0.000719936, 0.0012848, 6.75335, 36.4978, 0, 0.00100983, 0.000421227, 0.00073201, 4.67979, 20.3233, 0, 0.00101009, -1.67967, -13.3075, -94.5061, -1.33714, -8.47072, -51.1621, 0.000535128, 0.00029677, -0.00142415, 0.000287778, 0.000287778, 0.000287778
7247, 1,0.000480413, -0.000223481, 0.000156158, 5.32468, -13.8416, 0.0027007, 12.927, 154.345, 0, 0.0010425, 0.000568588, 0.000994315, 6.321, 27.7944, 0, 0.00104464, 0.00039254, 0.00068335, 4.34268, 19.1658, 0, 0.00104479, -1.53583, -6.73251, -75.1148, -1.25495, -4.89781, -51.3446, 0.000404234, 0.00032935, -0.00118444, 0.000275197, 0.000275197, 0.000275197
7248, 1,0.000472883, -6.03119E-05, 4.68794E-05, 9.40666, -3.54364, 0.00575782, 14.7959, 224.038, 0.0740941, 0.00107552, 0.000506111, 0.000828826, 10.4388, 17.2955, 0, 0.0010793, 0.000439692, 0.000738291, 8.38352, 15.7549, 0, 0.00107933, 4.23934, 1.09087, -57.2169, 4.09813, -0.555569, -50.8071, 0.000365466, 0.000370518, -0.00101631, 0.000339974, 0.000339974, 0.000339974
7249, 1,0.0006179, -0.000588765, 0.000400522, 4.83212, -36.5402, 0.00537154, 326.074, -97.2238, 0, 0.000976538, 0.000828057, 0.00150727, 5.97152, 43.0495, 0, 0.000974318, 0.000409253, 0.000713616, 3.74719, 19.5038, 0, 0.00097469, -0.356754, -20.8832, -107.909, -0.325797, -10.9122, -47.2733, 0.00066437, 0.000228195, -0.00159129, 0.000293448, 0.000293448, 0.000293448
7250, 1,0.000499139, -0.000390784, 0.00026736, 4.32396, -24.3145, 0.000382425, -2.7682, 28.0707, 0, 0.00100964, 0.000641715, 0.00118979, 5.22018, 33.6543, 0, 0.00100955, 0.000357645, 0.000657862, 3.48928, 17.9692, 0, 0.00100981, 1.27039, -13.9249, -88.3085, 1.63629, -8.405, -47.1388, 0.000552444, 0.00024008, -0.00133864, 0.000313283, 0.000313283, 0.000313283
7251, 1,0.000445604, -0.000213224, 0.000148605, 4.41877, -13.2229, 0.00251408, 25.8859, 125.113, 0, 0.00104288, 0.000528976, 0.000946393, 5.31653, 26.6819, 0, 0.00104454, 0.000362566, 0.000650391, 3.53945, 18.4112, 0, 0.00104468, -0.651189, -9.2858, -70.1088, -0.400998, -6.94672, -47.886, 0.000404582, 0.000256771, -0.00109417, 0.000280518, 0.000280518, 0.000280518
7252, 1,0.00040822, -4.99444E-05, 3.91265E-05, 5.20733, -2.94496, 0.00454225, 30.6798, 209.318, 0.0227963, 0.00107545, 0.00043631, 0.00073759, 6.12651, 19.0372, 0, 0.00107882, 0.000380212, 0.000661792, 4.29576, 17.7796, 0, 0.00107885, -0.199435, -4.90688, -52.0051, -0.280323, -5.92312, -47.1355, 0.000298276, 0.00026447, -0.000871354, 0.00027847, 0.00027847, 0.00027847
7253, 1,0.000582834, -0.000568446, 0.00038559, 3.63827, -35.3349, 0.00399607, 238.382, -66.7309, 0, 0.000975955, 0.000784883, 0.00145436, 4.66162, 42.0778, 0, 0.000974233, 0.000381488, 0.000686651, 2.63255, 19.2038, 0, 0.000974595, -0.12108, -20.6858, -105.427, -0.091081, -10.2248, -47.2957, 0.000654638, 0.000220674, -0.00155827, 0.000294249, 0.000294249, 0.000294249
7254, 1,0.000481357, -0.000377502, 0.000257764, 3.48053, -23.5084, 0.000464943, 0.745676, 28.6484, 0, 0.00100944, 0.000618236, 0.0011476, 4.28804, 33.3656, 0, 0.00100936, 0.000345202, 0.000634591, 2.71572, 18.1638, 0, 0.00100961, -0.0964202, -15.6325, -84.3678, 0.237623, -9.64052, -45.0885, 0.000518716, 0.000201817, -0.00126197, 0.000286447, 0.000286447, 0.000286447
7255, 1,0.000422938, -0.000203988, 0.000142127, 4.34777, -12.6554, 0.00229336, 31.2203, 103.871, 0, 0.00104305, 0.000502596, 0.000900933, 5.18883, 25.2531, 0, 0.00104438, 0.000343587, 0.000617736, 3.52721, 17.3293, 0, 0.00104452, -0.297331, -11.5308, -63.9313, -0.0528598, -8.80562, -43.1295, 0.000388968, 0.000185504, -0.000984121, 0.000270216, 0.000270216, 0.000270216
7256, 1,0.000352312, -4.34956E-05, 3.50754E-05, 3.65692, -2.5376, 0.00373978, 32.7961, 193.842, 0, 0.00107573, 0.000378111, 0.000667125, 4.59178, 18.0389, 0, 0.0010788, 0.00032704, 0.000599901, 2.73968, 17.0477, 0, 0.00107882, 0.298502, -10.1318, -44.2834, 0.263526, -10.7044, -40.7023, 0.000292584, 0.000133041, -0.000718057, 0.00027791, 0.00027791, 0.00027791
7257, 1,0.000568474, -0.000550287, 0.000372881, 3.95808, -34.2284, 0.00295695, 173.655, -45.7771, 0, 0.000975485, 0.000762579, 0.00140968, 4.86897, 40.4385, 0, 0.000974121, 0.000375845, 0.000669285, 3.0919, 18.2427, 0, 0.000974472, 0.23603, -21.9818, -99.5698, 0.276997, -11.2527, -43.7524, 0.000636763, 0.00017036, -0.00146348, 0.000287259, 0.000287259, 0.000287259
7258, 1,0.000470502, -0.00036444, 0.000248517, 3.87492, -22.7099, 0.000500669, 2.99919, 27.779, 0, 0.00100921, 0.000601777, 0.00109997, 4.59873, 31.7955, 0, 0.00100914, 0.000339904, 0.00060564, 3.19143, 17.0825, 0, 0.00100938, -0.623764, -15.8634, -78.8994, -0.3072, -9.48399, -41.4562, 0.000482562, 0.000174452, -0.00117297, 0.000257585, 0.000257585, 0.000257585
7259, 1,0.000404159, -0.000194475, 0.000135417, 4.25932, -12.0759, 0.00197191, 24.7133, 92.1269, 0, 0.0010431, 0.000479561, 0.000860303, 5.02917, 23.9415, 0, 0.00104425, 0.000329248, 0.000590807, 3.51813, 16.3622, 0, 0.00104438, 0.103458, -12.5187, -59.4091, 0.355968, -9.44266, -40, 0.000376321, 0.000143459, -0.000908153, 0.000263129, 0.000263129, 0.000263129
7260, 1,0.000363032, -3.87249E-05, 3.22684E-05, 4.74835, -2.21956, 0.00324084, 22.6237, 175.79, 0, 0.00107589, 0.000387726, 0.0006661, 5.73665, 17.5148, 0, 0.00107866, 0.000338706, 0.000605065, 3.7675, 16.7601, 0, 0.00107867, 0.106801, -12.0257, -40.6256, 0.0950567, -12.2353, -38.14, 0.00027976, 8.12482E-05, -0.00064495, 0.000269245, 0.000269245, 0.000269245
7261, 1,0.000521178, -0.00053156, 0.000359689, 3.34245, -33.0939, 0.00222699, 129.158, -32.3828, 0, 0.000975187, 0.000707819, 0.00132664, 4.14103, 38.1154, 0, 0.000974072, 0.000335845, 0.000611634, 2.59576, 16.5973, 0, 0.000974412, 1.09941, -21.9778, -93.4677, 1.16147, -10.9564, -39.9971, 0.000618825, 0.000134655, -0.00137214, 0.00028044, 0.00028044, 0.00028044
7262, 1,0.000442441, -0.000351554, 0.000239387, 3.28011, -21.9193, 0.000549029, 3.43825, 30.1864, 0, 0.00100911, 0.000568672, 0.00104496, 3.95133, 30.4501, 0, 0.0010091, 0.000316754, 0.000568465, 2.64285, 16.2272, 0, 0.00100933, -0.744083, -16.4368, -74.1695, -0.460052, -9.72038, -38.5012, 0.000458748, 0.000142914, -0.00109579, 0.000240782, 0.000240782, 0.000240782
7263, 1,0.000378074, -0.000185617, 0.000129246, 3.73245, -11.529, 0.00165208, 15.4743, 84.1933, 0, 0.00104315, 0.00045001, 0.000812599, 4.46705, 22.7592, 0, 0.00104419, 0.000306672, 0.000555438, 3.02838, 15.5203, 0, 0.00104431, 0.151527, -13.8003, -54.629, 0.396811, -10.4212, -36.5363, 0.000358345, 9.77087E-05, -0.000825246, 0.000250315, 0.000250315, 0.000250315
7264, 1,0.000341562, -3.53375E-05, 3.08971E-05, 4.91846, -1.96739, 0.00282066, 19.6798, 153.034, 0, 0.00107622, 0.000365466, 0.000623115, 5.97934, 16.0442, 0, 0.00107861, 0.000318237, 0.000567421, 3.86837, 15.5136, 0, 0.00107862, 0.370758, -13.1107, -35.3927, 0.377955, -12.9139, -34.0049, 0.000261701, 3.19319E-05, -0.000553715, 0.00025505, 0.00025505, 0.00025505
7265, 1,0.000496591, -0.000513502, 0.000347103, 2.8559, -31.99, 0.00176805, 100.496, -23.0749, 0, 0.000974933, 0.000676044, 0.00126941, 3.57086, 36.951, 0, 0.000973984, 0.000318556, 0.000579644, 2.19569, 16.1125, 0, 0.000974313, 0.456994, -22.4653, -88.8448, 0.527658, -11.2761, -37.5889, 0.000587169, 0.000106573, -0.00129351, 0.000259682, 0.000259682, 0.000259682
7266, 1,0.00042141, -0.000338874, 0.000230584, 2.99014, -21.1382, 0.000644729, 8.20802, 29.8183, 0, 0.0010089, 0.000542523, 0.00100031, 3.60217, 29.2058, 0, 0.00100891, 0.000300971, 0.000541725, 2.42034, 15.4738, 0, 0.00100914, -0.601503, -17.218, -69.798, -0.328035, -10.2507, -35.8428, 0.000442205, 0.000107985, -0.00102413, 0.000231731, 0.000231731, 0.000231731
7267, 1,0.000356904, -0.000176889, 0.000123119, 3.20184, -10.9899, 0.00141527, 8.63698, 78.2655, 0, 0.00104298, 0.000425463, 0.000772567, 3.9071, 21.9101, 0, 0.00104394, 0.000288823, 0.000527437, 2.52312, 15.0076, 0, 0.00104405, -0.0484711, -14.6238, -51.058, 0.179699, -10.9815, -34.2209, 0.000340378, 6.67956E-05, -0.000762589, 0.00023723, 0.00023723, 0.00023723
7268, 1,0.000332391, -3.34244E-05, 3.09271E-05, 5.46608, -1.78609, 0.00245516, 15.1356, 135.877, 0, 0.00107638, 0.000355799, 0.000595638, 6.6091, 14.7158, 0, 0.0010785, 0.000310041, 0.000544351, 4.34974, 14.3965, 0, 0.0010785, 0.835181, -13.9424, -31.0401, 0.867972, -13.3916, -30.6659, 0.000250059, -9.55344E-06, -0.000479037, 0.000247209, 0.000247209, 0.000247209
7269, 1,0.000471222, -0.000495666, 0.000334658, 2.72752, -30.8958, 0.00151936, 85.4747, -18.7158, 0, 0.000974821, 0.000643706, 0.00120938, 3.36635, 35.2336, 0, 0.000973968, 0.000300092, 0.000544286, 2.13916, 15.0733, 0, 0.000974287, 0.422799, -22.1586, -83.965, 0.488445, -10.8452, -34.8632, 0.00055954, 8.60325E-05, -0.00121747, 0.000242645, 0.000242645, 0.000242645
7270, 1,0.000398283, -0.000326335, 0.000221905, 2.63191, -20.3631, 0.000676113, 9.67793, 29.8535, 0, 0.0010088, 0.000514563, 0.000954077, 3.20029, 27.9779, 0, 0.00100883, 0.000282764, 0.000512969, 2.11123, 14.7383, 0, 0.00100905, -0.490041, -17.8603, -65.5834, -0.232456, -10.6926, -33.2898, 0.000425216, 7.55243E-05, -0.000954754, 0.000222147, 0.000222147, 0.000222147
7271, 1,0.000336602, -0.000168452, 0.000117301, 2.84586, -10.4659, 0.00129442, 4.71622, 75.8163, 0, 0.00104286, 0.000401956, 0.000732426, 3.52792, 20.9521, 0, 0.00104379, 0.000271756, 0.000498941, 2.19084, 14.3846, 0, 0.0010439, -0.174231, -15.4172, -47.2649, 0.0428701, -11.5602, -31.6363, 0.000322343, 3.48844E-05, -0.0006971, 0.000224185, 0.000224185, 0.000224185
7272, 1,0.000320421, -3.24854E-05, 3.18226E-05, 5.45793, -1.65162, 0.00216307, 9.48433, 124.859, 0, 0.00107646, 0.000343518, 0.000570054, 6.68384, 13.9659, 0, 0.0010784, 0.000298805, 0.000522979, 4.27522, 13.851, 0, 0.00107841, 0.74892, -14.6772, -27.9695, 0.800245, -13.8018, -28.5516, 0.000235891, -3.91935E-05, -0.000423067, 0.000236576, 0.000236576, 0.000236576
7273, 1,0.000453673, -0.000478148, 0.000322554, 2.43304, -29.8154, 0.00140677, 79.4747, -17.7927, 0, 0.000974697, 0.000619361, 0.00116485, 3.00212, 34.2077, 0, 0.000973874, 0.000289409, 0.000524235, 1.91746, 14.7264, 0, 0.000974182, 0.072576, -22.4293, -80.2663, 0.136639, -11.0833, -33.2326, 0.000536027, 6.40139E-05, -0.00115529, 0.000229802, 0.000229802, 0.000229802
7274, 1,0.000378454, -0.000313843, 0.00021329, 2.36817, -19.5901, 0.000683056, 10.4866, 29.2514, 0, 0.00100865, 0.000489709, 0.000912744, 2.88093, 26.834, 0, 0.00100869, 0.000268134, 0.000489271, 1.91477, 14.0864, 0, 0.0010089, -0.288549, -18.3653, -61.848, -0.0424143, -11.0466, -31.1702, 0.000411376, 4.71005E-05, -0.000893932, 0.000215803, 0.000215803, 0.000215803
7275, 1,0.000320284, -0.000160128, 0.00011156, 2.8222, -9.94869, 0.00123693, 4.34931, 72.6523, 0, 0.0010427, 0.000382344, 0.000695354, 3.479, 19.7831, 0, 0.00104359, 0.000258817, 0.000473504, 2.19502, 13.5481, 0, 0.0010437, -0.0423673, -15.6557, -43.6514, 0.160261, -11.6156, -29.1889, 0.000306513, 1.16631E-05, -0.000639085, 0.000213243, 0.000213243, 0.000213243
7276, 1,0.00030797, 3.45985E-05, 3.35927E-05, 5.63022, 1.67426, 0.00201079, 9.13755, 115.574, 0, 0.0010765, 0.000331495, 0.000540802, 6.96619, 13.006, 0, 0.00107829, 0.000286202, 0.000496594, 4.34889, 13.0869, 0, 0.00107829, 0.506008, -15.0424, -24.4816, 0.563141, -13.8634, -25.9604, 0.000215253, -6.30757E-05, -0.000362974, 0.000219072, 0.000219072, 0.000219072
7277, 1,0.000433249, -0.000460807, 0.000310658, 2.25152, -28.7432, 0.0013056, 73.466, -16.1259, 0, 0.000974673, 0.000592278, 0.00111564, 2.76156, 32.7839, 0, 0.0009739, 0.000275955, 0.000499414, 1.80616, 13.9812, 0, 0.000974197, 0.119597, -22.5119, -75.9595, 0.187858, -11.177, -30.9545, 0.000514745, 3.97133E-05, -0.00108661, 0.000219306, 0.000219306, 0.000219306
7278, 1,0.000360053, -0.000301486, 0.000204791, 2.26489, -18.823, 0.0006706, 10.9988, 27.7848, 0, 0.00100862, 0.000466416, 0.000870524, 2.72856, 25.5542, 0, 0.00100866, 0.000254769, 0.000464421, 1.87011, 13.2991, 0, 0.00100886, -0.122191, -18.5402, -58.0002, 0.10777, -11.1094, -28.8957, 0.000394682, 2.3335E-05, -0.000832709, 0.000206513, 0.000206513, 0.000206513
7279, 1,0.000303458, -0.000152048, 0.000106039, 2.7363, -9.44392, 0.00118361, 4.72629, 68.7504, 0, 0.00104262, 0.000362457, 0.000658224, 3.37748, 18.6771, 0, 0.00104346, 0.000245121, 0.000447555, 2.12624, 12.7718, 0, 0.00104356, 0.00149333, -15.9155, -40.1174, 0.189197, -11.7248, -26.7797, 0.00028992, -1.12028E-05, -0.000581683, 0.000201493, 0.000201493, 0.000201493
7280, 1,0.00028908, 3.84722E-05, 3.59257E-05, 5.28451, 1.9176, 0.001896, 8.62642, 108.988, 0, 0.00107652, 0.000313178, 0.000508276, 6.73748, 12.3334, 0, 0.0010782, 0.000267105, 0.000466709, 3.89939, 12.6039, 0, 0.0010782, 0.0482827, -15.4861, -21.5623, 0.101469, -14.0204, -23.8928, 0.000194696, -8.35493E-05, -0.000311032, 0.000201357, 0.000201357, 0.000201357
7281, 1,0.000412358, -0.000443525, 0.000298792, 1.86858, -27.6734, 0.00120061, 66.9133, -14.003, 0, 0.000974533, 0.000564874, 0.00106756, 2.32887, 31.5796, 0, 0.000973813, 0.000261743, 0.000475285, 1.4763, 13.4561, 0, 0.000974099, -0.0344952, -22.5084, -72.1959, 0.0312947, -11.2273, -29.1724, 0.000492717, 2.05965E-05, -0.00102592, 0.000207938, 0.000207938, 0.000207938
7282, 1,0.000343289, -0.000289181, 0.000196338, 2.0769, -18.0581, 0.000632725, 9.87561, 26.858, 0, 0.00100848, 0.000444954, 0.000831221, 2.50228, 24.4836, 0, 0.00100852, 0.000242751, 0.000442149, 1.72364, 12.7212, 0, 0.00100871, -0.186437, -18.6682, -54.5961, 0.0251712, -11.169, -27.0199, 0.000376472, 3.76173E-06, -0.000777555, 0.000195672, 0.000195672, 0.000195672
7283, 1,0.000286619, -0.000144102, 0.000100636, 2.60136, -8.94599, 0.001129, 4.22033, 65.9614, 0, 0.00104246, 0.000342752, 0.00062215, 3.23559, 17.6459, 0, 0.00104328, 0.000231178, 0.000422336, 1.99715, 12.0686, 0, 0.00104338, 0.00256751, -16.0824, -36.8579, 0.175041, -11.7707, -24.6101, 0.000273656, -3.10773E-05, -0.000528814, 0.000190047, 0.000190047, 0.000190047
7284, 1,0.000268566, 4.29108E-05, 3.88647E-05, 5.13528, 2.18706, 0.00177741, 5.93161, 105.12, 0, 0.00107645, 0.00029405, 0.000473369, 6.74421, 11.3102, 0, 0.00107809, 0.000245865, 0.00043271, 3.61505, 11.7643, 0, 0.00107809, 0.0313613, -15.8892, -18.0727, 0.08388, -14.1543, -21.2224, 0.000177995, -0.00010865, -0.000252631, 0.000187482, 0.000187482, 0.000187482
7285, 1,0.000395647, -0.000426402, 0.00028708, 1.77964, -26.6109, 0.0011236, 62.1706, -12.562, 0, 0.000974485, 0.000541768, 0.00102353, 2.19114, 30.2811, 0, 0.000973808, 0.000251542, 0.000454972, 1.43949, 12.8369, 0, 0.000974084, -0.0571359, -22.2559, -68.5304, 0.00448185, -11.0792, -27.436, 0.000471945, 5.15953E-06, -0.000968635, 0.000197787, 0.000197787, 0.000197787
7286, 1,0.000326562, -0.000277004, 0.000188009, 1.99042, -17.2991, 0.000597234, 8.98993, 25.7452, 0, 0.00100843, 0.000423694, 0.000791695, 2.38571, 23.2738, 0, 0.00100847, 0.000230635, 0.000419453, 1.67189, 12.004, 0, 0.00100866, -0.0957375, -18.6523, -51.0732, 0.0970854, -11.1222, -24.9867, 0.00035937, -1.5087E-05, -0.000721973, 0.000185928, 0.000185928, 0.000185928
7287, 1,0.000270435, -0.000136395, 9.54433E-05, 2.48474, -8.46, 0.00108364, 4.18617, 63.1601, 0, 0.0010424, 0.000323894, 0.00058737, 3.11951, 16.6432, 0, 0.00104319, 0.000217698, 0.000398, 1.87829, 11.3913, 0, 0.00104328, 0.000945558, -16.2075, -33.7231, 0.156081, -11.8053, -22.5248, 0.000257776, -4.97492E-05, -0.000477994, 0.000178903, 0.000178903, 0.000178903
7288, 1,0.000254714, 4.74329E-05, 4.19432E-05, 5.22642, 2.45941, 0.0016837, 4.51431, 101.091, 0, 0.00107639, 0.000282041, 0.00044611, 7.01053, 10.3533, 0, 0.00107798, 0.00023104, 0.000405277, 3.55848, 10.9841, 0, 0.00107797, 0.0380006, -16.2791, -14.8189, 0.0937262, -14.3113, -18.7347, 0.000162905, -0.000132567, -0.000198102, 0.000175193, 0.000175193, 0.000175193
7289, 1,0.000378748, -0.000409443, 0.000275564, 1.59559, -25.5563, 0.0010801, 59.3268, -11.5341, 0, 0.000974355, 0.000518558, 0.000981138, 1.9585, 29.1257, 0, 0.000973712, 0.000241195, 0.000436251, 1.31555, 12.3601, 0, 0.000973977, -0.126781, -22.2361, -65.0143, -0.06209, -11.2114, -25.8067, 0.000452424, -1.29819E-05, -0.000912222, 0.000189029, 0.000189029, 0.000189029
7290, 1,0.000309257, -0.000264893, 0.000179738, 1.83532, -16.5431, 0.000567169, 8.45135, 24.5248, 0, 0.00100831, 0.000402012, 0.000752979, 2.20898, 22.1262, 0, 0.00100835, 0.00021775, 0.000397296, 1.54114, 11.3486, 0, 0.00100852, 0.00780745, -18.5749, -47.8115, 0.180005, -11.049, -23.177, 0.000343491, -3.18728E-05, -0.000670687, 0.000177362, 0.000177362, 0.000177362
7291, 1,0.000255639, -0.000128866, 9.04155E-05, 2.43798, -7.98271, 0.00103414, 4.0128, 60.2748, 0, 0.00104227, 0.000306581, 0.000553751, 3.07794, 15.6483, 0, 0.00104303, 0.000205415, 0.00037449, 1.82413, 10.7198, 0, 0.00104311, -0.0451751, -16.2084, -30.6913, 0.0925959, -11.7419, -20.5101, 0.000241036, -6.59375E-05, -0.000428924, 0.000166865, 0.000166865, 0.000166865
7292, 1,0.00024346, 5.19418E-05, 4.50629E-05, 5.45316, 2.7302, 0.00160115, 3.91011, 96.6673, 0, 0.0010763, 0.000273163, 0.000422084, 7.42857, 9.39443, 0, 0.00107782, 0.00021832, 0.000380032, 3.62309, 10.1967, 0, 0.00107781, 0.0474684, -16.495, -11.7358, 0.105508, -14.3209, -16.3749, 0.000147824, -0.000153046, -0.000146987, 0.000162817, 0.000162817, 0.000162817
7293, 1,0.000360455, -0.000392583, 0.000264127, 1.58181, -24.5064, 0.00107177, 58.6902, -11.2316, 0, 0.000974319, 0.000494026, 0.000935291, 1.89684, 27.6526, 0, 0.000973705, 0.000229355, 0.0004139, 1.35898, 11.5653, 0, 0.000973959, 0.0826359, -21.8476, -61.1928, 0.146268, -10.9992, -23.8428, 0.000433795, -2.83113E-05, -0.000854359, 0.00018107, 0.00018107, 0.00018107
7294, 1,0.00029291, -0.000252906, 0.000171593, 1.68061, -15.7928, 0.000550019, 8.57106, 23.2449, 0, 0.00100827, 0.000381343, 0.000715796, 2.03467, 21.0419, 0, 0.00100831, 0.000205829, 0.000376612, 1.41181, 10.7561, 0, 0.00100848, 0.0705575, -18.5466, -44.6496, 0.223605, -11.0609, -21.4309, 0.000327756, -4.87643E-05, -0.000620466, 0.00016896, 0.00016896, 0.00016896
7295, 1,0.000241197, -0.000121536, 8.55811E-05, 2.44698, -7.51484, 0.000986857, 3.90308, 57.4263, 0, 0.00104226, 0.000289797, 0.000520805, 3.09916, 14.6129, 0, 0.00104299, 0.000193341, 0.000351318, 1.81974, 10.0067, 0, 0.00104306, -0.0140803, -16.1353, -27.6893, 0.106868, -11.6292, -18.4979, 0.000225283, -8.1344E-05, -0.000380966, 0.000155806, 0.000155806, 0.000155806
7296, 1,0.000233716, 5.64373E-05, 4.82156E-05, 5.75064, 2.99927, 0.00152127, 3.38266, 92.3082, 0, 0.00107631, 0.000266378, 0.000399954, 7.93607, 8.4407, 0, 0.00107778, 0.000206574, 0.000355535, 3.74145, 9.40913, 0, 0.00107776, 0.0266406, -16.5837, -8.76503, 0.0871728, -14.2216, -14.0929, 0.000132172, -0.00017085, -9.80597E-05, 0.000149788, 0.000149788, 0.000149788
7297, 1,0.00034279, -0.000375788, 0.000252762, 1.37831, -23.4595, 0.00108244, 59.2121, -11.2681, 0, 0.0009742, 0.000470162, 0.000892875, 1.64198, 26.4849, 0, 0.000973604, 0.000218079, 0.000394837, 1.2153, 11.0747, 0, 0.000973847, 0.0955527, -21.6658, -57.8846, 0.161502, -11.032, -22.3535, 0.000415864, -4.33401E-05, -0.000802454, 0.000173866, 0.000173866, 0.000173866
7298, 1,0.000275018, -0.000240963, 0.000163495, 1.49914, -15.0442, 0.000535452, 9.20514, 21.4453, 0, 0.00100817, 0.000359203, 0.000676327, 1.83836, 19.8889, 0, 0.00100819, 0.000192314, 0.000353549, 1.25259, 10.095, 0, 0.00100835, 0.159813, -18.3977, -41.4287, 0.294439, -10.9737, -19.6059, 0.000311572, -6.43325E-05, -0.000570009, 0.000160129, 0.000160129, 0.000160129
7299, 1,0.000226603, -0.000114357, 8.08882E-05, 2.4381, -7.05415, 0.000940464, 3.88242, 54.5078, 0, 0.00104215, 0.000273014, 0.00048811, 3.10895, 13.5936, 0, 0.00104284, 0.00018096, 0.000328121, 1.79029, 9.30863, 0, 0.00104291, 0.0159631, -15.9834, -24.8135, 0.120045, -11.4572, -16.5888, 0.00020981, -9.49223E-05, -0.000335379, 0.000145009, 0.000145009, 0.000145009
7300, 1,0.000224977, 6.08945E-05, 5.13561E-05, 6.10102, 3.26658, 0.00144576, 2.94532, 88.0998, 0, 0.00107618, 0.000261252, 0.000379502, 8.51941, 7.48339, 0, 0.00107759, 0.000195219, 0.000331443, 3.89011, 8.61578, 0, 0.00107757, 0.00816457, -16.581, -5.87736, 0.0696626, -14.0511, -11.8659, 0.000116543, -0.000186806, -5.0944E-05, 0.000136715, 0.000136715, 0.000136715
7301, 1,0.000323416, -0.000359002, 0.000241395, 1.21682, -22.4126, 0.00110995, 61.2629, -12.2768, 0, 0.000974201, 0.000444723, 0.000846381, 1.44481, 25.0744, 0, 0.000973611, 0.000205032, 0.000371502, 1.09892, 10.3412, 0, 0.000973844, 0.216404, -21.1302, -54.3094, 0.282687, -10.7285, -20.5779, 0.000396428, -5.49666E-05, -0.000748506, 0.000165119, 0.000165119, 0.000165119
7302, 1,0.000259198, -0.00022902, 0.000155388, 1.34481, -14.2955, 0.000517876, 9.79364, 19.5235, 0, 0.00100817, 0.000339263, 0.000638967, 1.67624, 18.8318, 0, 0.00100818, 0.000180579, 0.000332253, 1.09977, 9.52953, 0, 0.00100833, 0.0958433, -18.0684, -38.523, 0.210006, -10.7346, -18.064, 0.00029372, -7.47705E-05, -0.00052457, 0.000149581, 0.000149581, 0.000149581
7303, 1,0.000213006, -0.000107349, 7.63668E-05, 2.47867, -6.60145, 0.000892455, 3.7859, 51.583, 0, 0.00104214, 0.000257294, 0.000456161, 3.17165, 12.5594, 0, 0.0010428, 0.00016956, 0.000305485, 1.80964, 8.59503, 0, 0.00104287, 0.0403121, -15.7224, -21.9961, 0.128014, -11.1968, -14.7164, 0.000194061, -0.000106533, -0.00029124, 0.000133938, 0.000133938, 0.000133938
7304, 1,0.00021739, 6.52936E-05, 5.44598E-05, 6.5055, 3.53115, 0.00137451, 2.55047, 84.1009, 0, 0.00107614, 0.00025789, 0.000360873, 9.17844, 6.51872, 0, 0.0010775, 0.000184449, 0.000307944, 4.07105, 7.81311, 0, 0.00107747, 0.00819716, -16.4861, -3.07826, 0.0695273, -13.8066, -9.70228, 0.000101231, -0.000200944, -5.84323E-06, 0.000123907, 0.000123907, 0.000123907
7305, 1,0.000306452, -0.00034222, 0.000229986, 0.847592, -21.3661, 0.00115171, 64.2156, -13.5911, 0, 0.000974131, 0.000421873, 0.000804978, 1.06347, 24.024, 0, 0.000973536, 0.000193931, 0.000352614, 0.73526, 9.96681, 0, 0.000973758, 0.0320198, -20.579, -51.5252, 0.0898923, -10.4432, -19.5471, 0.000376188, -6.07032E-05, -0.000705489, 0.000155365, 0.000155365, 0.000155365
7306, 1,0.000246541, -0.000217184, 0.000147396, 1.3719, -13.5517, 0.00050788, 10.8984, 17.3934, 0, 0.00100807, 0.000322431, 0.000603977, 1.69003, 17.7284, 0, 0.00100806, 0.000172121, 0.000313374, 1.13801, 8.91744, 0, 0.00100821, 0.0370176, -17.6193, -35.603, 0.131934, -10.4085, -16.4757, 0.000275275, -8.35197E-05, -0.000479474, 0.000138464, 0.000138464, 0.000138464
7307, 1,0.00020004, -0.000100538, 7.20413E-05, 2.53825, -6.15801, 0.000846497, 3.77601, 48.6678, 0, 0.00104203, 0.00024234, 0.000424929, 3.25957, 11.5356, 0, 0.00104266, 0.000158689, 0.000283277, 1.84337, 7.89123, 0, 0.00104272, 0.0429362, -15.4045, -19.2453, 0.114368, -10.8981, -12.8899, 0.000178076, -0.000116849, -0.000248331, 0.000122625, 0.000122625, 0.000122625
7308, 1,0.000211656, 6.96231E-05, 5.75095E-05, 6.98757, 3.7924, 0.00130746, 2.21384, 80.2851, 0, 0.00107604, 0.000257031, 0.000344652, 9.93725, 5.55493, 0, 0.00107734, 0.000174853, 0.000285476, 4.30493, 7.00945, 0, 0.00107732, 0.00124406, -16.314, -0.351984, 0.0619237, -13.5026, -7.58768, 8.5829E-05, -0.000213465, 3.77144E-05, 0.000110972, 0.000110972, 0.000110972
7309, 1,0.000293364, -0.000325638, 0.000218782, 0.800429, -20.3295, 0.0012138, 68.4674, -15.3509, 0, 0.000974121, 0.000402874, 0.000766759, 0.994353, 22.8394, 0, 0.000973518, 0.000186864, 0.000337064, 0.709755, 9.45624, 0, 0.000973729, -0.00217662, -19.9423, -48.5738, 0.0504968, -10.1093, -18.3099, 0.000357005, -6.6859E-05, -0.00066093, 0.000146707, 0.000146707, 0.000146707
7310, 1,0.000233392, -0.000205439, 0.000139498, 1.36752, -12.8121, 0.000501513, 12.27, 15.1351, 0, 0.00100804, 0.000305148, 0.000568878, 1.67447, 16.634, 0, 0.00100802, 0.000163186, 0.000294332, 1.1464, 8.31408, 0, 0.00100816, -0.00274093, -17.1724, -32.7267, 0.0731432, -10.1081, -14.9073, 0.000257386, -9.22746E-05, -0.000435074, 0.000127906, 0.000127906, 0.000127906
7311, 1,0.000187796, -9.39435E-05, 6.79322E-05, 2.62579, -5.72461, 0.000803299, 3.89335, 45.7586, 0, 0.00104199, 0.000228311, 0.000394642, 3.38427, 10.521, 0, 0.00104258, 0.000148343, 0.000261613, 1.89646, 7.19625, 0, 0.00104264, 0.032328, -15.0341, -16.5612, 0.0869815, -10.5654, -11.1104, 0.000161987, -0.000125979, -0.000206652, 0.000111196, 0.000111196, 0.000111196
7312, 1,0.0002081, 7.38837E-05, 6.05019E-05, 7.56576, 4.05048, 0.00124392, 1.93301, 76.6118, 0, 0.00107599, 0.000259038, 0.000331197, 10.8148, 4.58794, 0, 0.00107725, 0.000166604, 0.000264242, 4.6066, 6.20131, 0, 0.00107722, -0.00975739, -16.0741, 2.32003, 0.0495613, -13.1474, -5.50612, 7.03254E-05, -0.000224649, 8.00896E-05, 9.79019E-05, 9.79019E-05, 9.79019E-05
7313, 1,0.000279188, -0.000309157, 0.000207683, 0.722756, -19.2979, 0.00127779, 72.7661, -17.0434, 0, 0.000974034, 0.00038284, 0.000727699, 0.892565, 21.6519, 0, 0.000973423, 0.000178709, 0.000320611, 0.659455, 8.94207, 0, 0.000973623, -0.0144068, -19.3235, -45.6177, 0.0345021, -9.816, -17.0447, 0.000338237, -7.35376E-05, -0.000616217, 0.000138486, 0.000138486, 0.000138486
7314, 1,0.000220016, -0.00019377, 0.000131676, 1.34172, -12.0761, 0.000495699, 13.6648, 12.8784, 0, 0.00100796, 0.000287712, 0.000534138, 1.64144, 15.5544, 0, 0.00100791, 0.00015397, 0.000275516, 1.13018, 7.72532, 0, 0.00100804, -0.0163086, -16.695, -29.9521, 0.0407492, -9.80006, -13.4166, 0.000240295, -0.000100231, -0.000392513, 0.000118147, 0.000118147, 0.000118147
7315, 1,0.000176266, -8.75941E-05, 6.40689E-05, 2.74865, -5.30266, 0.000760973, 4.04369, 42.8639, 0, 0.00104187, 0.000215251, 0.000365422, 3.55519, 9.50757, 0, 0.00104243, 0.000138461, 0.000240526, 1.97385, 6.50203, 0, 0.00104248, 0.0286323, -14.6138, -13.9375, 0.0662154, -10.2003, -9.37197, 0.000146083, -0.000134107, -0.000166179, 9.99399E-05, 9.99399E-05, 9.99399E-05
7316, 1,0.000206921, 7.80456E-05, 6.34093E-05, 8.2449, 4.30384, 0.00118298, 1.7051, 73.0319, 0, 0.00107581, 0.000264019, 0.000320694, 11.8114, 3.62022, 0, 0.00107702, 0.000159851, 0.000244486, 4.98189, 5.39095, 0, 0.00107699, -0.0228515, -15.7664, 4.92863, 0.0342704, -12.7416, -3.46553, 5.47884E-05, -0.000234485, 0.000121162, 8.47604E-05, 8.47604E-05, 8.47604E-05
7317, 1,0.000264921, -0.000292758, 0.000196654, 0.637891, -18.2707, 0.0013407, 76.9976, -18.7111, 0, 0.000974033, 0.000362771, 0.000688806, 0.785832, 20.4723, 0, 0.000973414, 0.000170409, 0.000304192, 0.600016, 8.43423, 0, 0.000973605, -0.0191423, -18.6729, -42.7248, 0.0261674, -9.51155, -15.8173, 0.000319748, -7.94468E-05, -0.00057268, 0.00013052, 0.00013052, 0.00013052
7318, 1,0.000206907, -0.000182175, 0.00012393, 1.32832, -11.3438, 0.000492558, 15.1821, 10.625, 0, 0.00100794, 0.000270604, 0.000499921, 1.62377, 14.4749, 0, 0.00100788, 0.000144983, 0.000257119, 1.12447, 7.13604, 0, 0.001008, -0.0108941, -16.1704, -27.2434, 0.0282626, -9.46592, -11.9705, 0.00022361, -0.000107243, -0.000351302, 0.000108808, 0.000108808, 0.000108808
7319, 1,0.00016559, -8.15094E-05, 6.04733E-05, 2.91253, -4.893, 0.000718706, 4.186, 39.9857, 0, 0.00104186, 0.000203334, 0.000337458, 3.77948, 8.49601, 0, 0.00104239, 0.000129142, 0.000220145, 2.07968, 5.80946, 0, 0.00104244, 0.0333508, -14.1412, -11.3802, 0.0538543, -9.79934, -7.68288, 0.000130398, -0.000141165, -0.000127026, 8.89025E-05, 8.89025E-05, 8.89025E-05
7320, 1,0.000208462, 8.21133E-05, 6.62337E-05, 9.0348, 4.5528, 0.00112368, 1.52017, 69.5014, 0, 0.0010758, 0.00027218, 0.000313406, 12.9328, 2.65157, 0, 0.00107696, 0.000154953, 0.000226618, 5.44223, 4.57857, 0, 0.00107693, -0.0311319, -15.3977, 7.47416, 0.0227671, -12.2909, -1.46757, 3.93546E-05, -0.000243128, 0.000160953, 7.16859E-05, 7.16859E-05, 7.16859E-05
7321, 1,0.000250963, -0.000276448, 0.000185701, 0.563744, -17.2483, 0.00140374, 81.2421, -20.3867, 0, 0.000973965, 0.000343072, 0.000650431, 0.692421, 19.3007, 0, 0.000973338, 0.000162354, 0.000288142, 0.548621, 7.93274, 0, 0.000973517, -0.0215181, -17.9835, -39.8971, 0.0200811, -9.18785, -14.6304, 0.000301428, -8.44105E-05, -0.000530387, 0.000122694, 0.000122694, 0.000122694
7322, 1,0.000194218, -0.000170659, 0.000116266, 1.33392, -10.6151, 0.000494258, 16.9291, 8.37063, 0, 0.00100786, 0.000253993, 0.000466267, 1.62888, 13.3957, 0, 0.00100778, 0.000136353, 0.000239156, 1.1344, 6.54693, 0, 0.00100789, 0.00117985, -15.5946, -24.5936, 0.0230252, -9.1003, -10.5635, 0.000207073, -0.000113205, -0.000311294, 9.96264E-05, 9.96264E-05, 9.96264E-05
7323, 1,0.000156035, -7.57203E-05, 5.71791E-05, 3.13097, -4.49707, 0.000676676, 4.33254, 37.1178, 0, 0.00104176, 0.000192852, 0.000310972, 4.07179, 7.48299, 0, 0.00104226, 0.000120635, 0.000200638, 2.22701, 5.11527, 0, 0.0010423, 0.0451942, -13.6198, -8.87434, 0.0490777, -9.36413, -6.03077, 0.00011485, -0.000147282, -8.89259E-05, 7.80107E-05, 7.80107E-05, 7.80107E-05
7324, 1,0.000212988, 8.60975E-05, 6.89809E-05, 9.94012, 4.79784, 0.00106532, 1.36505, 65.9952, 0, 0.00107571, 0.000283593, 0.000309412, 14.1777, 1.68476, 0, 0.00107683, 0.000152274, 0.000211014, 5.99636, 3.76706, 0, 0.00107679, -0.0373121, -14.9746, 9.95761, 0.0130639, -11.8004, 0.48614, 2.40061E-05, -0.000250679, 0.000199535, 5.86775E-05, 5.86775E-05, 5.86775E-05
7325, 1,0.00023738, -0.000260225, 0.000174823, 0.504429, -16.2307, 0.00146725, 85.5109, -22.0636, 0, 0.000973961, 0.000323808, 0.000612594, 0.616539, 18.1345, 0, 0.000973326, 0.000154611, 0.000272485, 0.509247, 7.43508, 0, 0.000973495, -0.0215643, -17.256, -37.1261, 0.0159155, -8.84321, -13.4779, 0.000283233, -8.84724E-05, -0.000489209, 0.000114961, 0.000114961, 0.000114961
7326, 1,0.000182052, -0.000159232, 0.000108694, 1.36258, -9.89076, 0.000502557, 18.9916, 6.1138, 0, 0.00100786, 0.000237984, 0.000433236, 1.66076, 12.3165, 0, 0.00100776, 0.000128188, 0.000221683, 1.16452, 5.95765, 0, 0.00100786, 0.0157568, -14.973, -21.9923, 0.0210073, -8.70672, -9.18723, 0.00019059, -0.000118223, -0.000272285, 9.05102E-05, 9.05102E-05, 9.05102E-05
7327, 1,0.000147884, -7.02678E-05, 5.42295E-05, 3.41588, -4.11659, 0.000635432, 4.51494, 34.2521, 0, 0.00104176, 0.000184138, 0.000286242, 4.44636, 6.46831, 0, 0.00104223, 0.000113167, 0.00018218, 2.42554, 4.41991, 0, 0.00104227, 0.0596021, -13.0515, -6.41308, 0.047233, -8.8963, -4.41065, 9.93349E-05, -0.000152489, -5.17436E-05, 6.71685E-05, 6.71685E-05, 6.71685E-05
7328, 1,0.000220748, 9.00056E-05, 7.16525E-05, 10.9689, 5.03966, 0.00100764, 1.23852, 62.4956, 0, 0.00107568, 0.000298277, 0.000308705, 15.5482, 0.717906, 0, 0.00107676, 0.000152263, 0.000198103, 6.65834, 2.95558, 0, 0.00107672, -0.0406242, -14.4986, 12.3855, 0.00547428, -11.2717, 2.39952, 8.72672E-06, -0.0002572, 0.00023702, 4.57256E-05, 4.57256E-05, 4.57256E-05
7329, 1,0.000224167, -0.000244091, 0.000164018, 0.458497, -15.218, 0.00153136, 89.8073, -23.7391, 0, 0.000973902, 0.00030497, 0.000575289, 0.5565, 16.9749, 0, 0.000973259, 0.000147182, 0.000257221, 0.480781, 6.94219, 0, 0.000973417, -0.0209689, -16.4976, -34.4062, 0.0122337, -8.48275, -12.3561, 0.000265147, -9.17619E-05, -0.000449018, 0.000107304, 0.000107304, 0.000107304
7330, 1,0.000170473, -0.000147906, 0.000101227, 1.41573, -9.17129, 0.000518673, 21.4262, 3.85716, 0, 0.00100778, 0.000222646, 0.000400885, 1.72106, 11.2385, 0, 0.00100766, 0.000120546, 0.000204749, 1.21633, 5.36916, 0, 0.00100775, 0.0303713, -14.3117, -19.4341, 0.019657, -8.28911, -7.83802, 0.000174122, -0.000122399, -0.000234151, 8.14188E-05, 8.14188E-05, 8.14188E-05
7331, 1,0.00014147, -6.51988E-05, 5.16705E-05, 3.78101, -3.75395, 0.000595268, 4.74801, 31.3872, 0, 0.00104165, 0.000177577, 0.000263644, 4.91906, 5.45291, 0, 0.00104209, 0.000107018, 0.000165037, 2.68702, 3.72398, 0, 0.00104212, 0.0741206, -12.4431, -3.9898, 0.0461414, -8.4006, -2.81747, 8.38135E-05, -0.000156912, -1.53264E-05, 5.63374E-05, 5.63374E-05, 5.63374E-05
7332, 1,0.000231906, 9.38451E-05, 7.42533E-05, 12.1267, 5.27863, 0.000950562, 1.13947, 58.9984, 0, 0.00107556, 0.000316172, 0.000311207, 17.0435, -0.248969, 0, 0.00107659, 0.000155385, 0.000188332, 7.44185, 2.14422, 0, 0.00107655, -0.0426243, -13.9747, 14.7642, -0.00113126, -10.7087, 4.27721, -6.51799E-06, -0.000262791, 0.000273539, 3.28058E-05, 3.28058E-05, 3.28058E-05
7333, 1,0.000211345, -0.000228046, 0.00015329, 0.426657, -14.2103, 0.00159598, 94.1252, -25.4106, 0, 0.000973859, 0.000286576, 0.000538529, 0.513041, 15.8214, 0, 0.000973207, 0.000140086, 0.000242364, 0.463982, 6.45366, 0, 0.000973355, -0.0195, -15.7127, -31.7319, 0.00913121, -8.10899, -11.2611, 0.000247166, -9.4372E-05, -0.000409711, 9.97195E-05, 9.97195E-05, 9.97195E-05
7334, 1,0.000159582, -0.000136694, 9.38772E-05, 1.49734, -8.45732, 0.000543488, 24.2762, 1.59973, 0, 0.00100772, 0.000208089, 0.000369319, 1.81411, 10.1613, 0, 0.00100758, 0.000113528, 0.000188448, 1.29389, 4.78147, 0, 0.00100767, 0.0445819, -13.6149, -16.9137, 0.0185573, -7.85061, -6.51235, 0.000157657, -0.000125822, -0.000196787, 7.23421E-05, 7.23421E-05, 7.23421E-05
7335, 1,0.000137244, -6.0558E-05, 4.95492E-05, 4.24575, -3.41112, 0.000556582, 5.05266, 28.5201, 0, 0.0010416, 0.000173675, 0.000243669, 5.51205, 4.43602, 0, 0.00104201, 0.000102575, 0.000149585, 3.02803, 3.02729, 0, 0.00104203, 0.0884495, -11.7976, -1.5989, 0.045315, -7.87979, -1.24738, 6.82655E-05, -0.00016062, 2.0426E-05, 4.55021E-05, 4.55021E-05, 4.55021E-05
7336, 1,0.00024651, 9.76222E-05, 7.67882E-05, 13.4167, 5.51509, 0.000894003, 1.06479, 55.5027, 0, 0.0010755, 0.000337134, 0.000316763, 18.6613, -1.21667, 0, 0.00107649, 0.000162057, 0.000182109, 8.35981, 1.33242, 0, 0.00107645, -0.043275, -13.4075, 17.1008, -0.00683419, -10.1152, 6.12474, -2.17415E-05, -0.000267556, 0.000309224, 1.99058E-05, 1.99058E-05, 1.99058E-05
7337, 1,0.000198933, -0.000212091, 0.000142636, 0.409368, -13.2076, 0.00166098, 98.457, -27.077, 0, 0.000973843, 0.000268647, 0.000502329, 0.486484, 14.6738, 0, 0.000973184, 0.000133346, 0.000227932, 0.459507, 5.96938, 0, 0.000973321, -0.0174059, -14.9065, -29.0974, 0.00646367, -7.72487, -10.1897, 0.000229285, -9.64061E-05, -0.000371175, 9.22026E-05, 9.22026E-05, 9.22026E-05
7338, 1,0.000149502, -0.000125613, 8.66626E-05, 1.61234, -7.74966, 0.000577456, 27.563, -0.657612, 0, 0.00100771, 0.000194444, 0.000338667, 1.94521, 9.0851, 0, 0.00100755, 0.000107253, 0.000172898, 1.40227, 4.19461, 0, 0.00100763, 0.0582213, -12.8879, -14.4256, 0.0175539, -7.39445, -5.20693, 0.00014119, -0.000128596, -0.000160085, 6.32766E-05, 6.32766E-05, 6.32766E-05
7339, 1,0.000135766, -5.63946E-05, 4.79144E-05, 4.8333, -3.09058, 0.000519678, 5.44235, 25.6521, 0, 0.00104159, 0.000173039, 0.000226923, 6.25085, 3.41776, 0, 0.00104197, 0.000100346, 0.00013633, 3.46945, 2.32987, 0, 0.00104198, 0.102143, -11.1207, 0.765301, 0.0445037, -7.33778, 0.303668, 5.26828E-05, -0.000163724, 5.5631E-05, 3.46568E-05, 3.46568E-05, 3.46568E-05
7340, 1,0.000264485, 0.000101346, 7.92634E-05, 14.8394, 5.74963, 0.000837996, 1.01705, 52.0072, 0, 0.0010755, 0.000360964, 0.000325156, 20.3979, -2.18612, 0, 0.00107644, 0.000172575, 0.000179715, 9.42233, 0.519659, 0, 0.00107639, -0.0427119, -12.8013, 19.4024, -0.0116698, -9.49469, 7.94739, -3.69623E-05, -0.000271593, 0.000344206, 7.01516E-06, 7.01516E-06, 7.01516E-06
7341, 1,0.00018697, -0.000196229, 0.000132062, 0.407935, -12.21, 0.00172627, 102.799, -28.7382, 0, 0.000973768, 0.000251221, 0.000466725, 0.478193, 13.5316, 0, 0.0009731, 0.000126996, 0.000213958, 0.468688, 5.48902, 0, 0.000973227, -0.014375, -14.0831, -26.4974, 0.00440214, -7.33286, -9.13861, 0.000211502, -9.79567E-05, -0.000333308, 8.47515E-05, 8.47515E-05, 8.47515E-05
7342, 1,0.00014042, -0.000114691, 7.96115E-05, 1.76903, -7.0497, 0.000620594, 31.2883, -2.91621, 0, 0.00100763, 0.000181919, 0.000309134, 2.12345, 8.00945, 0, 0.00100745, 0.000101893, 0.00015827, 1.54953, 3.60834, 0, 0.00100752, 0.0713173, -12.1346, -11.965, 0.0167533, -6.92328, -3.91849, 0.000124715, -0.000130802, -0.000123953, 5.42201E-05, 5.42201E-05, 5.42201E-05
7343, 1,0.000137691, -5.27514E-05, 4.68094E-05, 5.57081, -2.79448, 0.0004851, 5.94378, 22.7818, 0, 0.0010415, 0.000176352, 0.000214087, 7.16455, 2.39777, 0, 0.00104185, 0.000100964, 0.0001259, 4.03665, 1.6315, 0, 0.00104186, 0.115247, -10.4162, 3.10764, 0.043797, -6.77761, 1.83932, 3.70589E-05, -0.0001663, 9.03777E-05, 2.37982E-05, 2.37982E-05, 2.37982E-05
7344, 1,0.000285618, 0.00010502, 8.16826E-05, 16.3907, 5.98234, 0.000782521, 0.995414, 48.514, 0, 0.00107539, 0.000387391, 0.000336117, 22.2461, -3.15725, 0, 0.00107629, 0.000187012, 0.000181224, 10.6337, -0.294121, 0, 0.00107624, -0.0411384, -12.1614, 21.6743, -0.0157433, -8.85132, 9.74943, -5.21849E-05, -0.000275001, 0.000378588, -5.87022E-06, -5.87022E-06, -5.87022E-06
7345, 1,0.000175498, -0.000180464, 0.00012157, 0.423091, -11.2179, 0.00179178, 107.145, -30.3932, 0, 0.000973775, 0.00023434, 0.000431762, 0.488571, 12.3955, 0, 0.000973099, 0.000121075, 0.000200478, 0.492691, 5.01273, 0, 0.000973216, -0.0108957, -13.2477, -23.9279, 0.00275445, -6.93579, -8.10517, 0.000193814, -9.91209E-05, -0.000296021, 7.73649E-05, 7.73649E-05, 7.73649E-05
7346, 1,0.000132575, -0.000103965, 7.27586E-05, 1.97825, -6.35921, 0.00067247, 35.43, -5.17473, 0, 0.00100764, 0.000170773, 0.000280982, 2.36052, 6.93437, 0, 0.00100744, 9.76675E-05, 0.000144781, 1.7463, 3.02257, 0, 0.0010075, 0.0838334, -11.3599, -9.52701, 0.0161553, -6.44005, -2.6438, 0.000108233, -0.000132539, -8.82905E-05, 4.51708E-05, 4.51708E-05, 4.51708E-05
7347, 1,0.000143678, -4.96584E-05, 4.62643E-05, 6.48538, -2.52437, 0.00045344, 6.58413, 19.9101, 0, 0.00104147, 0.000184266, 0.00020581, 8.28107, 1.3758, 0, 0.00104179, 0.000105105, 0.00011897, 4.75616, 0.931959, 0, 0.0010418, 0.127762, -9.68852, 5.43336, 0.043228, -6.20253, 3.36343, 2.13893E-05, -0.000168442, 0.000124768, 1.29231E-05, 1.29231E-05, 1.29231E-05
7348, 1,0.000309616, 0.000108651, 8.40492E-05, 18.0642, 6.21371, 0.000727632, 1.00353, 45.022, 0, 0.00107534, 0.000416136, 0.000349349, 24.1989, -4.13119, 0, 0.0010762, 0.00020521, 0.000186464, 11.9931, -1.10956, 0, 0.00107615, -0.038439, -11.4909, 23.9229, -0.0189443, -8.18806, 11.5357, -6.74254E-05, -0.000277855, 0.00041248, -1.87592E-05, -1.87592E-05, -1.87592E-05
7349, 1,0.000164584, -0.000164804, 0.000111168, 0.45715, -10.2316, 0.00185742, 111.494, -32.0432, 0, 0.000973682, 0.000218078, 0.00039751, 0.520077, 11.265, 0, 0.000972998, 0.000115638, 0.000187547, 0.533801, 4.54025, 0, 0.000973104, -0.0067516, -12.4043, -21.3838, 0.00161866, -6.53592, -7.08643, 0.000176221, -9.9982E-05, -0.000259222, 7.00408E-05, 7.00408E-05, 7.00408E-05
7350, 1,0.000126307, -9.34852E-05, 6.61555E-05, 2.25644, -5.68068, 0.000732312, 39.9517, -7.43441, 0, 0.00100754, 0.000161388, 0.000254587, 2.6745, 5.85942, 0, 0.00100732, 9.48689E-05, 0.00013272, 2.00789, 2.43703, 0, 0.00100738, 0.0957088, -10.5678, -7.10623, 0.0157623, -5.9474, -1.37945, 9.17337E-05, -0.000133892, -5.29984E-05, 3.6124E-05, 3.6124E-05, 3.6124E-05
7351, 1,0.000154254, -4.713E-05, 4.62949E-05, 7.59998, -2.28103, 0.000425615, 7.40701, 17.0367, 0, 0.0010414, 0.000197286, 0.000202587, 9.62357, 0.351203, 0, 0.00104168, 0.000113341, 0.000116103, 5.65103, 0.230896, 0, 0.00104168, 0.139492, -8.94176, 7.74866, 0.0427344, -5.61567, 4.88025, 5.65916E-06, -0.000170238, 0.000158915, 2.02353E-06, 2.02353E-06, 2.02353E-06
7352, 1,0.000336136, 0.000112245, 8.63696E-05, 19.8506, 6.44397, 0.000673325, 1.04234, 41.5308, 0, 0.00107525, 0.000446914, 0.000364568, 26.2474, -5.10789, 0, 0.00107606, 0.000226803, 0.000195069, 13.4929, -1.92672, 0, 0.001076, -0.034751, -10.7951, 26.1535, -0.021315, -7.50885, 13.3103, -8.26866E-05, -0.000280261, 0.000445988, -3.16544E-05, -3.16544E-05, -3.16544E-05
7353, 1,0.000154308, -0.000149253, 0.000100858, 0.512846, -9.25137, 0.00192313, 115.841, -33.6873, 0, 0.000973712, 0.000202518, 0.000364047, 0.575486, 10.1397, 0, 0.00097302, 0.000110749, 0.000175222, 0.594802, 4.07132, 0, 0.000973116, -0.0020529, -11.557, -18.8599, 0.000941743, -6.13555, -6.07936, 0.000158716, -0.000100631, -0.000222808, 6.27748E-05, 6.27748E-05, 6.27748E-05
7354, 1,0.000122066, -8.33224E-05, 5.98722E-05, 2.62632, -5.01757, 0.000799152, 44.8059, -9.69417, 0, 0.00100753, 0.000154277, 0.000230461, 3.09042, 4.78447, 0, 0.0010073, 9.38606E-05, 0.000122448, 2.35461, 1.85154, 0, 0.00100735, 0.106925, -9.76264, -4.69769, 0.0156011, -5.44805, -0.122185, 7.52149E-05, -0.000134952, -1.79783E-05, 2.70775E-05, 2.70775E-05, 2.70775E-05
7355, 1,0.000169623, 4.86295E-05, 4.68948E-05, 8.92562, 2.37805, 0.000402834, 8.46938, 14.1614, 0, 0.00104137, 0.000215586, 0.000204594, 11.2024, -0.676231, 0, 0.00104162, 0.000125912, 0.000117539, 6.73269, -0.471898, 0, 0.00104161, 0.15061, -8.17997, 10.0581, 0.0424128, -5.02003, 6.39331, -1.01316E-05, -0.000171771, 0.000192906, -8.90185E-06, -8.90185E-06, -8.90185E-06
7356, 1,0.000364836, 0.00011581, 8.86487E-05, 21.7403, 6.67357, 0.000619703, 1.11653, 38.0404, 0, 0.00107521, 0.000479466, 0.000381502, 28.3838, -6.0882, 0, 0.00107598, 0.000251324, 0.000206564, 15.1222, -2.74609, 0, 0.00107592, -0.0301326, -10.0776, 28.3723, -0.0228794, -6.81688, 15.078, -9.79836E-05, -0.000282298, 0.000479221, -4.45647E-05, -4.45647E-05, -4.45647E-05
7357, 1,0.000144785, -0.000133823, 9.06557E-05, 0.594532, -8.27786, 0.00198887, 120.184, -35.3261, 0, 0.000973637, 0.000187794, 0.000331504, 0.659607, 9.0195, 0, 0.000972936, 0.000106492, 0.000163586, 0.67964, 3.60582, 0, 0.000973022, 0.00321554, -10.7098, -16.3519, 0.000752996, -5.73686, -5.08137, 0.000141296, -0.000101147, -0.000186695, 5.55654E-05, 5.55654E-05, 5.55654E-05
7358, 1,0.00012044, -7.3576E-05, 5.4009E-05, 3.11969, -4.37474, 0.000871943, 49.9427, -11.9547, 0, 0.00100745, 0.000150143, 0.000209299, 3.64435, 3.70914, 0, 0.00100719, 9.50695E-05, 0.000114388, 2.81233, 1.26591, 0, 0.00100723, 0.117188, -8.94852, -2.29608, 0.015475, -4.9446, 1.13139, 5.86642E-05, -0.000135804, 1.6871E-05, 1.80236E-05, 1.80236E-05, 1.80236E-05
7359, 1,0.000189601, 5.23564E-05, 4.80405E-05, 10.4588, 2.67337, 0.000386849, 9.85407, 11.2839, 0, 0.00104129, 0.000238975, 0.000211635, 13.0138, -1.70675, 0, 0.00104151, 0.000142623, 0.000123079, 7.99735, -1.17661, 0, 0.0010415, 0.160831, -7.4075, 12.3669, 0.0421105, -4.41879, 7.90651, -2.59936E-05, -0.00017313, 0.000226843, -1.986E-05, -1.986E-05, -1.986E-05
7360, 1,0.000395389, 0.000119351, 9.08927E-05, 23.7227, 6.90284, 0.000566878, 1.23081, 34.5511, 0, 0.00107511, 0.000513554, 0.000399909, 30.5998, -7.07237, 0, 0.00107583, 0.000278277, 0.000220448, 16.8668, -3.5679, 0, 0.00107577, -0.0246236, -9.34305, 30.5848, -0.023638, -6.1157, 16.843, -0.000113322, -0.000284059, 0.000512283, -5.74942E-05, -5.74942E-05, -5.74942E-05
7361, 1,0.000136166, -0.000118527, 8.0574E-05, 0.708269, -7.31178, 0.00205456, 124.52, -36.9594, 0, 0.000973643, 0.000174078, 0.000300048, 0.779138, 7.90421, 0, 0.000972934, 0.000102966, 0.000152733, 0.793593, 3.14358, 0, 0.000973009, 0.00872137, -9.86622, -13.8551, 0.000872646, -5.3419, -4.08972, 0.000123952, -0.000101609, -0.00015079, 4.84067E-05, 4.84067E-05, 4.84067E-05
7362, 1,0.000122135, -6.43873E-05, 4.87062E-05, 3.77725, -3.7591, 0.000949726, 55.3156, -14.2154, 0, 0.00100746, 0.000149877, 0.000191995, 4.38455, 2.63306, 0, 0.00100718, 9.89318E-05, 0.000108973, 3.40959, 0.679831, 0, 0.00100721, 0.126871, -8.12941, 0.10337, 0.0156057, -4.43945, 2.38435, 4.2084E-05, -0.000136533, 5.16396E-05, 8.96229E-06, 8.96229E-06, 8.96229E-06
7363, 1,0.000213672, 5.6602E-05, 4.96929E-05, 12.1825, 2.99445, 0.000379972, 11.6696, 8.4049, 0, 0.00104126, 0.000266946, 0.000223195, 15.0403, -2.74087, 0, 0.00104145, 0.000162925, 0.000132169, 9.4271, -1.88359, 0, 0.00104144, 0.170189, -6.62818, 14.6806, 0.0418511, -3.81478, 9.42371, -4.19344E-05, -0.000174397, 0.000260826, -3.08564E-05, -3.08564E-05, -3.08564E-05
7364, 1,0.000427505, 0.000122875, 9.31061E-05, 25.7876, 7.13207, 0.000515038, 1.39321, 31.0627, 0, 0.00107505, 0.000548969, 0.000419572, 32.888, -8.06085, 0, 0.00107574, 0.000307203, 0.000236259, 18.7118, -4.39244, 0, 0.00107567, -0.0183608, -8.59535, 32.7963, -0.0236655, -5.40862, 18.6096, -0.000128712, -0.000285628, 0.000545273, -7.04497E-05, -7.04497E-05, -7.04497E-05
7365, 1,0.000128655, -0.000103393, 7.06395E-05, 0.863374, -6.35452, 0.0021202, 128.849, -38.5868, 0, 0.000973563, 0.000161623, 0.00026993, 0.944665, 6.79347, 0, 0.000972846, 0.000100293, 0.000142784, 0.944158, 2.68434, 0, 0.000972911, 0.0148181, -9.02996, -11.3653, 0.0015068, -4.95255, -3.10196, 0.000106685, -0.000102095, -0.000115013, 4.12992E-05, 4.12992E-05, 4.12992E-05
7366, 1,0.000127893, -5.59467E-05, 4.41544E-05, 4.64448, -3.17995, 0.00103161, 60.8826, -16.4771, 0, 0.00100735, 0.000154515, 0.000179579, 5.36993, 1.55608, 0, 0.00100705, 0.000105801, 0.000106554, 4.17081, 0.0931496, 0, 0.00100707, 0.135571, -7.30928, 2.50547, 0.0157971, -3.93509, 3.63984, 2.54631E-05, -0.000137221, 8.64215E-05, -1.12823E-07, -1.12823E-07, -1.12823E-07
7367, 1,0.000241156, 6.13169E-05, 5.18023E-05, 14.0709, 3.33895, 0.000385107, 14.0532, 5.52378, 0, 0.00104116, 0.000298814, 0.000238589, 17.2554, -3.77892, 0, 0.00104131, 0.000186119, 0.000144107, 10.9961, -2.59309, 0, 0.00104129, 0.178544, -5.84588, 17.0041, 0.04157, -3.21088, 10.9486, -5.7962E-05, -0.000175651, 0.000294948, -4.18958E-05, -4.18958E-05, -4.18958E-05
7368, 1,0.000460927, 0.000126386, 9.52939E-05, 27.9251, 7.36148, 0.000464425, 1.6152, 27.5743, 0, 0.00107496, 0.000585522, 0.000440303, 35.2406, -9.05371, 0, 0.00107559, 0.000337707, 0.000253598, 20.6427, -5.2198, 0, 0.00107553, -0.0116028, -7.83881, 35.0115, -0.0230896, -4.69894, 20.3814, -0.00014416, -0.000287086, 0.000578282, -8.34357E-05, -8.34357E-05, -8.34357E-05
7369, 1,0.000122529, -8.84592E-05, 6.08916E-05, 1.07355, -5.40817, 0.00218572, 133.166, -40.2085, 0, 0.00097357, 0.000150786, 0.000241501, 1.17221, 5.6871, 0, 0.000972845, 9.86165E-05, 0.000133877, 1.14135, 2.22792, 0, 0.0009729, 0.0210442, -8.20468, -8.87767, 0.00241115, -4.57082, -2.11535, 8.94849E-05, -0.000102682, -7.9271E-05, 3.42355E-05, 3.42355E-05, 3.42355E-05
7370, 1,0.000138301, -4.84958E-05, 4.05953E-05, 5.75913, -2.64897, 0.00111685, 66.6083, -18.7392, 0, 0.00100736, 0.000165029, 0.000173022, 6.65869, 0.478016, 0, 0.00100704, 0.000115836, 0.000107287, 5.10663, -0.494243, 0, 0.00100706, 0.143263, -6.49237, 4.91505, 0.0159936, -3.43421, 4.90094, 8.79839E-06, -0.000137954, 0.000121311, -9.20475E-06, -9.20475E-06, -9.20475E-06
7371, 1,0.000271369, 6.64477E-05, 5.43151E-05, 16.0956, 3.70428, 0.0004054, 17.1538, 2.64036, 0, 0.00104114, 0.000333873, 0.000257106, 19.6293, -4.82101, 0, 0.00104126, 0.000211539, 0.000158226, 12.6771, -3.3052, 0, 0.00104124, 0.185812, -5.06469, 19.3419, 0.0412055, -2.61013, 12.4845, -7.40805E-05, -0.000176976, 0.000329296, -5.2982E-05, -5.2982E-05, -5.2982E-05
7372, 1,0.000495453, 0.000129893, 9.74621E-05, 30.1271, 7.59151, 0.000415411, 1.9127, 24.0866, 0, 0.00107493, 0.000623072, 0.000461947, 37.6524, -10.0517, 0, 0.00107552, 0.000369473, 0.000272145, 22.6471, -6.0505, 0, 0.00107545, -0.0041668, -7.07707, 37.2364, -0.0218019, -3.98972, 22.163, -0.000159676, -0.000288515, 0.000611414, -9.64584E-05, -9.64584E-05, -9.64584E-05
7373, 1,0.00011816, -7.37958E-05, 5.14013E-05, 1.36025, -4.47654, 0.00225111, 137.472, -41.8252, 0, 0.000973522, 0.000142091, 0.000215281, 1.48798, 4.58471, 0, 0.000972789, 9.81033E-05, 0.000126174, 1.39888, 1.77405, 0, 0.000972833, 0.0275991, -7.39325, -6.38849, 0.00370649, -4.19812, -1.12772, 7.23488E-05, -0.000103435, -4.34925E-05, 2.72143E-05, 2.72143E-05, 2.72143E-05
7374, 1,0.000153576, -4.23023E-05, 3.82962E-05, 7.13496, -2.1788, 0.00120482, 72.4624, -21.0025, 0, 0.00100728, 0.000182015, 0.000172916, 8.28719, -0.601763, 0, 0.00100695, 0.000128932, 0.000111065, 6.2088, -1.08283, 0, 0.00100696, 0.150226, -5.68159, 7.33665, 0.0164199, -2.93848, 6.17056, -7.9139E-06, -0.0001388, 0.000156389, -1.83159E-05, -1.83159E-05, -1.83159E-05
7375, 1,0.000303718, 7.19429E-05, 5.71793E-05, 18.2309, 4.08796, 0.000443325, 21.0888, -0.245676, 0, 0.00104105, 0.000371488, 0.000278107, 22.1344, -5.86774, 0, 0.00104114, 0.000238641, 0.000173976, 14.4464, -4.02036, 0, 0.00104111, 0.191995, -4.28799, 21.6992, 0.0407855, -2.015, 14.0353, -9.02987E-05, -0.000178446, 0.000363963, -6.41206E-05, -6.41206E-05, -6.41206E-05
7376, 1,0.000530909, 0.0001334, 9.96155E-05, 32.3861, 7.8224, 0.000368528, 2.31089, 20.5988, 0, 0.00107484, 0.000661489, 0.000484372, 40.1178, -11.0552, 0, 0.00107539, 0.000402251, 0.000291644, 24.7137, -6.88474, 0, 0.00107532, 0.0037019, -6.31405, 39.4758, -0.0199273, -3.28406, 23.9582, -0.000175268, -0.000289995, 0.000644759, -0.000109524, -0.000109524, -0.000109524
7377, 1,0.000116028, -5.95349E-05, 4.23003E-05, 1.7556, -3.56676, 0.0023163, 141.765, -43.4364, 0, 0.000973526, 0.000136285, 0.000192015, 1.93432, 3.48607, 0, 0.000972785, 9.89286E-05, 0.00011985, 1.73371, 1.32255, 0, 0.000972819, 0.0345461, -6.59863, -3.89413, 0.00546594, -3.836, -0.137099, 5.5275E-05, -0.000104416, -7.60779E-06, 2.02347E-05, 2.02347E-05, 2.02347E-05
7378, 1,0.00017347, -3.75886E-05, 3.74801E-05, 8.75368, -1.77957, 0.00129499, 78.4202, -23.2659, 0, 0.00100726, 0.000205428, 0.000179213, 10.2505, -1.68322, 0, 0.00100691, 0.000144769, 0.000117563, 7.45373, -1.67257, 0, 0.00100691, 0.155872, -4.88121, 9.77501, 0.0166674, -2.45066, 7.45171, -2.46856E-05, -0.000139843, 0.000191751, -2.74543E-05, -2.74543E-05, -2.74543E-05
7379, 1,0.00033773, 7.77541E-05, 6.03462E-05, 20.4548, 4.4876, 0.000499688, 25.897, -3.13392, 0, 0.00104103, 0.000411136, 0.000301067, 24.7463, -6.91908, 0, 0.00104109, 0.000267013, 0.000190946, 16.2849, -4.73855, 0, 0.00104105, 0.196898, -3.51998, 24.0803, 0.0401475, -1.4286, 15.6041, -0.000106621, -0.000180142, 0.000399036, -7.53153E-05, -7.53153E-05, -7.53153E-05
7380, 1,0.00056715, 0.000136913, 0.000101759, 34.6953, 8.05441, 0.000324648, 2.85091, 17.1106, 0, 0.00107479, 0.000700661, 0.000507462, 42.6315, -12.0642, 0, 0.0010753, 0.000435837, 0.000311891, 26.8331, -7.72264, 0, 0.00107523, 0.0119838, -5.55352, 41.7341, -0.0174834, -2.58499, 25.7704, -0.00019094, -0.000291598, 0.000678399, -0.000122635, -0.000122635, -0.000122635
7381, 1,0.000116714, -4.59383E-05, 3.38507E-05, 2.30558, -2.69319, 0.00238131, 146.043, -45.0417, 0, 0.000973435, 0.000134393, 0.000172723, 2.57878, 2.39141, 0, 0.000972686, 0.000101267, 0.000115077, 2.16459, 0.873539, 0, 0.00097271, 0.0411756, -5.82459, -1.39082, 0.00725255, -3.48653, 0.858659, 3.82528E-05, -0.0001057, 2.84633E-05, 1.32897E-05, 1.32897E-05, 1.32897E-05
7382, 1,0.000197359, 4.20258E-05, 3.82343E-05, 10.5744, 2.18704, 0.00138697, 84.4631, -25.5301, 0, 0.00100718, 0.000234585, 0.000191229, 12.5051, -2.76677, 0, 0.00100681, 0.000162901, 0.000126335, 8.81205, -2.26381, 0, 0.0010068, 0.160419, -4.09442, 12.2343, 0.0169069, -1.97263, 8.74715, -4.15181E-05, -0.000141153, 0.000227475, -3.66213E-05, -3.66213E-05, -3.66213E-05
7383, 1,0.000373043, 8.38385E-05, 6.37729E-05, 22.7501, 4.90113, 0.000573138, 31.5157, -6.02478, 0, 0.00104093, 0.000452403, 0.000325568, 27.4454, -7.97556, 0, 0.00104096, 0.000296351, 0.000208829, 18.1779, -5.46016, 0, 0.00104092, 0.200481, -2.76393, 26.4901, 0.0393006, -0.853348, 17.1945, -0.000123055, -0.000182134, 0.000434602, -8.65715E-05, -8.65715E-05, -8.65715E-05
7384, 1,0.000604064, 0.000140438, 0.000103898, 37.0493, 8.28781, 0.000285269, 3.60258, 13.6231, 0, 0.00107469, 0.000740506, 0.000531134, 45.1895, -13.0789, 0, 0.00107515, 0.000470081, 0.000332735, 28.9976, -8.56426, 0, 0.00107507, 0.0204399, -4.79982, 44.0159, -0.0146176, -1.89596, 27.6034, -0.000206698, -0.00029341, 0.000712425, -0.000135795, -0.000135795, -0.000135795
7385, 1,0.000120853, -3.35691E-05, 2.66143E-05, 3.06878, -1.88614, 0.00244606, 150.303, -46.6418, 0, 0.000973441, 0.000137696, 0.000158685, 3.52139, 1.29987, 0, 0.000972684, 0.000105272, 0.000112001, 2.70913, 0.426416, 0, 0.000972698, 0.0481613, -5.07271, 1.12495, 0.00951785, -3.1503, 1.86153, 2.12833E-05, -0.00010733, 6.47781E-05, 6.37998E-06, 6.37998E-06, 6.37998E-06
7386, 1,0.00022447, 4.81573E-05, 4.04643E-05, 12.5504, 2.66712, 0.0014804, 90.5747, -27.7955, 0, 0.00100717, 0.00026845, 0.000207928, 14.9892, -3.85272, 0, 0.00100677, 0.000182867, 0.000136917, 10.2562, -2.85675, 0, 0.00100676, 0.163961, -3.32426, 14.7185, 0.0171895, -1.50628, 10.0593, -5.84142E-05, -0.000142795, 0.000263634, -4.58189E-05, -4.58189E-05, -4.58189E-05
7387, 1,0.000409379, 9.01584E-05, 6.74215E-05, 25.1032, 5.32671, 0.000660848, 37.812, -8.91836, 0, 0.0010409, 0.000494964, 0.000351283, 30.2161, -9.03762, 0, 0.0010409, 0.000326436, 0.000227404, 20.1144, -6.18551, 0, 0.00104085, 0.202922, -2.02291, 28.9328, 0.0383563, -0.291581, 18.8098, -0.000139605, -0.00018449, 0.000470736, -9.78918E-05, -9.78918E-05, -9.78918E-05
7388, 1,0.000641564, 0.000143981, 0.000106039, 39.4441, 8.523, 0.000253133, 4.69587, 10.1346, 0, 0.00107465, 0.000780956, 0.000555306, 47.7893, -14.1002, 0, 0.00107507, 0.000504871, 0.000354054, 31.2014, -9.41034, 0, 0.00107499, 0.0292102, -4.05534, 46.3268, -0.0111961, -1.219, 29.4612, -0.000222556, -0.000295489, 0.000746926, -0.000149013, -0.000149013, -0.000149013
7389, 1,0.000128972, -2.35916E-05, 2.17534E-05, 4.09583, -1.20519, 0.00251049, 154.543, -48.2347, 0, 0.000973384, 0.000147473, 0.000151176, 4.87048, 0.211594, 0, 0.000972619, 0.000111029, 0.000110709, 3.3757, -0.0187293, 0, 0.000972623, 0.0550166, -4.34612, 3.65632, 0.0119555, -2.82894, 2.87318, 4.35899E-06, -0.000109369, 0.000101404, -4.99332E-07, -4.99332E-07, -4.99332E-07
7390, 1,0.000254078, 5.55382E-05, 4.39428E-05, 14.6413, 3.20548, 0.00157502, 96.7418, -30.061, 0, 0.00100709, 0.000305973, 0.000228262, 17.6448, -4.94107, 0, 0.00100668, 0.000204272, 0.000148914, 11.7645, -3.45143, 0, 0.00100666, 0.166226, -2.57465, 17.2316, 0.0173618, -1.05403, 11.391, -7.53794E-05, -0.000144847, 0.00030031, -5.50508E-05, -5.50508E-05, -5.50508E-05
7391, 1,0.000446549, 9.66845E-05, 7.12626E-05, 27.5045, 5.7629, 0.000759668, 44.6372, -11.815, 0, 0.00104081, 0.000538591, 0.000377984, 33.047, -10.1055, 0, 0.00104078, 0.00035712, 0.000246523, 22.0868, -6.91478, 0, 0.00104072, 0.204066, -1.30074, 31.4131, 0.037229, 0.253944, 20.4532, -0.000156277, -0.000187287, 0.000507529, -0.000109281, -0.000109281, -0.000109281
7392, 1,0.000679591, 0.00014755, 0.000108187, 41.8765, 8.76032, 0.000233455, 6.37222, 6.64507, 0, 0.00107452, 0.000821969, 0.000579932, 50.4284, -15.1285, 0, 0.0010749, 0.000540127, 0.000375764, 33.4401, -10.261, 0, 0.00107481, 0.0381877, -3.32421, 48.6715, -0.00728779, -0.557404, 31.3477, -0.000238518, -0.000297918, 0.000781994, -0.000162293, -0.000162293, -0.000162293
7393, 1,0.000141333, 2.41708E-05, 2.09141E-05, 5.40082, 1.33314, 0.00257457, 158.76, -49.821, 0, 0.000973394, 0.000164517, 0.00015099, 6.67832, -0.873724, 0, 0.000972621, 0.000118554, 0.000111214, 4.16053, -0.462171, 0, 0.000972615, 0.0620208, -3.64676, 6.20591, 0.0148035, -2.52328, 3.89499, -1.25189E-05, -0.00011186, 0.000138387, -7.34711E-06, -7.34711E-06, -7.34711E-06
7394, 1,0.000285572, 6.38955E-05, 4.83981E-05, 16.8163, 3.78919, 0.00167059, 102.954, -32.3277, 0, 0.00100709, 0.000346246, 0.000251324, 20.4253, -6.03259, 0, 0.00100666, 0.000226785, 0.000161994, 13.3208, -4.04838, 0, 0.00100663, 0.167557, -1.84761, 19.7778, 0.0176656, -0.617081, 12.7446, -9.24179E-05, -0.000147358, 0.000337572, -6.43197E-05, -6.43197E-05, -6.43197E-05
7395, 1,0.000484394, 0.000103389, 7.52687E-05, 29.9461, 6.20838, 0.000866725, 51.8556, -14.7152, 0, 0.00104079, 0.000583089, 0.000405474, 35.9284, -11.1796, 0, 0.00104073, 0.000388284, 0.000266067, 24.0891, -7.64829, 0, 0.00104067, 0.203844, -0.599808, 33.9348, 0.0358733, 0.781315, 22.1277, -0.000173081, -0.000190577, 0.000545048, -0.000120745, -0.000120745, -0.000120745
7396, 1,0.000718066, 0.000151147, 0.000110345, 44.3422, 8.99987, 0.000235728, 9.0676, 3.15316, 0, 0.0010745, 0.000863475, 0.00060494, 53.1034, -16.1637, 0, 0.00107484, 0.000575764, 0.000397779, 35.7089, -11.1164, 0, 0.00107475, 0.0470004, -2.60901, 51.0532, -0.00311334, 0.0866086, 33.2656, -0.000254594, -0.000300745, 0.000817687, -0.000175641, -0.000175641, -0.000175641
7397, 1,0.000157811, 3.27802E-05, 2.44615E-05, 6.9489, 2.00301, 0.00263825, 162.951, -51.3997, 0, 0.000973341, 0.000188688, 0.000157986, 8.89215, -1.95625, 0, 0.00097256, 0.000127782, 0.000113446, 5.04859, -0.90405, 0, 0.000972544, 0.0689384, -2.97685, 8.77667, 0.0179245, -2.23433, 4.92855, -2.93579E-05, -0.000114853, 0.000175788, -1.41684E-05, -1.41684E-05, -1.41684E-05
7398, 1,0.000318495, 7.29846E-05, 5.35876E-05, 19.0532, 4.40681, 0.00176692, 109.201, -34.5942, 0, 0.00100701, 0.000388572, 0.000276423, 23.2968, -7.1273, 0, 0.00100656, 0.00025016, 0.000175912, 14.9135, -4.64766, 0, 0.00100652, 0.167574, -1.14623, 22.3606, 0.017865, -0.197324, 14.1224, -0.000109538, -0.000150392, 0.000375489, -7.36313E-05, -7.36313E-05, -7.36313E-05
7399, 1,0.000522795, 0.00011025, 7.94182E-05, 32.4215, 6.66198, 0.000979811, 59.3618, -17.6178, 0, 0.00104067, 0.00062831, 0.000433615, 38.8525, -12.2598, 0, 0.00104058, 0.000419838, 0.000285957, 26.1162, -8.38591, 0, 0.00104052, 0.202109, 0.0762714, 36.5011, 0.0342166, 1.28784, 23.8357, -0.000190014, -0.000194427, 0.000583356, -0.000132282, -0.000132282, -0.000132282
7400, 1,0.000756939, 0.000154777, 0.000112517, 46.8385, 9.24185, 0.000272839, 13.3705, -0.339582, 0, 0.00107437, 0.000905432, 0.000630287, 55.8118, -17.206, 0, 0.00107466, 0.000611724, 0.000420044, 38.0041, -11.9764, 0, 0.00107457, 0.0557797, -1.91326, 53.4756, 0.00140489, 0.710165, 35.2177, -0.000270783, -0.000304037, 0.000854073, -0.000189055, -0.000189055, -0.000189055
7401, 1,0.000177926, 4.42268E-05, 3.09074E-05, 8.67853, 2.79257, 0.00270142, 167.111, -52.9691, 0, 0.00097333, 0.000218949, 0.000171131, 11.3971, -3.03593, 0, 0.000972542, 0.000138571, 0.000117263, 6.01905, -1.34441, 0, 0.000972515, 0.0755703, -2.33796, 11.3702, 0.0212336, -1.96263, 5.97463, -4.61608E-05, -0.000118376, 0.000213638, -2.09652E-05, -2.09652E-05, -2.09652E-05
7402, 1,0.000352505, 8.26133E-05, 5.93213E-05, 21.3362, 5.04937, 0.00186385, 115.475, -36.8597, 0, 0.00100698, 0.000432443, 0.000303062, 26.2355, -8.22484, 0, 0.00100651, 0.000274212, 0.000190491, 16.5342, -5.24904, 0, 0.00100646, 0.165784, -0.474169, 24.9829, 0.0176311, 0.202976, 15.5265, -0.000126745, -0.000154015, 0.000414128, -8.29887E-05, -8.29887E-05, -8.29887E-05
7403, 1,0.000561693, 0.000117253, 8.36967E-05, 34.9279, 7.12311, 0.00109737, 67.0828, -20.5239, 0, 0.00104066, 0.000674179, 0.000462329, 41.8157, -13.3468, 0, 0.00104053, 0.000451744, 0.000306159, 28.1661, -9.12811, 0, 0.00104046, 0.198734, 0.72468, 39.1169, 0.0321627, 1.77146, 25.5807, -0.000207091, -0.000198902, 0.00062254, -0.000143902, -0.000143902, -0.000143902
7404, 1,0.00079618, 0.000158446, 0.00011471, 49.3635, 9.48658, 0.000351124, 19.5905, -3.83468, 0, 0.00107435, 0.000947817, 0.000655946, 58.5524, -18.2558, 0, 0.0010746, 0.000647972, 0.000442517, 40.3237, -12.8415, 0, 0.0010745, 0.0646012, -1.23984, 55.9428, 0.00635075, 1.31089, 37.2072, -0.000287089, -0.000307854, 0.000891223, -0.000202539, -0.000202539, -0.000202539
7405, 1,0.000201014, 5.70783E-05, 3.88769E-05, 10.5312, 3.64108, 0.00276395, 171.231, -54.5284, 0, 0.000973275, 0.000253885, 0.000189013, 14.0869, -4.11288, 0, 0.000972479, 0.000150739, 0.000122482, 7.05159, -1.78331, 0, 0.000972442, 0.0818564, -1.73171, 13.9885, 0.0246777, -1.70892, 7.03419, -6.29304E-05, -0.000122467, 0.000251978, -2.77392E-05, -2.77392E-05, -2.77392E-05
7406, 1,0.000387351, 9.26379E-05, 6.54588E-05, 23.6555, 5.71043, 0.00196123, 121.77, -39.1262, 0, 0.00100691, 0.000477479, 0.000330872, 29.2254, -9.32682, 0, 0.00100643, 0.000298801, 0.000205592, 18.1778, -5.85363, 0, 0.00100637, 0.163186, 0.167998, 27.6493, 0.0176379, 0.583546, 16.9597, -0.000144041, -0.000158262, 0.000453554, -9.23948E-05, -9.23948E-05, -9.23948E-05
7407, 1,0.000601014, 0.000124381, 8.80898E-05, 37.4615, 7.59097, 0.00121828, 74.9658, -23.434, 0, 0.00104056, 0.000720599, 0.000491539, 44.8131, -14.4408, 0, 0.00104041, 0.000483948, 0.000326642, 30.2362, -9.87514, 0, 0.00104033, 0.194038, 1.34295, 41.7854, 0.029908, 2.23019, 27.3653, -0.000224309, -0.000204053, 0.000662659, -0.000155604, -0.000155604, -0.000155604
7408, 1,0.000835785, 0.000162164, 0.000116932, 51.917, 9.73464, 0.000462458, 27.3821, -7.33351, 0, 0.00107423, 0.000990637, 0.000681913, 61.3256, -19.3137, 0, 0.00107443, 0.000684496, 0.000465181, 42.6668, -13.712, 0, 0.00107434, 0.0731034, -0.592019, 58.4601, 0.0114903, 1.88612, 39.2383, -0.000303529, -0.000312268, 0.000929234, -0.000216104, -0.000216104, -0.000216104
7409, 1,0.000226424, 7.06047E-05, 4.7683E-05, 12.4651, 4.51816, 0.00282571, 175.305, -56.0754, 0, 0.000973296, 0.000292201, 0.000210334, 16.8903, -5.18797, 0, 0.000972493, 0.000164099, 0.000128904, 8.13057, -2.2215, 0, 0.000972446, 0.0879444, -1.15933, 16.6353, 0.0284809, -1.47328, 8.1093, -7.96771E-05, -0.000127164, 0.000290871, -3.44974E-05, -3.44974E-05, -3.44974E-05
7410, 1,0.000422875, 0.000102962, 7.19057E-05, 26.0037, 6.38544, 0.00205891, 128.079, -41.3919, 0, 0.0010069, 0.000523444, 0.000359634, 32.2558, -10.4323, 0, 0.0010064, 0.000323844, 0.000221147, 19.8405, -6.46077, 0, 0.00100633, 0.158102, 0.776245, 30.3624, 0.0166654, 0.941877, 18.4238, -0.000161447, -0.000163201, 0.000493836, -0.000101865, -0.000101865, -0.000101865
7411, 1,0.000640711, 0.000131623, 9.25846E-05, 40.0196, 8.06492, 0.00134177, 82.9751, -26.3498, 0, 0.00104055, 0.000767508, 0.000521194, 47.8416, -15.542, 0, 0.00104037, 0.000516418, 0.000347405, 32.3246, -10.627, 0, 0.00104028, 0.186967, 1.92951, 44.5096, 0.0266512, 2.66271, 29.1918, -0.000241693, -0.00020991, 0.000703765, -0.000167407, -0.000167407, -0.000167407
7412, 1,0.000875657, 0.000165925, 0.000119176, 54.4943, 9.98572, 0.000593915, 36.1529, -10.8389, 0, 0.00107418, 0.00103379, 0.000708084, 64.1265, -20.3801, 0, 0.00107435, 0.000721209, 0.00048795, 45.0288, -14.588, 0, 0.00107425, 0.0818483, 0.030465, 61.0281, 0.0172108, 2.43531, 41.3116, -0.000320098, -0.000317269, 0.000968101, -0.000229744, -0.000229744, -0.000229744
7413, 1,0.000253539, 8.446E-05, 5.69173E-05, 14.4488, 5.40911, 0.00288607, 179.304, -57.611, 0, 0.000973231, 0.000332823, 0.000234043, 19.7595, -6.26054, 0, 0.00097242, 0.000178424, 0.000136313, 9.2411, -2.65812, 0, 0.000972364, 0.0933306, -0.621395, 19.3097, 0.0320996, -1.25617, 9.19843, -9.64014E-05, -0.000132466, 0.000330308, -4.12378E-05, -4.12378E-05, -4.12378E-05
7414, 1,0.000458941, 0.000113508, 7.85908E-05, 28.3765, 7.07095, 0.00215649, 134.382, -43.6575, 0, 0.00100684, 0.000570135, 0.000389174, 35.3192, -11.543, 0, 0.00100631, 0.000349263, 0.0002371, 21.5204, -7.07201, 0, 0.00100624, 0.151789, 1.35063, 33.1266, 0.0157928, 1.27831, 19.9219, -0.000178965, -0.000168854, 0.000535033, -0.0001114, -0.0001114, -0.0001114
7415, 1,0.000680761, 0.000138969, 9.71765E-05, 42.6017, 8.54458, 0.00146741, 91.0943, -29.2762, 0, 0.00104043, 0.000814876, 0.000551302, 50.8998, -16.6511, 0, 0.00104022, 0.000549142, 0.000368506, 34.431, -11.3845, 0, 0.00104013, 0.178309, 2.48141, 47.2937, 0.0231117, 3.06695, 31.0635, -0.000259237, -0.00021654, 0.000745933, -0.000179304, -0.000179304, -0.000179304
7416, 1,0.000915793, 0.000169739, 0.000121454, 57.0934, 10.2401, 0.00073704, 45.5028, -14.3545, 0, 0.00107405, 0.00107728, 0.000734481, 66.9535, -21.4528, 0, 0.00107417, 0.000758101, 0.000510829, 47.4077, -15.468, 0, 0.00107407, 0.088657, 0.62104, 63.6487, 0.0219584, 2.95354, 43.4286, -0.000336807, -0.000322953, 0.00100789, -0.000243465, -0.000243465, -0.000243465
7417, 1,0.000281933, 9.84777E-05, 6.63399E-05, 16.4666, 6.30655, 0.00294397, 183.155, -59.1044, 0, 0.000973209, 0.000375035, 0.000259424, 22.6698, -7.33379, 0, 0.000972392, 0.000193589, 0.000144549, 10.3778, -3.09673, 0, 0.000972325, 0.10026, -0.115887, 22.017, 0.0380138, -1.05426, 10.3064, -0.000113107, -0.000138382, 0.000370349, -4.79646E-05, -4.79646E-05, -4.79646E-05
7418, 1,0.000495456, 0.000124226, 8.54681E-05, 30.7701, 7.76472, 0.00225315, 140.642, -45.924, 0, 0.00100682, 0.000617416, 0.000419406, 38.4101, -12.6592, 0, 0.00100628, 0.000375007, 0.000253454, 23.2155, -7.68729, 0, 0.0010062, 0.144995, 1.88839, 35.9441, 0.015803, 1.59073, 21.4553, -0.000196582, -0.000175278, 0.000577186, -0.000120985, -0.000120985, -0.000120985
7419, 1,0.000721135, 0.000146409, 0.000101855, 45.2065, 9.02948, 0.00159474, 99.3054, -32.2187, 0, 0.00104043, 0.000862659, 0.000581861, 53.9861, -17.7689, 0, 0.00104019, 0.000582101, 0.000389996, 36.5549, -12.1481, 0, 0.0010401, 0.168836, 2.99669, 50.1412, 0.020184, 3.4409, 32.9833, -0.000276934, -0.000223989, 0.000789215, -0.000191286, -0.000191286, -0.000191286
7420, 1,0.000956096, 0.000173602, 0.000123762, 59.7116, 10.4979, 0.000887817, 55.2485, -17.8984, 0, 0.00107404, 0.001121, 0.000761002, 69.8037, -22.5345, 0, 0.00107412, 0.000795084, 0.000533737, 49.8009, -16.354, 0, 0.00107402, 0.0978966, 1.18192, 66.3237, 0.0293812, 3.4419, 45.5907, -0.000353605, -0.000329304, 0.00104859, -0.000257223, -0.000257223, -0.000257223
7421, 1,0.000311018, 0.00011258, 7.58485E-05, 18.4866, 7.20715, 0.00299828, 186.781, -60.5238, 0, 0.000973148, 0.000418113, 0.000285927, 25.5854, -8.39386, 0, 0.000972325, 0.00020916, 0.00015332, 11.5128, -3.52319, 0, 0.000972248, 0.10065, 0.344592, 24.7363, 0.038253, -0.879212, 11.4105, -0.000129747, -0.000144962, 0.000410777, -5.46259E-05, -5.46259E-05, -5.46259E-05
7422, 1,0.000532444, 0.000135079, 9.2503E-05, 33.1878, 8.46481, 0.00234781, 146.767, -48.1355, 0, 0.00100673, 0.000665286, 0.000450357, 41.5304, -13.7834, 0, 0.00100617, 0.000401119, 0.000270298, 24.9298, -8.30964, 0, 0.00100608, 0.139536, 2.38699, 38.8235, 0.0185604, 1.87811, 23.0323, -0.000214302, -0.00018257, 0.000620442, -0.000130628, -0.000130628, -0.000130628
7423, 1,0.000761691, 0.000153932, 0.000106614, 47.8328, 9.51914, 0.00172334, 107.581, -35.1685, 0, 0.00104031, 0.000910711, 0.000612779, 57.0991, -18.9029, 0, 0.00104004, 0.000615159, 0.000411761, 38.6951, -12.9253, 0, 0.00103994, 0.173116, 3.47954, 53.0559, 0.0322541, 3.78886, 34.9549, -0.000294595, -0.000232282, 0.000833565, -0.000203165, -0.000203165, -0.000203165
7424, 1,0.000996521, 0.000177519, 0.000126104, 62.3453, 10.7592, 0.00104546, 65.3716, -21.5022, 0, 0.00107391, 0.00116491, 0.000787648, 72.6734, -23.6229, 0, 0.00107395, 0.000832119, 0.000556687, 52.2051, -17.244, 0, 0.00107384, 0.109389, 1.7081, 69.0512, 0.0400929, 3.89596, 47.7961, -0.000370456, -0.00033638, 0.00109017, -0.00027097, -0.00027097, -0.00027097
7425, 1,0.00034131, 0.000126703, 8.53917E-05, 20.5478, 8.10814, 0.00304941, 190.04, -61.6463, 0, 0.000973177, 0.000462426, 0.000313988, 28.5409, -9.46567, 0, 0.000972353, 0.00022585, 0.000163142, 12.6922, -3.96235, 0, 0.000972266, 0.112035, 0.765737, 27.5192, 0.050821, -0.725842, 12.5621, -0.00014635, -0.000152582, 0.000452397, -6.12364E-05, -6.12364E-05, -6.12364E-05
7426, 1,0.000569892, 0.000146003, 9.96379E-05, 35.6387, 9.16858, 0.00243933, 152.65, -50.2209, 0, 0.00100675, 0.000713701, 0.000481728, 44.6885, -14.932, 0, 0.00100617, 0.00042759, 0.000287409, 26.672, -8.95475, 0, 0.00100608, 0.172278, 2.84037, 41.7833, 0.0591286, 2.13232, 24.6728, -0.000231606, -0.000191132, 0.000664948, -0.000139837, -0.000139837, -0.000139837
7427, 1,0.000802039, 0.000161544, 0.000111464, 50.4492, 10.0138, 0.00185325, 115.868, -38.0495, 0, 0.0010403, 0.000958622, 0.000643872, 60.2064, -20.0363, 0, 0.00104, 0.000647952, 0.00043352, 40.8218, -13.6994, 0, 0.00103989, 0.191008, 3.91193, 56.006, 0.0600563, 4.09337, 36.9448, -0.000311953, -0.000241543, 0.000878575, -0.000214656, -0.000214656, -0.000214656
7428, 1,0.00103719, 0.000181494, 0.000128484, 65.0083, 11.0242, 0.00121181, 75.9557, -25.1658, 0, 0.00107388, 0.00120913, 0.000814394, 75.5767, -24.7285, 0, 0.00107387, 0.000869327, 0.000579702, 54.6341, -18.1484, 0, 0.00107376, 0.123912, 2.21238, 71.8492, 0.0548654, 4.32803, 50.0624, -0.00038751, -0.000344074, 0.00113285, -0.000284852, -0.000284852, -0.000284852
7429, 1,0.000371509, 0.000140761, 9.4861E-05, 22.6082, 9.00553, 0.00312867, 194.511, -62.6001, 0, 0.000973092, 0.000506771, 0.000341583, 31.5006, -10.5786, 0, 0.000972271, 0.000242052, 0.000173191, 13.8539, -4.44402, 0, 0.000972175, 0.263097, 1.16534, 30.3074, 0.196308, -0.572786, 13.7085, -0.000160661, -0.000161543, 0.000493734, -6.57166E-05, -6.57166E-05, -6.57166E-05
7430, 1,0.000605955, 0.000156991, 0.000106875, 38.0344, 9.8753, 0.00252993, 158.032, -51.6821, 0, 0.00100663, 0.00076076, 0.000512332, 47.7934, -16.1147, 0, 0.00100605, 0.000452678, 0.000303692, 28.358, -9.63311, 0, 0.00100595, 0.322835, 3.26437, 44.757, 0.220679, 2.36877, 26.3099, -0.000246956, -0.000200954, 0.000709314, -0.000147012, -0.000147012, -0.000147012
7431, 1,0.000842624, 0.000169238, 0.000116401, 53.0883, 10.513, 0.00198524, 124.061, -40.6683, 0, 0.0010402, 0.00100682, 0.000675422, 63.3399, -21.1918, 0, 0.00103987, 0.000680949, 0.000455606, 42.9682, -14.493, 0, 0.00103975, 0.208929, 4.32221, 59.0443, 0.0915238, 4.38094, 39.0064, -0.000329654, -0.000251601, 0.000925083, -0.000226372, -0.000226372, -0.000226372
7432, 1,0.00107836, 0.000185538, 0.000130913, 67.6955, 11.2936, 0.00139133, 87.2373, -28.9253, 0, 0.00107376, 0.00125392, 0.000841603, 78.5082, -25.8297, 0, 0.00107371, 0.000906968, 0.00060376, 57.0833, -19.0452, 0, 0.00107359, 0.118753, 2.66176, 74.7084, 0.0510109, 4.70549, 52.3792, -0.000404903, -0.000352759, 0.00117679, -0.000299001, -0.000299001, -0.000299001
7433, 1,0.000407433, 0.000154778, 0.000104349, 24.9659, 9.90125, 0.00333027, 206.771, -66.2548, 0, 0.000973124, 0.000556508, 0.000372213, 34.7443, -11.7662, 0, 0.000972264, 0.000264421, 0.000187857, 15.3359, -5.00131, 0, 0.000972157, 0.358357, 1.50011, 33.4401, 0.291685, -0.466883, 15.1791, -0.000177318, -0.000173332, 0.000541458, -7.24342E-05, -7.24342E-05, -7.24342E-05
7434, 1,0.000638759, 0.000168152, 0.000114291, 40.0358, 10.5907, 0.0026767, 165.865, -52.8552, 0, 0.00100661, 0.000804707, 0.000541735, 50.5091, -16.9887, 0, 0.00100603, 0.000474388, 0.00031865, 29.6477, -10.0012, 0, 0.00100591, 0.228543, 3.44002, 47.2975, 0.139038, 2.37994, 27.4847, -0.000262637, -0.000211613, 0.000749838, -0.000154452, -0.000154452, -0.000154452
7435, 1,0.000882404, 0.000177024, 0.000121441, 55.6454, 11.0174, 0.00213184, 132.41, -42.5601, 0, 0.00104016, 0.00105428, 0.000707173, 66.3951, -22.3127, 0, 0.00103982, 0.000713104, 0.0004776, 45.0299, -15.2491, 0, 0.0010397, 0.205253, 4.69298, 62.0399, 0.103837, 4.63637, 41.0071, -0.000347292, -0.000262244, 0.00097155, -0.000237927, -0.000237927, -0.000237927
7436, 1,0.00112068, 0.000189625, 0.000133359, 70.4841, 11.5662, 0.00158698, 99.1096, -32.4507, 0, 0.00107374, 0.00129995, 0.000869504, 81.547, -27.0015, 0, 0.00107365, 0.000945636, 0.000629966, 59.6267, -20.0095, 0, 0.00107353, 0.155048, 3.11338, 77.7361, 0.0902084, 5.0815, 54.8567, -0.000422535, -0.000362596, 0.00122327, -0.000313305, -0.000313305, -0.000313305
7437, 1,0.000448424, 0.000168485, 0.00011366, 27.6236, 10.7826, 0.00366894, 228.625, -74.1028, 0, 0.000973144, 0.0006104, 0.000407658, 38.2586, -13.1077, 0, 0.000972181, 0.000293293, 0.00020645, 17.1643, -5.71403, 0, 0.000972065, 0.480834, 1.86676, 36.9756, 0.409694, -0.323441, 17.0558, -0.000195789, -0.000187037, 0.000595408, -8.10833E-05, -8.10833E-05, -8.10833E-05
7438, 1,0.000680432, 0.000179274, 0.000121715, 42.6886, 11.3055, 0.00299607, 185.03, -58.3002, 0, 0.00100657, 0.000857471, 0.000575824, 53.8774, -18.2128, 0, 0.00100592, 0.000504994, 0.000337964, 31.5847, -10.7178, 0, 0.00100579, 0.228036, 3.82377, 50.5867, 0.149994, 2.61047, 29.393, -0.000281829, -0.00022396, 0.000801243, -0.000165393, -0.000165393, -0.000165393
7439, 1,0.000923072, 0.000184904, 0.000126588, 58.1099, 11.5275, 0.00238907, 147.158, -46.0173, 0, 0.00104006, 0.00110269, 0.000740261, 69.3619, -23.2848, 0, 0.00103968, 0.000746086, 0.000500606, 46.9953, -15.8533, 0, 0.00103955, 0.0448115, 4.84806, 64.9614, -0.0400872, 4.68674, 42.9133, -0.000365931, -0.000275741, 0.00101946, -0.000250412, -0.000250412, -0.000250412
7440, 1,0.00116241, 0.000193794, 0.000135883, 73.1196, 11.8439, 0.00183872, 113.714, -36.0793, 0, 0.00107363, 0.00134543, 0.000897923, 84.4345, -28.0254, 0, 0.00107349, 0.000983707, 0.000655898, 62.0165, -20.8224, 0, 0.00107336, 0.0842028, 3.38094, 80.6111, 0.0196769, 5.27713, 57.1703, -0.000440144, -0.000374371, 0.00126926, -0.00032758, -0.00032758, -0.00032758
7441, 1,0.000473081, 0.00018223, 0.000123009, 29.0827, 11.6652, 0.00405631, 253.013, -82.2606, 0, 0.000973242, 0.000647719, 0.000434431, 40.5685, -13.883, 0, 0.000972163, 0.000306702, 0.000216672, 17.8192, -5.86288, 0, 0.000972036, 0.388689, 1.91002, 39.3503, 0.320668, -0.488782, 17.7568, -0.000209861, -0.000198762, 0.000633789, -8.52148E-05, -8.52148E-05, -8.52148E-05
7442, 1,0.00072168, 0.000190387, 0.000129161, 45.3264, 12.0215, 0.00346641, 214.494, -68.008, 0, 0.00100667, 0.00090983, 0.000611285, 57.2334, -19.4563, 0, 0.00100588, 0.000535129, 0.00035846, 33.5025, -11.4522, 0, 0.00100575, 0.106991, 4.34101, 53.921, 0.0399978, 2.98562, 31.3311, -0.000303832, -0.00023422, 0.000853686, -0.000179133, -0.000179133, -0.000179133
7443, 1,0.00096825, 0.000192717, 0.000131681, 60.9691, 12.0365, 0.00286416, 177.173, -56.1618, 0, 0.00104015, 0.00115574, 0.000776334, 72.7314, -24.5272, 0, 0.00103961, 0.000783342, 0.00052641, 49.3428, -16.7246, 0, 0.00103948, -0.0522023, 5.25292, 68.381, -0.12527, 4.98672, 45.3123, -0.00038747, -0.000288903, 0.00107432, -0.000265836, -0.000265836, -0.000265836
7444, 1,0.00120432, 0.000197887, 0.000138308, 75.8575, 12.1195, 0.00226392, 140.817, -45.4838, 0, 0.0010737, 0.00139127, 0.000926064, 87.4341, -29.2023, 0, 0.00107342, 0.00102167, 0.000680874, 64.4949, -21.7848, 0, 0.00107329, 0.216704, 3.66921, 83.721, 0.153309, 5.47924, 59.722, -0.000455886, -0.000388631, 0.00131836, -0.000339909, -0.000339909, -0.000339909
7445, 1,0.000491828, 0.000196114, 0.000132448, 30.4317, 12.5538, 0.0044993, 280.666, -91.2682, 0, 0.000973319, 0.000679512, 0.000455154, 42.7827, -14.8519, 0, 0.000972113, 0.000313841, 0.000221198, 18.3477, -6.20717, 0, 0.000971976, 0.649379, 2.31089, 41.5955, 0.591274, -0.267208, 18.2975, -0.000219487, -0.000205947, 0.000666328, -8.47872E-05, -8.47872E-05, -8.47872E-05
7446, 1,0.000759746, 0.000201579, 0.000136754, 47.6069, 12.7422, 0.00399739, 246.683, -77.5277, 0, 0.00100675, 0.000958841, 0.000645954, 60.2265, -20.4204, 0, 0.00100581, 0.000562426, 0.00037868, 35.0764, -11.9059, 0, 0.00100567, -0.246248, 4.51702, 56.9904, -0.289474, 3.0295, 32.9777, -0.000326304, -0.000247311, 0.000904893, -0.000193055, -0.000193055, -0.000193055
7447, 1,0.00101788, 0.000200751, 0.000137011, 64.0748, 12.558, 0.00346613, 214.679, -68.3232, 0, 0.00104024, 0.00121326, 0.000815892, 76.3482, -25.8193, 0, 0.00103952, 0.000825114, 0.000555521, 51.9411, -17.6418, 0, 0.00103939, -0.185796, 5.66254, 71.9811, -0.243469, 5.31152, 47.8574, -0.000410578, -0.000303122, 0.00113261, -0.000282699, -0.000282699, -0.000282699
7448, 1,0.00124932, 0.000202266, 0.00014102, 79.03, 12.4102, 0.00284931, 179.535, -60.3299, 0, 0.00107381, 0.00144002, 0.000956172, 90.8586, -30.7895, 0, 0.0010733, 0.00106309, 0.000707123, 67.4268, -23.1537, 0, 0.00107317, 0.73556, 4.51523, 87.1176, 0.672132, 6.258, 62.5311, -0.000469921, -0.000398192, 0.0013677, -0.000350492, -0.000350492, -0.000350492
7449, 1,0.000515011, 0.000210285, 0.000142061, 32.2889, 13.4551, 0.00501767, 313.295, -102.186, 0, 0.000973467, 0.000717426, 0.000479704, 45.5609, -16.1257, 0, 0.000972109, 0.000322293, 0.000223362, 19.2736, -6.85805, 0, 0.000971963, 1.02234, 3.12812, 44.2265, 0.978767, 0.42566, 19.1697, -0.00023152, -0.000209268, 0.000702356, -8.66922E-05, -8.66922E-05, -8.66922E-05
7450, 1,0.00079669, 0.00021276, 0.000144342, 49.9637, 13.4627, 0.00457921, 281.589, -87.4642, 0, 0.00100684, 0.00100683, 0.000678987, 63.3007, -21.5455, 0, 0.00100576, 0.000588429, 0.000397021, 36.7189, -12.5192, 0, 0.00100561, -0.349419, 4.83735, 60.1486, -0.372622, 3.23393, 34.6962, -0.000346012, -0.000259694, 0.00095524, -0.000204265, -0.000204265, -0.000204265
7451, 1,0.00106061, 0.000208577, 0.000142223, 66.638, 13.0711, 0.00408034, 251.388, -78.6316, 0, 0.00104034, 0.00126389, 0.00085169, 79.4276, -26.8209, 0, 0.00103946, 0.000859873, 0.00058044, 53.9855, -18.2658, 0, 0.00103932, -0.374713, 5.49866, 75.3388, -0.407956, 5.03969, 50.1657, -0.000430269, -0.000324494, 0.00118992, -0.000295911, -0.000295911, -0.000295911
7452, 1,0.00128985, 0.000206462, 0.000143528, 81.6744, 12.6943, 0.00347186, 218.894, -73.6823, 0, 0.00107397, 0.00148457, 0.000985738, 93.7688, -31.9352, 0, 0.00107324, 0.00109961, 0.000731401, 69.8093, -24.077, 0, 0.00107311, 0.861542, 4.77272, 90.1713, 0.794836, 6.42363, 65.0126, -0.000485316, -0.000412973, 0.00141646, -0.000362441, -0.000362441, -0.000362441
7453, 1,0.00054743, 0.000224011, 0.000151429, 34.385, 14.3342, 0.00563105, 350.82, -113.658, 0, 0.000973572, 0.000763285, 0.000510153, 48.527, -17.2049, 0, 0.000972049, 0.000341702, 0.000236393, 20.5134, -7.31697, 0, 0.000971893, 1.11425, 3.30162, 47.1987, 1.08198, 0.477117, 20.3918, -0.000246432, -0.000223039, 0.000748557, -9.15732E-05, -9.15732E-05, -9.15732E-05
7454, 1,0.00083539, 0.000223908, 0.000151922, 52.5573, 14.1815, 0.00518559, 317.981, -97.8384, 0, 0.00100689, 0.00105663, 0.000711012, 66.6136, -22.8823, 0, 0.00100567, 0.000616086, 0.000414082, 38.5936, -13.3424, 0, 0.00100552, -0.088513, 5.16127, 63.5742, -0.0940015, 3.45646, 36.6646, -0.000361336, -0.000275125, 0.00100769, -0.000211113, -0.000211113, -0.000211113
7455, 1,0.00109871, 0.000216651, 0.000147668, 69.1952, 13.5972, 0.0047053, 288.207, -88.401, 0, 0.00104034, 0.00130993, 0.000884187, 82.5011, -28.068, 0, 0.00103932, 0.000890099, 0.000602227, 56.0313, -19.1306, 0, 0.00103917, -0.255967, 5.88764, 78.5723, -0.262271, 5.33674, 52.3174, -0.000447286, -0.000337485, 0.00124016, -0.000306336, -0.000306336, -0.000306336
7456, 1,0.00133326, 0.000210705, 0.000146065, 84.7264, 12.9835, 0.00415118, 260.475, -86.4067, 0, 0.00107401, 0.00153203, 0.00101813, 97.089, -33.3482, 0, 0.00107308, 0.00113897, 0.000758081, 72.5977, -25.263, 0, 0.00107294, 1.06344, 5.33002, 93.6512, 0.990948, 6.88301, 67.915, -0.000503293, -0.000424295, 0.00146868, -0.000376956, -0.000376956, -0.000376956
7457, 1,0.000580025, 0.000237314, 0.000160549, 36.5352, 15.1914, 0.00630718, 394.352, -129.25, 0, 0.000973828, 0.000807676, 0.000540326, 51.49, -18.4162, 0, 0.000972079, 0.000364327, 0.000250664, 21.9129, -7.91162, 0, 0.000971913, 1.20703, 3.67837, 50.3631, 1.18278, 0.725064, 21.827, -0.000263415, -0.000234017, 0.000796179, -9.86397E-05, -9.86397E-05, -9.86397E-05
7458, 1,0.000862547, 0.000234765, 0.000159345, 54.513, 14.8862, 0.00581575, 354.297, -106.611, 0, 0.00100702, 0.00109448, 0.000733779, 69.2784, -24.1353, 0, 0.00100567, 0.00063273, 0.000422155, 39.8395, -14.0807, 0, 0.00100551, 0.442888, 5.33282, 66.6303, 0.459678, 3.50734, 38.2752, -0.000369554, -0.000292039, 0.00105315, -0.000210739, -0.000210739, -0.000210739
7459, 1,0.00114201, 0.000224659, 0.000153163, 71.784, 14.1216, 0.0054412, 330.968, -99.1059, 0, 0.00104046, 0.00136112, 0.000920735, 85.6096, -29.0323, 0, 0.00103928, 0.000925571, 0.000628187, 58.1014, -19.7087, 0, 0.00103912, -0.434451, 5.4295, 82.1019, -0.398824, 4.76754, 54.7575, -0.000466098, -0.000363329, 0.00130046, -0.000318177, -0.000318177, -0.000318177
7460, 1,0.00137873, 0.000214849, 0.000148453, 87.9167, 13.271, 0.00504222, 314.249, -102.07, 0, 0.0010742, 0.00158188, 0.00105204, 100.565, -34.7871, 0, 0.00107303, 0.00117992, 0.000785749, 75.4991, -26.4694, 0, 0.00107289, 1.29047, 5.60091, 97.4699, 1.21733, 7.02513, 71.1658, -0.000521128, -0.000441454, 0.00152702, -0.000391136, -0.000391136, -0.000391136
7461, 1,0.000593703, 0.000250166, 0.000169363, 37.7292, 16.0272, 0.00718136, 437.853, -132.204, 0, 0.000973818, 0.000830938, 0.000554292, 53.4326, -19.6696, 0, 0.000972041, 0.000372882, 0.000254972, 22.5036, -8.54831, 0, 0.000971866, 1.7578, 4.60181, 52.6491, 1.72873, 1.50192, 22.4143, -0.000271141, -0.000234395, 0.000824624, -9.667E-05, -9.667E-05, -9.667E-05
7462, 1,0.000883172, 0.000246047, 0.000167145, 55.3031, 15.6118, 0.00667743, 395.459, -107.181, 0, 0.00100692, 0.00112593, 0.000762206, 70.7809, -24.2707, 0, 0.00100557, 0.000642903, 0.000436564, 39.929, -13.6976, 0, 0.0010054, -0.75766, 5.16323, 68.4065, -0.701691, 3.24043, 38.5542, -0.000396738, -0.000299742, 0.00109024, -0.000228885, -0.000228885, -0.000228885
7463, 1,0.00118149, 0.000232447, 0.00015847, 75.0869, 14.6362, 0.00635044, 381.487, -109.208, 0, 0.00104051, 0.0014086, 0.000947553, 89.44, -31.2576, 0, 0.00103919, 0.000956968, 0.000644032, 60.8719, -21.5441, 0, 0.00103903, 0.918406, 6.4537, 86.4006, 0.983626, 5.66835, 57.9804, -0.000472459, -0.000378197, 0.0013578, -0.000317758, -0.000317758, -0.000317758
7464, 1,0.00143068, 0.000219128, 0.000150949, 91.588, 13.5658, 0.00610952, 381.3, -124.329, 0, 0.00107443, 0.0016382, 0.00108928, 104.523, -36.4173, 0, 0.0010729, 0.00122738, 0.000816799, 78.882, -27.8649, 0, 0.00107275, 1.66038, 5.78426, 101.807, 1.59917, 7.06525, 74.9302, -0.000538998, -0.000462388, 0.00159227, -0.000405051, -0.000405051, -0.000405051
7465, 1,0.000663939, 0.000262882, 0.000178209, 41.37, 16.8679, 0.0105992, 461.038, -147.802, 0.0631733, 0.000974174, 0.000911588, 0.000611545, 57.8974, -20.8035, 0, 0.000972083, 0.000433398, 0.000297569, 25.2948, -9.06611, 0, 0.000971898, 0.816528, 4.37359, 57.2202, 0.784124, 1.19842, 25.2158, -0.000308108, -0.000262711, 0.000908307, -0.000123787, -0.000123787, -0.000123787
7466, 1,0.000930939, 0.000257085, 0.000174809, 58.4064, 16.3326, 0.00913009, 439.669, -116.652, 0.0333404, 0.00100706, 0.00118433, 0.000802523, 74.605, -26.1779, 0, 0.00100555, 0.000680255, 0.000465077, 42.3109, -15.0814, 0, 0.00100537, -0.382069, 6.4056, 72.5102, -0.298043, 4.39593, 41.1462, -0.000418376, -0.00031283, 0.00115591, -0.000241549, -0.000241549, -0.000241549
7467, 1,0.00117264, 0.000240127, 0.000163697, 73.1888, 15.1486, 0.00804485, 430.055, -103.607, 0.0116166, 0.00104035, 0.00140784, 0.000955848, 88.0726, -29.8393, 0, 0.00103909, 0.000939922, 0.000640819, 58.4401, -19.7312, 0, 0.00103892, -1.14986, 5.24816, 85.4197, -1.06036, 4.32874, 55.9252, -0.000493955, -0.000388143, 0.00136622, -0.000332472, -0.000332472, -0.000332472
7468, 1,0.00145339, 0.000223271, 0.000153233, 93.1472, 13.8552, 0.00760854, 442.358, -123.382, 0.00387788, 0.00107437, 0.00166529, 0.00111117, 106.365, -37.3042, 0, 0.00107286, 0.00124565, 0.000832258, 80.1605, -28.5161, 0, 0.00107271, 1.49882, 6.22228, 104.192, 1.48521, 7.30432, 76.7587, -0.000556728, -0.000469504, 0.0016315, -0.000418055, -0.000418055, -0.000418055
7469, 1,0.000657934, 0.00027577, 0.000187079, 40.0591, 17.7252, 0.0161068, 468.628, -153.764, 0.170165, 0.00097436, 0.00091695, 0.000621381, 57.5463, -20.2182, 0, 0.000971996, 0.000418785, 0.000296335, 22.9262, -7.87085, 0, 0.000971802, -0.394673, 4.34994, 56.6995, -0.425239, 1.14033, 22.8974, -0.000323528, -0.000263702, 0.000915216, -0.000129261, -0.000129261, -0.000129261
7470, 1,0.000984792, 0.000267992, 0.000182472, 58.7717, 17.0681, 0.0153111, 464.255, -147.23, 0.154382, 0.00100769, 0.00124919, 0.000840999, 75.7239, -24.5725, 0, 0.00100546, 0.000723001, 0.000501681, 41.9115, -12.9424, 0, 0.00100527, -1.85099, 2.11505, 73.4533, -1.74967, 0.0803341, 40.4965, -0.000423402, -0.000403052, 0.00122511, -0.000237554, -0.000237554, -0.000237554
7471, 1,0.00129355, 0.000248894, 0.000170213, 78.0592, 15.7315, 0.0146078, 461.9, -143.977, 0.140581, 0.00104116, 0.0015364, 0.00104942, 93.4585, -30.1239, 0, 0.00103903, 0.0010535, 0.000724299, 62.8171, -19.6151, 0, 0.00103885, -3.65544, 3.19239, 90.8347, -3.48631, 2.20779, 60.1238, -0.000551666, -0.000462823, 0.00150323, -0.000381947, -0.000381947, -0.000381947
7472, 1,0.00150266, 0.000227251, 0.000155699, 95.6955, 14.1489, 0.0141653, 469.668, -157.31, 0.132874, 0.00107506, 0.00171788, 0.0011445, 109.081, -38.1079, 0, 0.00107277, 0.00129169, 0.000860216, 82.5791, -29.0985, 0, 0.00107261, 1.55736, 6.14279, 106.623, 1.52825, 7.12383, 78.6435, -0.000568831, -0.000500595, 0.00168774, -0.000426823, -0.000426823, -0.000426823
7473, 1,0.000663433, 0.000289002, 0.000196623, 40.843, 18.5873, 0.0223098, 474.599, -159.04, 0.289758, 0.00097465, 0.000933712, 0.000622936, 59.1896, -21.6012, 0, 0.000971995, 0.00041637, 0.000297572, 22.887, -8.65933, 0, 0.000971791, 1.25457, 5.45867, 58.0902, 1.3353, 2.22321, 22.4195, -0.000309563, -0.000271539, 0.000931527, -0.000103397, -0.000103397, -0.000103397
7474, 1,0.00109139, 0.000277627, 0.000189652, 63.0559, 17.7512, 0.0232464, 479.682, -167.119, 0.308352, 0.00100835, 0.00136314, 0.000932924, 80.6896, -25.1186, 0, 0.00100546, 0.000823438, 0.000586749, 45.509, -12.9438, 0, 0.00100526, -3.07627, -0.787712, 79.2198, -2.94457, -2.98394, 44.7599, -0.000457534, -0.00049031, 0.00135536, -0.00026223, -0.00026223, -0.00026223
7475, 1,0.00141373, 0.000256996, 0.00017649, 84.168, 16.3021, 0.0238764, 486.487, -177.86, 0.320978, 0.00104215, 0.00166353, 0.00113338, 100.101, -31.8913, 0, 0.00103903, 0.00116709, 0.000801951, 68.4003, -20.9507, 0, 0.00103885, -3.67083, 1.28479, 98.06, -3.41786, 0.120241, 66.1498, -0.000579705, -0.000550343, 0.00164746, -0.000401043, -0.000401043, -0.000401043
7476, 1,0.00158398, 0.000230533, 0.000157398, 99.3502, 14.4148, 0.0230421, 479.664, -166.837, 0.304207, 0.00107565, 0.00180386, 0.00121483, 112.986, -38.3816, 0, 0.00107282, 0.00136762, 0.000923692, 85.9729, -29.1264, 0, 0.00107265, 0.549794, 3.79402, 110.801, 0.474908, 4.52043, 82.3837, -0.000593655, -0.00056946, 0.00178586, -0.000448345, -0.000448345, -0.000448345
7477, 1,0.00069699, 0.000301056, 0.000205685, 40.0478, 19.3798, 0.0281386, 482.346, -168.133, 0.400662, 0.000974959, 0.000974154, 0.000678622, 59.022, -19.0277, 0, 0.000971839, 0.000448137, 0.000327157, 21.6817, -5.5102, 0, 0.000971626, -3.74628, 3.16638, 57.6629, -3.53192, -0.156279, 20.2188, -0.000373845, -0.000284201, 0.000966676, -0.000155637, -0.000155637, -0.000155637
7478, 1,0.00112658, 0.000286518, 0.000196026, 66.5269, 18.3835, 0.0292648, 489.504, -179.506, 0.422592, 0.00100876, 0.00140523, 0.000946197, 84.8211, -28.4156, 0, 0.00100538, 0.000852881, 0.000588333, 48.2982, -15.6896, 0, 0.00100518, -1.5826, 2.88992, 83.9394, -1.49077, 0.463227, 48.0962, -0.000478002, -0.000463536, 0.00140254, -0.00027464, -0.00027464, -0.00027464
7479, 1,0.00141096, 0.000264913, 0.000182661, 84.8993, 16.8535, 0.0297414, 489.083, -178.483, 0.431373, 0.00104235, 0.00166664, 0.00112929, 101.345, -33.4576, 0, 0.00103894, 0.00115948, 0.000785654, 68.6457, -22.0552, 0, 0.00103875, -2.74653, 2.97989, 100.139, -2.39381, 1.49847, 67.061, -0.000584069, -0.000534603, 0.0016615, -0.000395759, -0.000395759, -0.000395759
7480, 1,0.00165637, 0.000234108, 0.00015936, 103.729, 14.7056, 0.0291362, 486.585, -174.358, 0.419566, 0.00107615, 0.00188124, 0.00128331, 117.715, -40.0831, 0, 0.00107288, 0.00143443, 0.00098444, 89.9739, -30.4939, 0, 0.00107272, 0.261129, 3.77006, 116.218, 0.127353, 3.99984, 87.3547, -0.000625003, -0.000597906, 0.00187325, -0.00047536, -0.00047536, -0.00047536
7481, 1,0.000747586, 0.000309794, 0.000212167, 44.9037, 19.9967, 0.0311762, 482.063, -165.508, 0.456764, 0.000975011, 0.00103171, 0.000702832, 64.4831, -22.8337, 0, 0.000971863, 0.000491711, 0.000355657, 25.9251, -8.75672, 0, 0.000971641, -0.562623, 5.60822, 63.4555, -0.364034, 2.07721, 24.557, -0.000366152, -0.000287273, 0.00102379, -0.000139335, -0.000139335, -0.000139335
7482, 1,0.00115268, 0.000297512, 0.000203989, 69.2121, 19.124, 0.0314699, 478.886, -160.228, 0.461647, 0.00100832, 0.00144208, 0.000973123, 88.2522, -30.5381, 0, 0.0010053, 0.000868468, 0.000590309, 50.2338, -17.2055, 0, 0.00100508, -1.16649, 5.26566, 87.5152, -1.06262, 2.63796, 50.0412, -0.000502341, -0.000442761, 0.00144051, -0.000288904, -0.000288904, -0.000288904
7483, 1,0.00146672, 0.000273845, 0.000189434, 89.9445, 17.4472, 0.0313195, 476.825, -156.954, 0.458639, 0.00104186, 0.00173098, 0.00118169, 106.938, -36.6563, 0, 0.00103892, 0.00120675, 0.000825879, 73.1616, -24.7779, 0, 0.00103872, -2.40671, 6.60422, 105.772, -2.00532, 4.88082, 71.4582, -0.000626951, -0.000505185, 0.00172683, -0.000429886, -0.000429886, -0.000429886
7484, 1,0.0016629, 0.000237194, 0.000161542, 106.583, 14.9495, 0.0306451, 477.1, -157.599, 0.446219, 0.00107591, 0.00189004, 0.00126752, 120.724, -43.6064, 0, 0.00107301, 0.00143902, 0.000965505, 92.7032, -33.7347, 0, 0.00107284, 4.06536, 7.34628, 119.407, 3.93124, 7.07846, 90.1945, -0.000599673, -0.000577066, 0.00188422, -0.000445431, -0.000445431, -0.000445431
7485, 1,0.00071933, 0.0003162, 0.00021728, 43.4024, 20.4741, 0.0312867, 477.936, -158.426, 0.458089, 0.000974755, 0.000998861, 0.000662597, 63.1377, -23.5138, 0, 0.000971765, 0.000480398, 0.000357411, 24.8671, -8.91807, 0, 0.000971535, 2.54303, 5.61265, 62.3856, 2.7202, 1.73573, 22.2983, -0.000310934, -0.000286543, 0.000978873, -7.63332E-05, -7.63332E-05, -7.63332E-05
7486, 1,0.00123928, 0.00030656, 0.000210456, 77.4127, 19.8009, 0.0315453, 480.019, -161.757, 0.462849, 0.00100817, 0.00153544, 0.00104175, 97.0854, -36.2622, 0, 0.0010052, 0.00094964, 0.000636632, 57.831, -22.2267, 0, 0.00100497, 1.18401, 10.7817, 96.8208, 1.10507, 7.74648, 57.8286, -0.000542561, -0.00039966, 0.00153049, -0.000321841, -0.000321841, -0.000321841
7487, 1,0.00153728, 0.000282441, 0.000195873, 97.2217, 18.0778, 0.0312922, 479.851, -161.689, 0.458168, 0.00104182, 0.00180981, 0.00122245, 114.825, -41.9402, 0, 0.00103886, 0.00126918, 0.000854832, 79.8363, -29.428, 0, 0.00103865, 1.34585, 10.3811, 114.093, 1.67605, 8.15018, 78.4577, -0.000630384, -0.000496832, 0.00180764, -0.00042464, -0.00042464, -0.00042464
7488, 1,0.00175724, 0.000240197, 0.000163673, 112.696, 15.1942, 0.0307333, 479.212, -160.961, 0.447987, 0.00107591, 0.00198591, 0.00132973, 126.997, -46.1538, 8.67362E-19, 0.00107297, 0.00153216, 0.00102186, 98.6714, -35.9671, 8.67362E-19, 0.0010728, 3.02302, 9.3681, 126.07, 2.82492, 8.39155, 96.6847, -0.000661751, -0.000571462, 0.00198202, -0.000503685, -0.000503685, -0.000503685
7489, 1,0.000684604, 0.000319882, 0.000219308, 43.6262, 20.7557, 0.0309891, 476.582, -156.365, 0.452404, 0.000974913, 0.000976278, 0.000656826, 63.9844, -25.7486, 0, 0.000972016, 0.000432552, 0.000298096, 24.1284, -10.7967, 0, 0.00097178, 4.61542, 8.85288, 63.7774, 4.52676, 4.90977, 22.9535, -0.000302575, -0.000246644, 0.000966891, -6.80291E-05, -6.80291E-05, -6.80291E-05
7490, 1,0.00111883, 0.000313935, 0.000214788, 72.7033, 20.3392, 0.0307155, 472.87, -150.434, 0.446819, 0.00100798, 0.00141735, 0.000962513, 92.799, -37.7516, 0, 0.00100532, 0.000831918, 0.000557415, 52.822, -23.1401, 0, 0.00100509, 4.15261, 16.3761, 92.7261, 3.7533, 13.1673, 52.4997, -0.000502795, -0.000285933, 0.00140118, -0.000279777, -0.000279777, -0.000279777
7491, 1,0.00151868, 0.000289102, 0.00019958, 98.6587, 18.5534, 0.0307279, 471.97, -148.945, 0.446912, 0.00104155, 0.00179798, 0.00122888, 116.773, -45.0026, 0, 0.00103896, 0.00124385, 0.000853532, 80.7513, -31.994, 0, 0.00103874, 2.51756, 15.9096, 116.581, 2.62091, 13.4087, 79.9525, -0.000653044, -0.000410875, 0.00179404, -0.000444178, -0.000444178, -0.000444178
7492, 1,0.00177298, 0.000243497, 0.000165798, 115.059, 15.3561, 0.0307575, 472.517, -149.963, 0.447767, 0.00107568, 0.00200078, 0.00134007, 129.327, -48.3081, 0, 0.00107304, 0.0015501, 0.00103316, 101.128, -38.0385, 0, 0.00107286, 3.81385, 12.369, 128.741, 3.73845, 11.0507, 99.3262, -0.000678199, -0.000537777, 0.00199975, -0.000516024, -0.000516024, -0.000516024
7493, 1,0.000804399, 0.000330112, 0.000224055, 53.9821, 21.3134, 0.0319822, 476.555, -156.531, 0.4715, 0.000975246, 0.00108363, 0.000697763, 73.8702, -33.3997, 0, 0.000972417, 0.000574485, 0.000411349, 36.0546, -18.1768, 0, 0.000972176, 12.7291, 14.0327, 73.4372, 12.2979, 10.6454, 31.587, -0.000252204, -0.000253625, 0.00104768, -2.06859E-05, -2.06859E-05, -2.06859E-05
7494, 1,0.00128941, 0.0003249, 0.000219626, 86.286, 20.9131, 0.0324774, 470.77, -157.677, 0.484647, 0.0010085, 0.00160423, 0.00105945, 106.988, -43.5455, 0, 0.00100568, 0.000981034, 0.00065195, 65.7277, -28.7128, 0, 0.00100544, 8.14407, 15.5792, 106.913, 7.2218, 13.389, 65.5275, -0.000509936, -0.00037706, 0.00159348, -0.0002945, -0.0002945, -0.0002945
7495, 1,0.00164473, 0.000298717, 0.000201645, 106.845, 19.0167, 0.0326283, 471.81, -156.559, 0.486582, 0.00104203, 0.00193501, 0.00128452, 125.423, -46.6854, 0, 0.00103919, 0.00135814, 0.00090194, 88.4606, -33.5858, 0, 0.00103897, 4.80349, 10.0554, 125.197, 4.43008, 8.69368, 87.6337, -0.000629878, -0.000546175, 0.00193349, -0.000429682, -0.000429682, -0.000429682
7496, 1,0.00191851, 0.000249849, 0.000168034, 125.411, 15.6003, 0.0334956, 472.937, -150.011, 0.499402, 0.0010759, 0.00215215, 0.00141962, 140, -52.7629, 0, 0.0010732, 0.00168966, 0.00110882, 111.12, -42.5855, 0, 0.00107302, 7.89146, 10.9958, 139.402, 7.75926, 10.6609, 109.336, -0.0006603, -0.00063401, 0.00215039, -0.000500711, -0.000500711, -0.000500711
7497, 1,0.000633522, 0.000337685, 0.000230706, 36.686, 21.2428, 0.0345743, 460.107, -130.462, 0.52043, 0.000993738, 0.000967182, 0.000714088, 57.9072, -16.3559, 0, 0.00099104, 0.000306642, 0.000271594, 15.5051, -2.2269, 0, 0.000990813, 0.793379, -7.58511, 55.8595, -0.142151, -8.23594, 15.0588, -0.000236771, -0.000443082, 0.000945157, -3.3459E-05, -3.3459E-05, -3.3459E-05
7498, 1,0.00111345, 0.000317701, 0.000217251, 68.1488, 19.9648, 0.0352374, 453.978, -122.509, 0.534986, 0.00102772, 0.00142467, 0.000980891, 87.9568, -28.2765, 0, 0.00102529, 0.000806874, 0.00057608, 48.4573, -15.0166, 0, 0.00102507, 0.0697428, -3.0405, 87.8003, -1.18517, -2.20396, 48.4389, -0.000441442, -0.000523154, 0.00142332, -0.000258051, -0.000258051, -0.000258051
7499, 1,0.0014601, 0.000287322, 0.000198447, 92.0112, 17.8541, 0.0351256, 455.512, -125.508, 0.53365, 0.00106203, 0.00174087, 0.0011944, 109.553, -37.104, 0, 0.00105959, 0.00118249, 0.000806742, 74.6188, -25.631, 0, 0.00105939, 4.10498, -1.97803, 109.185, 3.38359, -0.291659, 73.8011, -0.000493217, -0.000643008, 0.0017382, -0.000326347, -0.000326347, -0.000326347
7500, 1,0.00194828, 0.000242288, 0.000170415, 122.931, 14.7897, 0.0357262, 465.43, -138.998, 0.542638, 0.00109683, 0.00217699, 0.00148976, 137.007, -46.6497, 0, 0.00109411, 0.00172327, 0.00116776, 109.052, -37.6524, 0, 0.00109395, 4.14708, 0.370928, 135.431, 4.03056, 2.69345, 106.233, -0.000640524, -0.000756605, 0.00215403, -0.000499483, -0.000499483, -0.000499483
7501, 1,0.00176782, -0.00145183, 0.000967177, -2.09692, -91.4559, 0.0144723, -18.8611, 293.759, 0.361746, 0.00093327, 0.00224329, 0.00451748, -2.38655, 145.386, 0, 0.000936648, 0.00129721, 0.00260225, -1.61309, 84.1338, 0, 0.000937579, -8.55196, -11.3848, -416.222, -7.65844, -5.8909, -238.852, 0.00212467, 0.00206712, -0.00655089, 0.00117991, 0.00117991, 0.00117991
7502, 1,0.00180221, -0.00124703, 0.000833321, 8.21116, -79.1342, 0.0234665, -35.1962, 357.561, 0.579248, 0.000966249, 0.00222034, 0.00430772, 7.88861, 130.167, 4.33681E-19, 0.000972513, 0.00138486, 0.00264534, 8.5563, 76.1669, 4.33681E-19, 0.000973365, 0.281275, -2.23274, -388.549, 2.63267, 2.37952, -233.513, 0.00208877, 0.00203554, -0.00623628, 0.00129092, 0.00129092, 0.00129092
7503, 1,0.0017021, -0.00104718, 0.000702273, 5.74192, -66.4024, 0.0311949, -26.4888, 345.32, 0.805613, 0.000997967, 0.00205768, 0.00394095, 5.7934, 122.388, 0, 0.00100618, 0.00134696, 0.0025475, 5.70501, 77.3776, 0, 0.00100691, -7.28031, -6.88842, -352.995, -6.0191, -3.6754, -222.438, 0.00181987, 0.00182559, -0.00563107, 0.00114275, 0.00114275, 0.00114275
7504, 1,0.00157909, -0.000840801, 0.000560688, 7.19325, -53.0632, 0.0334382, -25.9417, 303.985, 0.977809, 0.00102948, 0.00185167, 0.00356126, 6.89205, 106.803, -2.1684E-19, 0.00103892, 0.00130816, 0.00245563, 7.73376, 71.5705, -2.1684E-19, 0.00103951, 2.60505, -7.34872, -315.666, 2.59635, -6.89582, -210.412, 0.00180478, 0.0015681, -0.00510544, 0.00125678, 0.00125678, 0.00125678
7505, 1,0.00178494, -0.00134837, 0.000904166, 14.2065, -84.3715, 0.0130752, 11.8446, 242.519, 0.329884, 0.000975669, 0.00224453, 0.00418684, 15.3548, 121.928, 0, 0.000978448, 0.00132557, 0.00238121, 13.0593, 66.5985, 0, 0.000979327, -1.03916, 1.32014, -366.065, -1.42481, 4.14643, -202.517, 0.00190848, 0.00197286, -0.00585976, 0.00102981, 0.00102981, 0.00102981
7506, 1,0.00160365, -0.00115255, 0.00077173, 9.18253, -71.9895, 0.0195489, -2.06719, 273.618, 0.5331, 0.00100997, 0.00199041, 0.00381967, 10.0568, 112.23, 0, 0.00101453, 0.00121967, 0.00228765, 8.45677, 65.4539, 0, 0.0010153, 7.50259, -4.54888, -339.645, 5.5114, -3.23797, -198.635, 0.00195175, 0.00171117, -0.00548383, 0.00117532, 0.00117532, 0.00117532
7507, 1,0.00161069, -0.000979842, 0.00065741, 8.02782, -61.2381, 0.0261167, -8.45667, 279.005, 0.757857, 0.00104308, 0.0019388, 0.00363696, 8.72293, 109.574, 0, 0.00104943, 0.00128479, 0.00233496, 7.54957, 69.9099, 0, 0.0010501, 7.68502, -15.1816, -321.225, 5.59429, -14.394, -200.93, 0.00192759, 0.00146219, -0.00516744, 0.00126279, 0.00126279, 0.00126279
7508, 1,0.0012845, -0.000812717, 0.000544234, -9.34072, -50.9953, 0.0305232, -6.592, 263.592, 0.936506, 0.0010769, 0.00155819, 0.00318949, -8.8246, 110.759, 0, 0.00108464, 0.00101108, 0.00210635, -9.82716, 77.544, 0, 0.00108523, -16.783, -16.9424, -298.553, -17.495, -17.4166, -197.721, 0.00144165, 0.00145356, -0.00469194, 0.000909323, 0.000909323, 0.000909323
7509, 1,0.00166476, -0.00130292, 0.000874861, 9.86378, -81.5059, 0.0119686, -4.48255, 251.47, 0.308589, 0.000975414, 0.0021003, 0.00409194, 10.6107, 118.94, 1.05936E-07, 0.000978344, 0.00123843, 0.00236193, 9.59617, 65.5642, 1.05936E-07, 0.000979192, 7.58889, -7.58698, -356.822, 7.26906, -3.39466, -200.567, 0.00203986, 0.00174947, -0.00571926, 0.00119319, 0.00119319, 0.00119319
7510, 1,0.00157441, -0.00110351, 0.000738574, 10.5007, -68.9221, 0.0175185, 0.233918, 258.118, 0.488553, 0.0010103, 0.00194703, 0.0037027, 11.5165, 108.157, 0, 0.00101435, 0.00120191, 0.00223191, 9.49035, 63.4197, 0, 0.00101509, 1.38651, -1.4464, -324.411, -0.222803, 0.776952, -190.813, 0.00175032, 0.00172634, -0.00523146, 0.0010136, 0.0010136, 0.0010136
7511, 1,0.00144226, -0.000942432, 0.000630763, 3.23636, -58.8057, 0.023082, -2.43885, 258.064, 0.69153, 0.00104383, 0.00175679, 0.00338693, 4.01242, 105.951, 0, 0.00104916, 0.0011304, 0.00213723, 2.59092, 68.0929, 0, 0.00104981, 0.798667, -14.5631, -304.089, -1.25113, -13.2139, -189.814, 0.0017117, 0.00143593, -0.00486648, 0.00107529, 0.00107529, 0.00107529
7512, 1,0.00159381, -0.000794079, 0.000533448, 17.1187, -49.7382, 0.0276197, -6.26672, 255.722, 0.866173, 0.001077, 0.00185528, 0.00340404, 17.4181, 92.6197, 0, 0.00108406, 0.0013337, 0.00235258, 17.0074, 60.4586, 0, 0.00108462, 12.9534, -1.35557, -289.457, 12.0837, -1.6024, -191.857, 0.00176949, 0.00152921, -0.00480107, 0.00124946, 0.00124946, 0.00124946
7513, 1,0.00155212, -0.00126234, 0.000846566, -1.93867, -79.0716, 0.0110515, -6.99649, 250.102, 0.280879, 0.000975526, 0.00198272, 0.00387244, -0.905109, 126.981, 0, 0.000978214, 0.00112156, 0.00218306, -2.95365, 75.0175, 0, 0.00097904, -14.2149, -24.3969, -342.331, -14.3504, -17.8196, -192.883, 0.0017016, 0.00153483, -0.00529684, 0.000880781, 0.000880781, 0.000880781
7514, 1,0.00154032, -0.00106617, 0.000713419, 11.3621, -66.7541, 0.0164592, 0.905627, 254.982, 0.455313, 0.00101033, 0.00190056, 0.00358567, 12.184, 104.641, 0, 0.00101423, 0.0011802, 0.00216161, 10.5495, 61.0198, 0, 0.00101495, 1.57368, -7.26131, -308.235, 0.74318, -3.20447, -180.598, 0.00169116, 0.00156418, -0.00495307, 0.000988058, 0.000988058, 0.000988058
7515, 1,0.00150326, -0.000911714, 0.000609904, 15.025, -56.997, 0.0217215, 2.6504, 256.975, 0.630878, 0.00104369, 0.00180956, 0.00344632, 15.7962, 94.2399, 0, 0.00104882, 0.00119707, 0.00223674, 14.2738, 57.3807, 0, 0.00104945, 11.0853, -3.45723, -290.348, 9.56425, -0.798957, -180.907, 0.00173465, 0.00150575, -0.00476921, 0.0011246, 0.0011246, 0.0011246
7516, 1,0.00137139, -0.000761902, 0.000511503, 0.387423, -47.8241, 0.0259171, -3.55085, 256.663, 0.795817, 0.00107707, 0.00163218, 0.00315555, 1.20784, 100.781, 0, 0.0010834, 0.00111072, 0.00213466, -0.405577, 69.7152, 0, 0.00108394, -10.0349, -11.9171, -280.391, -10.5962, -10.8409, -187.708, 0.00139967, 0.00146277, -0.00449724, 0.000902432, 0.000902432, 0.000902432
7517, 1,0.00153556, -0.00122215, 0.000818872, 10.0847, -76.6075, 0.010312, -2.8869, 241.977, 0.256532, 0.000975584, 0.00193364, 0.00376857, 10.1159, 109.206, 5.00529E-07, 0.000978329, 0.00113906, 0.00215051, 10.1251, 58.7862, 5.00529E-07, 0.00097913, 9.49026, -18.8436, -318.266, 9.35975, -10.2558, -175.463, 0.00192086, 0.001382, -0.00507484, 0.00112429, 0.00112429, 0.00112429
7518, 1,0.00142047, -0.00103593, 0.000692847, 4.25469, -64.8842, 0.0147984, -0.0416267, 256.807, 0.39432, 0.0010102, 0.00176954, 0.00338836, 4.95197, 106.202, 0, 0.00101387, 0.00107171, 0.00201126, 3.65789, 63.7907, 0, 0.00101456, -8.18426, -20.1986, -290.222, -8.99932, -14.5172, -167.856, 0.00150357, 0.00132701, -0.00455364, 0.000819534, 0.000819534, 0.000819534
7519, 1,0.00131419, -0.00087577, 0.000585688, 0.334023, -54.8944, 0.0192448, 0.424119, 259.513, 0.545869, 0.00104376, 0.00160219, 0.00313109, 0.646101, 101.06, 0, 0.00104838, 0.00102745, 0.00197086, 0.0822471, 65.3145, 0, 0.00104899, -0.477097, -28.0591, -274.645, -1.36014, -23.7792, -170.804, 0.00159016, 0.001107, -0.00433664, 0.00101062, 0.00101062, 0.00101062
7520, 1,0.00138328, -0.000730499, 0.000489674, 7.28468, -45.9127, 0.0236295, -3.73827, 255.999, 0.720497, 0.00107706, 0.00162862, 0.00311887, 7.73409, 91.281, 0, 0.00108297, 0.00113896, 0.00214653, 7.04288, 61.4, 0, 0.00108349, 3.41337, -12.8429, -264.413, 2.88805, -10.5588, -176.529, 0.00152514, 0.00131952, -0.0043253, 0.00104664, 0.00104664, 0.00104664
7521, 1,0.00134478, -0.00118576, 0.000792937, 0.0379898, -74.3774, 0.0087635, 3.88574, 235.443, 0.193087, 0.000975851, 0.00173415, 0.00343685, 0.181835, 110.142, 0, 0.000978289, 0.000957375, 0.0018662, 0.0540147, 61.1064, 0, 0.000979068, -3.87083, -32.0602, -294.495, -4.11197, -21.4207, -157.786, 0.00165125, 0.00112332, -0.00456175, 0.00087404, 0.00087404, 0.00087404
7522, 1,0.0013911, -0.000999717, 0.000668206, 8.70327, -62.7331, 0.0129043, -2.22519, 257.339, 0.329253, 0.00101026, 0.00172618, 0.00329079, 9.24071, 97.5089, 0, 0.00101384, 0.00105626, 0.00195803, 8.1825, 56.2975, 0, 0.00101452, 1.85922, -18.6215, -275.765, 1.44373, -11.2679, -159.068, 0.0015764, 0.00122863, -0.00438704, 0.000919543, 0.000919543, 0.000919543
7523, 1,0.00128888, -0.000845704, 0.000565274, 5.21517, -53.0438, 0.01726, 5.34367, 255.454, 0.471374, 0.00104386, 0.001572, 0.00306244, 5.81726, 91.96, 0, 0.00104818, 0.00100598, 0.00194295, 4.649, 57.3904, 0, 0.00104877, 1.08974, -17.6222, -259.347, 0.112914, -12.077, -160.207, 0.00147439, 0.00119474, -0.00416093, 0.000911043, 0.000911043, 0.000911043
7524, 1,0.00128186, -0.000695975, 0.000466036, 1.81442, -43.8052, 0.0208295, -6.32469, 256.347, 0.63018, 0.00107717, 0.00151586, 0.00297112, 2.28232, 91.1719, 0, 0.00108251, 0.00104846, 0.00204339, 1.53998, 62.5965, 0, 0.00108301, 0.0734134, -19.7234, -253.866, -0.343287, -16.3135, -171.133, 0.00144648, 0.00118475, -0.0041101, 0.000990345, 0.000990345, 0.000990345
7525, 1,0.00134004, -0.00114503, 0.000764766, 3.50447, -71.8947, 0.00677053, 8.72019, 233.095, 0.111674, 0.000975814, 0.00171829, 0.00337012, 3.66755, 103.673, 0, 0.000978111, 0.000965164, 0.00185406, 3.47369, 56.1222, 0, 0.000978866, 2.23856, -26.1187, -287.14, 1.99973, -13.765, -156.601, 0.00167792, 0.0011438, -0.00450394, 0.0009241, 0.0009241, 0.0009241
7526, 1,0.00127278, -0.000969048, 0.000646948, 3.60468, -60.8314, 0.0103506, -1.6063, 250.145, 0.243895, 0.0010104, 0.00159716, 0.0030799, 4.11576, 96.1633, 0, 0.00101358, 0.000948432, 0.00179103, 3.12585, 56.1628, 0, 0.00101423, -5.25318, -24.3779, -258.859, -5.73321, -15.6021, -147.153, 0.00140213, 0.00108288, -0.0040452, 0.000762915, 0.000762915, 0.000762915
7527, 1,0.00128326, -0.000813028, 0.000543145, 8.18112, -51.0666, 0.0145633, 5.86695, 247.502, 0.388709, 0.00104414, 0.00154943, 0.00300463, 8.28331, 87.5321, 0, 0.00104802, 0.00101952, 0.00193182, 8.21515, 54.1305, 0, 0.00104859, 7.77917, -21.271, -249.104, 7.09869, -14.6391, -154.851, 0.00154275, 0.00104908, -0.0040118, 0.0010039, 0.0010039, 0.0010039
7528, 1,0.00119585, -0.000665221, 0.000445102, -0.864219, -41.9014, 0.0178019, -4.25796, 252.73, 0.523023, 0.00107756, 0.00142078, 0.00276843, -0.350921, 89.5963, 0, 0.00108225, 0.000970937, 0.00188056, -1.30604, 62.2239, 0, 0.00108273, -8.54764, -25.4665, -234.775, -8.91456, -21.0432, -156.714, 0.00123472, 0.00103795, -0.003726, 0.000798305, 0.000798305, 0.000798305
7529, 1,0.00132204, -0.00110986, 0.00074068, 4.64127, -69.6806, 0.00463327, 27.5039, 209.949, 0.0282977, 0.000976265, 0.0016925, 0.00328837, 5.06849, 99.5988, 0, 0.000978068, 0.000952336, 0.00181195, 4.22207, 53.4936, 0, 0.0009788, 0.376976, -26.1475, -273.026, 0.154921, -12.7455, -147.89, 0.00157352, 0.00107045, -0.00426009, 0.00084284, 0.00084284, 0.00084284
7530, 1,0.00122817, -0.000937564, 0.000625634, 3.4625, -58.8766, 0.00816255, 7.56573, 233.924, 0.166081, 0.00101056, 0.00153461, 0.00304928, 3.52188, 93.018, 0, 0.00101327, 0.000923961, 0.00181102, 3.57097, 54.2487, 0, 0.00101391, 3.06549, -28.1427, -253.977, 2.63078, -18.3018, -147.075, 0.0015265, 0.000946248, -0.00398192, 0.000907636, 0.000907636, 0.000907636
7531, 1,0.0011785, -0.000782338, 0.000522495, 2.79761, -49.1789, 0.0117099, 8.12603, 237.584, 0.294921, 0.00104434, 0.00143952, 0.00278645, 3.24512, 87.1108, 0, 0.00104769, 0.000917621, 0.00174877, 2.37937, 54.8691, 0, 0.00104824, -4.52675, -24.5303, -232.275, -5.10266, -16.8724, -142.632, 0.00127246, 0.000966681, -0.00365231, 0.00075402, 0.00075402, 0.00075402
7532, 1,0.00117893, -0.000635387, 0.000425146, 5.7465, -40.0515, 0.0149753, -3.00177, 248.645, 0.42355, 0.00107785, 0.00138587, 0.00269801, 5.77035, 80.3966, 0, 0.00108215, 0.000972528, 0.00185756, 5.76595, 54.191, 0, 0.00108261, 5.37865, -26.7836, -219.785, 5.12523, -21.5961, -146.102, 0.00138207, 0.00085805, -0.0035442, 0.00096632, 0.00096632, 0.00096632
7533, 1,0.00126524, -0.00107683, 0.000718861, 2.89492, -67.5879, 0.00362232, 31.1246, 188.047, 0, 0.00097648, 0.00162541, 0.00316875, 3.30378, 97.8401, 0, 0.000977911, 0.000905177, 0.00173452, 2.49548, 53.1455, 0, 0.00097862, -1.08035, -34.9611, -257.479, -1.22337, -20.7556, -137.458, 0.00151407, 0.000851133, -0.0039528, 0.000807254, 0.000807254, 0.000807254
7534, 1,0.00116414, -0.000905274, 0.0006039, 1.72158, -56.8792, 0.00664996, 26.3339, 220.721, 0.0971358, 0.00101076, 0.00146641, 0.00289755, 2.08606, 90.6718, 0, 0.0010131, 0.000862, 0.00169342, 1.4307, 53.141, 0, 0.00101372, -1.61145, -30.3339, -240.07, -1.91748, -19.5306, -137.975, 0.00138838, 0.000855291, -0.00371479, 0.000791721, 0.000791721, 0.000791721
7535, 1,0.00113551, -0.0007526, 0.00050252, 4.7058, -47.3341, 0.00942395, 13.3637, 227.673, 0.212876, 0.00104459, 0.00138102, 0.00273276, 4.71705, 81.977, 0, 0.00104759, 0.000892372, 0.00174056, 4.82708, 50.8885, 0, 0.00104811, 4.18974, -26.013, -224.108, 3.71571, -17.6345, -138.747, 0.00137403, 0.000843014, -0.00354693, 0.000875929, 0.000875929, 0.000875929
7536, 1,0.00106858, -0.000606607, 0.000406005, -0.760588, -38.2482, 0.0118244, -0.993646, 242.065, 0.31117, 0.00107806, 0.00127344, 0.00248472, -0.382959, 81.1313, 0, 0.00108177, 0.000863879, 0.00167456, -1.05782, 56.0762, 0, 0.00108221, -8.14734, -31.1383, -204.108, -8.31472, -25.246, -134.668, 0.00110581, 0.000762341, -0.00318418, 0.000709931, 0.000709931, 0.000709931
7537, 1,0.00118104, -0.00104107, 0.000694827, 1.8791, -65.3609, 0.00321712, 30.9625, 162.622, 0, 0.000976656, 0.00152927, 0.00301879, 2.25864, 93.2272, 0, 0.000977756, 0.000832883, 0.00163152, 1.51569, 49.9681, 0, 0.000978443, 0.298689, -36.5646, -243.416, 0.201752, -21.557, -128.549, 0.00146979, 0.000741286, -0.00372383, 0.000786519, 0.000786519, 0.000786519
7538, 1,0.0011136, -0.000875066, 0.000583913, 1.73114, -54.9752, 0.00525161, 31.9515, 216.195, 0.0431082, 0.00101075, 0.00140077, 0.00278415, 1.77345, 86.4844, 0, 0.00101296, 0.000828095, 0.00162767, 1.79609, 50.207, 0, 0.00101356, 0.954247, -32.8072, -227.6, 0.634109, -21.247, -130.008, 0.00137462, 0.000730148, -0.00350795, 0.000797343, 0.000797343, 0.000797343
7539, 1,0.00105223, -0.0007212, 0.000481056, 0.244568, -45.402, 0.00754844, 24.8386, 218.657, 0.13474, 0.00104475, 0.00129283, 0.00255914, 0.583178, 81.4248, 0, 0.00104738, 0.00081168, 0.00159925, -0.0710355, 51.4976, 0, 0.00104789, -3.083, -29.3371, -211.854, -3.3388, -20.2354, -130.919, 0.00121, 0.000751178, -0.00328214, 0.000734798, 0.000734798, 0.000734798
7540, 1,0.00105153, -0.000579451, 0.000387583, 4.84975, -36.5336, 0.00954845, 2.9222, 235.892, 0.225071, 0.00107836, 0.00124024, 0.00244114, 4.85566, 72.541, 0, 0.00108182, 0.000863376, 0.00167517, 4.88871, 48.6034, 0, 0.00108224, 4.54999, -28.5603, -193.613, 4.34471, -22.1571, -127.998, 0.00123784, 0.000664859, -0.00307936, 0.000858762, 0.000858762, 0.000858762
7541, 1,0.00113107, -0.00100624, 0.000671374, 1.53994, -63.1801, 0.00283747, 30.389, 139.348, 0, 0.000976838, 0.0014671, 0.00290074, 1.87356, 89.9028, 0, 0.000977622, 0.000795144, 0.00156076, 1.22372, 48.0744, 0, 0.000978286, 0.0469572, -38.1356, -231.62, -0.0498023, -22.5014, -121.672, 0.0014113, 0.000652426, -0.00352254, 0.000750524, 0.000750524, 0.000750524
7542, 1,0.00104888, -0.000843278, 0.000562727, 0.840869, -52.9944, 0.00407499, 41.7142, 199.518, 0.00200659, 0.00101076, 0.0013301, 0.00263937, 1.14879, 82.9297, 3.38813E-21, 0.00101268, 0.000767822, 0.00151816, 0.590811, 47.9128, 3.38813E-21, 0.00101325, -1.29766, -34.0807, -213.411, -1.49387, -21.8973, -120.347, 0.00126938, 0.000642371, -0.00325728, 0.000714544, 0.000714544, 0.000714544
7543, 1,0.00102665, -0.000693812, 0.000463082, 3.07927, -43.6668, 0.00607278, 26.3281, 216.134, 0.0797468, 0.00104469, 0.00125406, 0.00248395, 3.08992, 75.8637, 0, 0.00104724, 0.000800206, 0.00156598, 3.12253, 47.0871, 0, 0.00104773, 2.42994, -29.8403, -200.181, 2.1656, -20.2891, -123.138, 0.0012376, 0.000645266, -0.00311361, 0.000780292, 0.000780292, 0.000780292
7544, 1,0.000974811, -0.000551295, 0.000368635, 0.120771, -34.7836, 0.00772764, 4.84889, 232.436, 0.155251, 0.00107829, 0.00116036, 0.0022959, 0.442744, 73.0535, 4.47011E-08, 0.00108147, 0.00078946, 0.00156015, -0.135534, 50.2088, 4.47011E-08, 0.00108187, -2.98178, -32.0536, -184.125, -3.08471, -25.1382, -122.403, 0.00108574, 0.000586371, -0.00285711, 0.000725994, 0.000725994, 0.000725994
7545, 1,0.00107773, -0.000971369, 0.000647987, 1.1999, -60.9976, 0.00245132, 21.4478, 126.883, 0, 0.000976773, 0.00140194, 0.00277504, 1.51118, 86.3611, 0, 0.000977415, 0.000753705, 0.00148185, 0.917957, 45.9637, 0, 0.000978056, -0.427334, -39.2122, -219.444, -0.509379, -23.0745, -114.307, 0.0013448, 0.000570965, -0.00331713, 0.000706844, 0.000706844, 0.000706844
7546, 1,0.00101332, -0.000812483, 0.0005424, 1.19461, -51.0653, 0.00350267, 26.4935, 187.087, 0, 0.00101081, 0.00128337, 0.00254451, 1.43033, 79.326, 0, 0.00101258, 0.000743595, 0.00146494, 0.997248, 45.5714, 0, 0.00101314, -0.0533817, -35.8886, -202.036, -0.170348, -23.2703, -113.274, 0.0012378, 0.000545855, -0.00307072, 0.000704466, 0.000704466, 0.000704466
7547, 1,0.000971569, -0.000665033, 0.000443803, 0.645846, -41.8706, 0.00476842, 19.6265, 220.13, 0.0340765, 0.00104448, 0.00119286, 0.0023603, 0.91021, 74.4718, 0, 0.00104702, 0.000750398, 0.00147653, 0.407499, 46.8424, 0, 0.00104749, -1.9055, -31.5218, -189.988, -2.12603, -21.5272, -116.874, 0.00112283, 0.000582697, -0.00291369, 0.000684445, 0.000684445, 0.000684445
7548, 1,0.000957574, -0.000524968, 0.000350997, 3.02184, -33.1286, 0.00630288, 3.99538, 231.361, 0.101571, 0.00107822, 0.00113401, 0.00223244, 3.30447, 67.6436, 0, 0.00108133, 0.000781327, 0.00153223, 2.79155, 45.8766, 0, 0.00108171, 1.76473, -30.6694, -174.026, 1.68405, -23.4535, -115.86, 0.00110002, 0.000521906, -0.00271915, 0.000757628, 0.000757628, 0.000757628
7549, 1,0.001026, -0.000936595, 0.000624738, 1.07195, -58.8199, 0.00216334, 15.7727, 116.263, 0, 0.000976722, 0.00133836, 0.00265276, 1.35469, 82.6233, 0, 0.000977256, 0.000713864, 0.00140614, 0.820937, 43.6572, 0, 0.000977874, -0.28105, -39.9271, -207.662, -0.343659, -23.4051, -107.223, 0.00128845, 0.0004945, -0.00312368, 0.000673423, 0.000673423, 0.000673423
7550, 1,0.000971586, -0.000781479, 0.000521713, 1.19865, -49.1257, 0.0031313, 25.2153, 165.224, 0, 0.00101079, 0.00123127, 0.00243801, 1.41448, 76.0307, 0, 0.00101226, 0.000712212, 0.00139956, 1.02214, 43.5418, 0, 0.00101279, -0.158274, -36.6599, -191.274, -0.239053, -23.6612, -106.725, 0.00118277, 0.000475394, -0.00289177, 0.000670082, 0.000670082, 0.000670082
7551, 1,0.000900176, -0.000637357, 0.00042552, -0.732983, -40.1259, 0.00387069, 19.8951, 214.231, 0.00322829, 0.00104438, 0.0011125, 0.00223452, -0.463889, 71.2859, 0, 0.00104681, 0.000688207, 0.00138724, -0.855204, 44.8109, 0, 0.00104726, -1.32794, -34.4267, -178.103, -1.50604, -24.1463, -108.78, 0.00108403, 0.00046752, -0.00270803, 0.000664656, 0.000664656, 0.000664656
7552, 1,0.000904039, -0.000498406, 0.000333069, 0.615641, -31.4677, 0.00520077, 4.19141, 231.164, 0.058002, 0.00107799, 0.0010714, 0.00210798, 0.884176, 66.9486, -2.11758E-22, 0.001081, 0.000736837, 0.00144308, 0.396175, 46.2471, -2.11758E-22, 0.00108136, -2.99701, -32.8889, -164.96, -3.05134, -25.3336, -110.356, 0.000987339, 0.000456739, -0.00253004, 0.000662183, 0.000662183, 0.000662183
7553, 1,0.000977581, -0.000901891, 0.000601544, 0.904756, -56.6461, 0.00192692, 11.882, 106.499, 0, 0.000976607, 0.00127813, 0.00253682, 1.15841, 79.1328, 0, 0.000977041, 0.000677306, 0.00133665, 0.683459, 41.5956, 0, 0.000977636, -0.222779, -40.4993, -196.676, -0.265501, -23.7045, -100.817, 0.00123426, 0.000425275, -0.00294363, 0.000642128, 0.000642128, 0.000642128
7554, 1,0.000929492, -0.000750432, 0.000500938, 1.30645, -47.1838, 0.0027941, 18.2145, 153.204, 0, 0.00101077, 0.00117895, 0.00233003, 1.51688, 72.5797, 0, 0.0010121, 0.000680339, 0.00133252, 1.13887, 41.3597, 0, 0.00101261, -0.200251, -36.8354, -180.703, -0.25383, -23.5467, -100.279, 0.00112686, 0.000415632, -0.00272011, 0.000634684, 0.000634684, 0.000634684
7555, 1,0.00086982, -0.000609528, 0.000407078, -0.100431, -38.3805, 0.00344551, 10.3938, 205.266, 0, 0.00104425, 0.00107305, 0.00214307, 0.154264, 67.9525, 0, 0.00104658, 0.00066689, 0.00133227, -0.28647, 42.625, 0, 0.00104701, -1.12213, -35.2123, -167.523, -1.24671, -24.7632, -101.865, 0.00103519, 0.000397, -0.00253459, 0.000634938, 0.000634938, 0.000634938
7556, 1,0.000867157, -0.000472677, 0.000315737, 2.15481, -29.8516, 0.00444352, 2.45366, 230.888, 0.0300281, 0.0010778, 0.0010255, 0.00200613, 2.38811, 62.0025, 0, 0.00108083, 0.00070891, 0.00137595, 1.95633, 42.3588, 0, 0.00108117, -0.66304, -31.5887, -153.756, -0.724167, -23.8073, -102.545, 0.000958016, 0.000401324, -0.00236506, 0.000649273, 0.000649273, 0.000649273
7557, 1,0.000932275, -0.0008673, 0.000578451, 0.903567, -54.4778, 0.00174414, 9.23141, 98.434, 0, 0.000976447, 0.00122111, 0.00242367, 1.13372, 75.5748, 0, 0.000976809, 0.000643778, 0.00126977, 0.709617, 39.4667, 0, 0.000977381, -0.124701, -40.6754, -185.924, -0.15024, -23.7153, -94.5346, 0.00118005, 0.000363945, -0.00277036, 0.000610758, 0.000610758, 0.000610758
7558, 1,0.00088199, -0.000719609, 0.000480328, 0.956498, -45.2546, 0.00255908, 14.6856, 143.013, 0, 0.00101057, 0.00112111, 0.00222119, 1.15316, 69.4087, 0, 0.00101178, 0.000643212, 0.00126458, 0.809146, 39.4531, 0, 0.00101227, -0.215193, -37.3757, -170.635, -0.243957, -23.8863, -94.2291, 0.00107609, 0.000352842, -0.00255511, 0.000604307, 0.000604307, 0.000604307
7559, 1,0.000831351, -0.000581604, 0.000388416, 0.437143, -36.6318, 0.0032103, 11.3532, 188.961, 0, 0.00104431, 0.00102505, 0.00204007, 0.670647, 64.1817, 0, 0.00104643, 0.000637968, 0.0012664, 0.265902, 40, 0, 0.00104684, -0.541512, -35.0558, -156.948, -0.63143, -24.4721, -94.8965, 0.00098751, 0.000339225, -0.00236797, 0.000605965, 0.000605965, 0.000605965
7560, 1,0.000808241, -0.000447445, 0.000298864, 1.1708, -28.2642, 0.00390313, 3.72602, 227.617, 0.00968404, 0.00107762, 0.000958117, 0.00189147, 1.40533, 59.14, 1.35525E-20, 0.00108059, 0.000658496, 0.00129503, 0.9813, 40.5451, 1.35525E-20, 0.00108092, -0.885205, -32.816, -143.719, -0.948851, -24.8845, -95.802, 0.000907658, 0.00032715, -0.00219409, 0.000615275, 0.000615275, 0.000615275
7561, 1,0.00088752, -0.000832758, 0.000555383, 0.756113, -52.312, 0.00160379, 8.07788, 91.0547, 0, 0.000976339, 0.00116468, 0.00231323, 0.965169, 72.2095, 0, 0.000976638, 0.000610765, 0.00120553, 0.587638, 37.5292, 0, 0.000977188, -0.137838, -40.7221, -175.768, -0.14953, -23.6933, -88.7448, 0.00112667, 0.000308603, -0.00260704, 0.000580133, 0.000580133, 0.000580133
7562, 1,0.000837457, -0.00068891, 0.000459803, 0.773809, -43.3299, 0.00236884, 12.8067, 133.453, 0, 0.00101048, 0.00106621, 0.00211534, 0.954783, 66.1795, 0, 0.00101158, 0.000609071, 0.0011996, 0.646116, 37.4913, 0, 0.00101205, -0.123148, -37.521, -160.894, -0.140461, -23.9218, -88.4116, 0.00102684, 0.000297498, -0.00239813, 0.000575214, 0.000575214, 0.000575214
7563, 1,0.000791069, -0.000553939, 0.000369942, 0.725314, -34.8972, 0.0029935, 10.5293, 176.25, 0, 0.00104424, 0.000975214, 0.00193633, 0.932854, 60.6207, 0, 0.00104621, 0.000607262, 0.00119968, 0.580429, 37.5804, 0, 0.0010466, -0.177514, -34.9386, -146.746, -0.247752, -24.2843, -88.2092, 0.000938747, 0.000284062, -0.00220627, 0.000575528, 0.000575528, 0.000575528
7564, 1,0.000756603, -0.00042243, 0.000282234, 0.779345, -26.692, 0.00356428, 4.54554, 220.503, 0, 0.00107751, 0.000898123, 0.00178142, 1.00505, 55.9306, 0, 0.00108039, 0.000615245, 0.00121834, 0.60368, 38.3758, 0, 0.0010807, -0.729514, -33.6167, -133.446, -0.776474, -25.609, -88.7419, 0.000859975, 0.000257946, -0.00202513, 0.00058423, 0.00058423, 0.00058423
7565, 1,0.000844436, -0.0007983, 0.000532388, 0.692726, -50.1492, 0.00147449, 6.85852, 84.4678, 0, 0.000976124, 0.00110997, 0.00220491, 0.883964, 68.8319, 0, 0.000976372, 0.000579369, 0.00114329, 0.546563, 35.5808, 0, 0.000976899, -0.102182, -40.4802, -165.913, -0.104997, -23.4778, -83.1595, 0.00107423, 0.000258972, -0.00245016, 0.000550368, 0.000550368, 0.000550368
7566, 1,0.000793813, -0.000658326, 0.000439357, 0.683695, -41.4107, 0.00218258, 10.3946, 124.862, 0, 0.00101021, 0.00101228, 0.00200924, 0.854478, 62.8894, 0, 0.00101123, 0.000575727, 0.00113421, 0.570866, 35.4673, 0, 0.00101168, -0.0776253, -37.3388, -151.252, -0.0900636, -23.7079, -82.6039, 0.000975785, 0.000247956, -0.00224415, 0.000544169, 0.000544169, 0.000544169
7567, 1,0.000750578, -0.000526352, 0.000351469, 0.665075, -33.1669, 0.00278306, 7.35032, 167.139, 0, 0.00104414, 0.000925323, 0.00183673, 0.854298, 57.5224, 0, 0.001046, 0.000576162, 0.00113684, 0.539936, 35.6222, 0, 0.00104637, -0.133638, -34.8097, -137.624, -0.193331, -24.1556, -82.5178, 0.000890604, 0.00023661, -0.00206041, 0.000545505, 0.000545505, 0.000545505
7568, 1,0.00071486, -0.000397685, 0.000265758, 1.09742, -25.1359, 0.00336921, 1.82883, 211.754, 0, 0.00107741, 0.000847902, 0.00168096, 1.31487, 52.3309, 0, 0.0010802, 0.000582014, 0.00115111, 0.930731, 35.8117, 0, 0.00108049, 0.0294072, -33.4557, -123.566, -0.0184769, -25.4431, -81.9735, 0.000818975, 0.000203729, -0.00187151, 0.000559429, 0.000559429, 0.000559429
7569, 1,0.000801578, -0.00076393, 0.000509461, 0.592294, -47.991, 0.00135553, 5.65938, 78.501, 0, 0.000975993, 0.00105554, 0.0020977, 0.7669, 65.5274, 0, 0.000976199, 0.000548154, 0.00108205, 0.466852, 33.7035, 0, 0.000976703, -0.100626, -40.0755, -156.406, -0.0964034, -23.1857, -77.8284, 0.00102222, 0.000213734, -0.00229931, 0.000520972, 0.000520972, 0.000520972
7570, 1,0.000751875, -0.000627832, 0.000418977, 0.595066, -39.4953, 0.00201352, 7.93354, 117.435, 0, 0.00101007, 0.000960088, 0.00190599, 0.754388, 59.7031, 0, 0.00101102, 0.000544063, 0.00107158, 0.496694, 33.5476, 0, 0.00101145, -0.0744545, -36.9805, -142.054, -0.0871889, -23.3995, -77.1562, 0.000925512, 0.000203651, -0.00209788, 0.000513806, 0.000513806, 0.000513806
7571, 1,0.000707198, -0.000499019, 0.000333181, 0.620059, -31.449, 0.00259865, 5.29441, 158.192, 0, 0.00104405, 0.000872641, 0.00173402, 0.81153, 54.2695, 0, 0.00104582, 0.000542096, 0.00107066, 0.498463, 33.5072, 0, 0.00104617, 0.0627224, -34.3993, -128.472, -0.0026159, -23.8026, -76.7165, 0.00084328, 0.00019247, -0.00191617, 0.000515928, 0.000515928, 0.000515928
7572, 1,0.000667219, -0.00037291, 0.000249199, 0.837264, -23.5801, 0.00318995, 1.89656, 200.268, 0, 0.00107734, 0.000791915, 0.00157434, 1.05391, 49.2068, 0, 0.00107999, 0.000542731, 0.0010775, 0.672452, 33.7161, 0, 0.00108026, -0.0234365, -33.2902, -114.307, -0.0708349, -25.3006, -75.7767, 0.000768304, 0.000156483, -0.00172291, 0.000524882, 0.000524882, 0.000524882
7573, 1,0.000759315, -0.0007296, 0.000486563, 0.550391, -45.8343, 0.00124891, 4.83323, 72.8156, 0, 0.000975785, 0.00100171, 0.00199109, 0.707963, 62.1882, 0, 0.000975953, 0.000517502, 0.00102135, 0.443421, 31.7916, 0, 0.000976434, -0.0400373, -39.4217, -147.103, -0.0314174, -22.725, -72.6184, 0.000970877, 0.000173107, -0.00215316, 0.000492182, 0.000492182, 0.000492182
7574, 1,0.000709736, -0.000597471, 0.0003987, 0.534781, -37.5863, 0.00186576, 6.24835, 110.324, 0, 0.00100985, 0.000907709, 0.00180278, 0.685248, 56.4722, 0, 0.00101073, 0.000512186, 0.00100889, 0.450232, 31.5819, 0, 0.00101114, 0.00942439, -36.4208, -133.005, -0.00837389, -22.9618, -71.7756, 0.000876231, 0.000162786, -0.00195532, 0.000484312, 0.000484312, 0.000484312
7575, 1,0.00066442, -0.000471833, 0.000314996, 0.565256, -29.7393, 0.00243153, 4.02199, 149.288, 0, 0.00104386, 0.00082063, 0.00163145, 0.754832, 51.0783, 0, 0.00104553, 0.000508544, 0.00100439, 0.446244, 31.4492, 0, 0.00104586, 0.117982, -33.7851, -119.568, 0.0464593, -23.3027, -71.0913, 0.000793938, 0.000153378, -0.00177596, 0.000484247, 0.000484247, 0.000484247
7576, 1,0.000623583, -0.000348358, 0.000232786, 0.829563, -22.0384, 0.00300874, 1.44861, 189.311, 0, 0.00107727, 0.000739981, 0.00147101, 1.0418, 45.9725, 0, 0.00107978, 0.000507397, 0.00100688, 0.666658, 31.4985, 0, 0.00108004, 0.0329352, -32.6437, -105.307, -0.0115447, -24.7255, -69.7585, 0.000718215, 0.000117275, -0.00158115, 0.00049079, 0.00049079, 0.00049079
7577, 1,0.000717331, -0.000695382, 0.000463757, 0.483246, -43.6837, 0.00115017, 4.31798, 67.2149, 0, 0.000975674, 0.000948214, 0.00188532, 0.62318, 58.902, 0, 0.000975806, 0.000487078, 0.000961341, 0.393541, 29.9299, 0, 0.000976265, -0.00650759, -38.6339, -138.066, 0.00628433, -22.2065, -67.5895, 0.000919799, 0.000136106, -0.00201176, 0.000463611, 0.000463611, 0.000463611
7578, 1,0.000667279, -0.000567178, 0.000378464, 0.459683, -35.6804, 0.00173099, 5.11451, 103.296, 0, 0.00100973, 0.000855032, 0.00169933, 0.604756, 53.2414, 0, 0.00101055, 0.000479963, 0.000945884, 0.386683, 29.6156, 0, 0.00101094, 0.0960728, -35.6531, -124.167, 0.0700718, -22.3815, -66.5353, 0.000827031, 0.00012621, -0.00181713, 0.000454821, 0.000454821, 0.000454821
7579, 1,0.000621821, -0.000444798, 0.000296928, 0.552077, -28.0369, 0.00227528, 3.09402, 140.601, 0, 0.00104378, 0.000768884, 0.00152924, 0.742066, 47.8851, 0, 0.00104535, 0.000475089, 0.000938258, 0.427013, 29.387, 0, 0.00104566, 0.172087, -32.963, -110.864, 0.0907521, -22.6526, -65.5991, 0.000744565, 0.000118459, -0.00163987, 0.000452428, 0.000452428, 0.000452428
7580, 1,0.000579604, -0.000324009, 0.000216531, 0.793389, -20.5071, 0.00283717, 1.26089, 178.623, 0, 0.00107725, 0.000687824, 0.00136773, 1.00613, 42.7767, 0, 0.00107963, 0.000471601, 0.000935997, 0.627277, 29.3159, 0, 0.00107986, 0.0444115, -31.8333, -96.5413, -0.000605239, -24.0382, -63.9089, 0.000667833, 8.19302E-05, -0.00144357, 0.000456278, 0.000456278, 0.000456278
7581, 1,0.00067516, -0.000661192, 0.000440963, 0.443013, -41.5342, 0.00105451, 4.07901, 61.4355, 0, 0.00097545, 0.000894551, 0.00177886, 0.565229, 55.5619, 0, 0.000975542, 0.000456437, 0.000900586, 0.370038, 28.0133, 0, 0.000975979, 0.0544767, -37.5917, -129.148, 0.0696879, -21.5008, -62.6088, 0.000868522, 0.000103516, -0.0018737, 0.00043479, 0.00043479, 0.00043479
7582, 1,0.000625338, -0.000536967, 0.000358288, 0.406326, -33.7783, 0.00160547, 4.36012, 96.3311, 0, 0.00100952, 0.000802898, 0.00159649, 0.551088, 50.0159, 0, 0.00101028, 0.000448225, 0.000883383, 0.340771, 27.6536, 0, 0.00101065, 0.176231, -34.6855, -115.538, 0.139266, -21.6654, -61.4348, 0.000777882, 9.38057E-05, -0.00168325, 0.000425308, 0.000425308, 0.000425308
7583, 1,0.000579013, -0.000417882, 0.000278953, 0.555627, -26.3399, 0.00213016, 2.53343, 132.099, 0, 0.00104355, 0.00071698, 0.00142699, 0.745129, 44.7013, 0, 0.00104503, 0.000441376, 0.000871937, 0.420338, 27.3336, 0, 0.00104533, 0.210716, -31.9603, -102.354, 0.115525, -21.8753, -60.2411, 0.000695114, 8.73391E-05, -0.00150764, 0.000420436, 0.000420436, 0.000420436
7584, 1,0.000535986, -0.000299823, 0.000200404, 0.786899, -18.984, 0.00267326, 1.08617, 168.417, 0, 0.00107712, 0.000636104, 0.00126489, 1.00357, 39.5703, 0, 0.00107937, 0.000436097, 0.000865337, 0.613385, 27.1197, 0, 0.00107959, 0.0678835, -30.8122, -87.9667, 0.0194243, -23.1863, -58.1922, 0.000617595, 5.07053E-05, -0.00131009, 0.000421807, 0.000421807, 0.000421807
7585, 1,0.00063352, -0.000627034, 0.000418183, 0.34968, -39.3861, 0.000962294, 4.06678, 55.5577, 0, 0.000975353, 0.000841458, 0.00167389, 0.458458, 52.3152, 0, 0.000975404, 0.000426295, 0.000841229, 0.291025, 26.1893, 0, 0.000975818, 0.045158, -36.3965, -120.594, 0.0599125, -20.71, -57.9177, 0.00081732, 7.54187E-05, -0.00174173, 0.000405973, 0.000405973, 0.000405973
7586, 1,0.000583442, -0.000506818, 0.000338155, 0.378808, -31.8786, 0.00148888, 4.04183, 89.3251, 0, 0.00100939, 0.000750874, 0.00149373, 0.525286, 46.8052, 0, 0.00101009, 0.00041647, 0.000820835, 0.301746, 25.7063, 0, 0.00101044, 0.209641, -33.524, -107.101, 0.158313, -20.8151, -56.4622, 0.000728115, 6.55295E-05, -0.00155311, 0.000395107, 0.000395107, 0.000395107
7587, 1,0.000536807, -0.000391082, 0.000261083, 0.572096, -24.6483, 0.00199471, 2.28765, 123.77, 0, 0.00104343, 0.000665705, 0.0013254, 0.764548, 41.5294, 0, 0.00104483, 0.000408228, 0.000806138, 0.424434, 25.2908, 0, 0.0010451, 0.224624, -30.7628, -94.05, 0.112391, -20.9527, -55.032, 0.000645469, 6.03366E-05, -0.00137954, 0.000388165, 0.000388165, 0.000388165
7588, 1,0.000492527, -0.000275801, 0.000184407, 0.783754, -17.4693, 0.00251675, 0.933239, 158.654, 0, 0.0010771, 0.000584597, 0.00116236, 1.00742, 36.3729, 0, 0.00107923, 0.000400707, 0.000794796, 0.5993, 24.929, 0, 0.00107943, 0.0803683, -29.6211, -79.5781, 0.0264701, -22.2056, -52.608, 0.000567402, 2.30687E-05, -0.00118039, 0.000387288, 0.000387288, 0.000387288
7589, 1,0.000592561, -0.000592936, 0.000395443, 0.283721, -37.2407, 0.000874695, 4.42513, 49.467, 0, 0.000975152, 0.000789092, 0.00156988, 0.384505, 49.0666, 0, 0.000975159, 0.000396801, 0.000782731, 0.236818, 24.3619, 0, 0.00097555, 0.0498811, -34.9987, -112.251, 0.0612604, -19.7807, -53.3664, 0.000766452, 5.13307E-05, -0.00161407, 0.000377411, 0.000377411, 0.000377411
7590, 1,0.00054246, -0.000476746, 0.000318089, 0.381636, -29.9823, 0.00137982, 4.0788, 82.3064, 0, 0.00100915, 0.000699818, 0.00139226, 0.523936, 43.6445, 0, 0.00100978, 0.000385578, 0.000759461, 0.30034, 23.8083, 0, 0.00101011, 0.180682, -32.1845, -98.9296, 0.111377, -19.8458, -51.6904, 0.000677932, 4.1565E-05, -0.00142769, 0.000364403, 0.000364403, 0.000364403
7591, 1,0.000495206, -0.000364418, 0.000243352, 0.579366, -22.9633, 0.00186667, 2.29503, 115.584, 0, 0.00104318, 0.00061505, 0.00122452, 0.780479, 38.3725, 0, 0.00104449, 0.000375664, 0.000740924, 0.416211, 23.2611, 0, 0.00104475, 0.221603, -29.4112, -85.9279, 0.0904931, -19.9234, -49.9502, 0.000595826, 3.66282E-05, -0.00125497, 0.000355833, 0.000355833, 0.000355833
7592, 1,0.000449301, -0.000251967, 0.000168566, 0.792397, -15.9642, 0.00236664, 0.790005, 149.279, 0, 0.00107696, 0.000533393, 0.00106031, 1.02707, 33.1841, 0, 0.00107899, 0.000365493, 0.000724493, 0.592689, 22.7433, 0, 0.00107917, 0.0879881, -28.2701, -71.3702, 0.0269708, -21.104, -47.1528, 0.00051733, -1.20323E-06, -0.00105431, 0.000352799, 0.000352799, 0.000352799
7593, 1,0.000552766, -0.000558893, 0.000372745, 0.215337, -35.0978, 0.000789891, 5.02725, 43.2295, 0, 0.000975022, 0.000737915, 0.00146791, 0.310099, 45.8967, 0, 0.000974979, 0.00036844, 0.000726209, 0.179342, 22.6123, 0, 0.000975348, 0.0179656, -33.4727, -104.235, 0.0231978, -18.7869, -49.0731, 0.00071608, 3.09611E-05, -0.0014919, 0.000349275, 0.000349275, 0.000349275
7594, 1,0.000502392, -0.000446766, 0.000298118, 0.386801, -28.0897, 0.00127563, 4.39919, 75.22, 0, 0.00100903, 0.000649675, 0.00129203, 0.529777, 40.5025, 0, 0.0010096, 0.000355599, 0.000699262, 0.301184, 21.9293, 0, 0.00100991, 0.157292, -30.7162, -90.9487, 0.0676609, -18.8055, -47.0499, 0.00062824, 2.03909E-05, -0.00130585, 0.000334152, 0.000334152, 0.000334152
7595, 1,0.000453765, -0.000337892, 0.00022578, 0.592109, -21.2843, 0.00174272, 2.43971, 107.494, 0, 0.00104302, 0.00056458, 0.00112416, 0.8079, 35.2287, 0, 0.00104424, 0.000343237, 0.000676072, 0.408418, 21.2442, 0, 0.00104448, 0.21706, -27.9222, -77.981, 0.0641208, -18.8026, -44.994, 0.000546438, 1.58251E-05, -0.00113378, 0.000323691, 0.000323691, 0.000323691
7596, 1,0.000406333, -0.000228318, 0.000152893, 0.821465, -14.4679, 0.00222162, 0.689035, 140.165, 0, 0.00107691, 0.000482533, 0.000958696, 1.07258, 29.9971, 0, 0.00107883, 0.000330471, 0.000654409, 0.600911, 20.5577, 0, 0.001079, 0.0965787, -26.7649, -63.3232, 0.0261372, -19.8871, -41.8121, 0.000467344, -2.237E-05, -0.000931456, 0.000318324, 0.000318324, 0.000318324
7597, 1,0.000513803, -0.000524926, 0.000350115, 0.187929, -32.9585, 0.000707325, 5.88266, 36.797, 0, 0.000974857, 0.000687587, 0.00136705, 0.274384, 42.7293, 0, 0.000974763, 0.000340899, 0.000670734, 0.163143, 20.864, 0, 0.000975109, 0.012115, -31.8327, -96.3675, 0.0107009, -17.7375, -44.8651, 0.000666319, 1.28364E-05, -0.00137263, 0.000321722, 0.000321722, 0.000321722
7598, 1,0.000462355, -0.00041685, 0.000278219, 0.388963, -26.1996, 0.00117311, 4.87102, 68.0493, 0, 0.00100885, 0.000599547, 0.00119224, 0.536195, 37.3732, 0, 0.00100935, 0.000325666, 0.000639472, 0.293407, 20.063, 0, 0.00100963, 0.153269, -29.133, -83.1398, 0.0421111, -17.7013, -42.5297, 0.000579205, 1.62467E-06, -0.00118728, 0.000304537, 0.000304537, 0.000304537
7599, 1,0.000412516, -0.000311498, 0.000208368, 0.627286, -19.611, 0.00162059, 2.63994, 99.4542, 0, 0.0010428, 0.00051432, 0.00102434, 0.864025, 32.0872, 0, 0.00104394, 0.00031098, 0.000611622, 0.417293, 19.2296, 0, 0.00104415, 0.22548, -26.2961, -70.191, 0.0484154, -17.5871, -40.1501, 0.000497413, -2.24934E-06, -0.00101571, 0.000291869, 0.000291869, 0.000291869
7600, 1,0.000363557, -0.000204887, 0.000137427, 0.873335, -12.9816, 0.0020799, 0.6318, 131.215, 0, 0.00107674, 0.000431973, 0.000857581, 1.14802, 26.813, 0, 0.00107856, 0.000295573, 0.000584555, 0.624564, 18.3734, 0, 0.00107871, 0.110055, -25.1237, -55.4254, 0.02767, -18.569, -36.5788, 0.00041755, -4.08271E-05, -0.000811548, 0.000283968, 0.000283968, 0.000283968
7601, 1,0.000474715, -0.000491008, 0.000327526, 0.149902, -30.8212, 0.000629188, 7.01627, 30.268, 0, 0.000974772, 0.000637155, 0.00126632, 0.228684, 39.5695, 0, 0.000974624, 0.000313212, 0.00061533, 0.134394, 19.1229, 0, 0.000974948, 0.0188641, -30.0823, -88.6452, 0.00962586, -16.6294, -40.7489, 0.000616954, -3.00401E-06, -0.00125616, 0.000294537, 0.000294537, 0.000294537
7602, 1,0.000422494, -0.000387004, 0.000258404, 0.411319, -24.3121, 0.00107182, 5.45448, 60.813, 0, 0.00100872, 0.000549608, 0.00109294, 0.56775, 34.2433, 0, 0.00100916, 0.000295894, 0.000580087, 0.299858, 18.1965, 0, 0.00100942, 0.169703, -27.416, -75.4836, 0.0359615, -16.5111, -38.1142, 0.000530624, -1.4504E-05, -0.00107179, 0.000275363, 0.000275363, 0.000275363
7603, 1,0.000371345, -0.000285253, 0.000191128, 0.687214, -17.9444, 0.0014992, 2.85952, 91.4402, 0, 0.00104269, 0.000464155, 0.00092497, 0.951715, 28.9484, 0, 0.00104375, 0.000278785, 0.000547472, 0.444271, 17.2167, 0, 0.00104394, 0.245505, -24.547, -62.5436, 0.0439328, -16.2865, -35.4076, 0.000448714, -1.78768E-05, -0.000900465, 0.000260354, 0.000260354, 0.000260354
7604, 1,0.000321053, -0.000181727, 0.000122221, 0.952417, -11.5083, 0.00194017, 0.600326, 122.374, 0, 0.00107666, 0.000381854, 0.000757152, 1.25917, 23.6372, 0, 0.00107839, 0.000260851, 0.000515034, 0.666854, 16.1945, 0, 0.00107852, 0.124192, -23.3594, -47.6763, 0.0293172, -17.1596, -31.4531, 0.000367935, -5.67634E-05, -0.000694475, 0.000249738, 0.000249738, 0.000249738
7605, 1,0.000435794, -0.000457131, 0.000304966, 0.118359, -28.6861, 0.000560691, 8.62931, 23.6958, 0, 0.000974589, 0.00058691, 0.00116592, 0.190867, 36.4152, 0, 0.000974388, 0.000285683, 0.000560213, 0.111363, 17.3857, 0, 0.000974689, 0.0301524, -28.2127, -81.0629, 0.0124514, -15.4475, -36.7222, 0.000567775, -1.6356E-05, -0.00114245, 0.000267503, 0.000267503, 0.000267503
7606, 1,0.000382721, -0.000357224, 0.000238677, 0.450816, -22.4273, 0.000972823, 6.16977, 53.5447, 0, 0.00100853, 0.000499764, 0.000993951, 0.621316, 31.1133, 0, 0.00100889, 0.000266205, 0.000520961, 0.318701, 16.3302, 0, 0.00100913, 0.196598, -25.5786, -67.958, 0.0398627, -15.2435, -33.787, 0.000482286, -2.82411E-05, -0.000958937, 0.000246429, 0.000246429, 0.000246429
7607, 1,0.000330302, -0.000259179, 0.000174076, 0.775661, -16.2852, 0.00137851, 3.10867, 83.4308, 0, 0.00104247, 0.000414147, 0.000826091, 1.07643, 25.8088, 0, 0.00104345, 0.00024669, 0.000483622, 0.492273, 15.2037, 0, 0.00104363, 0.274145, -22.6796, -55.021, 0.0469368, -14.9035, -30.7545, 0.000400215, -3.11928E-05, -0.000787717, 0.000229028, 0.000229028, 0.000229028
7608, 1,0.000278867, -0.000158884, 0.000107334, 1.06974, -10.0489, 0.00180139, 0.599136, 113.562, 0, 0.00107646, 0.000332325, 0.000657482, 1.42072, 20.4632, 0, 0.00107809, 0.000226306, 0.000445819, 0.735475, 14.0169, 0, 0.0010782, 0.142467, -21.4775, -40.0546, 0.0336286, -15.6634, -26.421, 0.000318463, -7.03956E-05, -0.000579879, 0.000215618, 0.000215618, 0.000215618
7609, 1,0.000397098, -0.000423308, 0.000282449, 0.095424, -26.5536, 0.000509507, 11.0612, 17.1095, 0, 0.000974499, 0.000536915, 0.00106594, 0.163547, 33.2688, 0, 0.000974243, 0.000258366, 0.000505449, 0.0942857, 15.6558, 0, 0.000974522, 0.0429692, -26.2392, -73.6102, 0.0155779, -14.204, -32.7788, 0.000518757, -2.7473E-05, -0.00103127, 0.000240591, 0.000240591, 0.000240591
7610, 1,0.000343069, -0.000327522, 0.000219051, 0.505854, -20.5455, 0.000877775, 7.07914, 46.2618, 0, 0.00100841, 0.000450055, 0.000895312, 0.695579, 27.9846, 0, 0.00100871, 0.000236633, 0.000462107, 0.349465, 14.4658, 0, 0.00100893, 0.226622, -23.6324, -60.5481, 0.046448, -13.906, -29.5377, 0.000434047, -3.97829E-05, -0.000848397, 0.000217596, 0.000217596, 0.000217596
7611, 1,0.000289358, -0.000233306, 0.000157237, 0.894002, -14.6345, 0.00125881, 3.40601, 75.4182, 0, 0.00104238, 0.000364293, 0.000727717, 1.24079, 22.6689, 0, 0.00104327, 0.000214674, 0.000420047, 0.561648, 13.1909, 0, 0.00104343, 0.306628, -20.7083, -47.6051, 0.053327, -13.4483, -26.1776, 0.000351813, -4.24823E-05, -0.000677087, 0.0001978, 0.0001978, 0.0001978
7612, 1,0.00023713, -0.000136478, 9.28869E-05, 1.23936, -8.60876, 0.001663, 0.611819, 104.76, 0, 0.00107632, 0.000283743, 0.000558878, 1.65177, 17.2915, 0, 0.00107785, 0.000191963, 0.000376955, 0.839899, 11.8415, 0, 0.00107794, 0.16282, -19.4924, -32.5449, 0.0386635, -14.0912, -21.472, 0.00026909, -8.20152E-05, -0.000467433, 0.00018157, 0.00018157, 0.00018157
7613, 1,0.000358626, -0.000389527, 0.000259966, 0.0858308, -24.4232, 0.000488429, 14.9124, 10.5192, 0, 0.000974323, 0.000487161, 0.000966341, 0.14931, 30.1298, 0, 0.000974013, 0.00023128, 0.000451048, 0.0849398, 13.9324, 0, 0.000974269, 0.0568631, -24.1753, -66.2711, 0.0188526, -12.9077, -28.9085, 0.000469877, -3.66311E-05, -0.000922305, 0.000213789, 0.000213789, 0.000213789
7614, 1,0.000303527, -0.000297915, 0.000199542, 0.577918, -18.6674, 0.000788766, 8.27652, 38.9686, 0, 0.00100823, 0.000400467, 0.000797044, 0.792649, 24.8569, 0, 0.00100846, 0.000207176, 0.00040355, 0.393292, 12.6034, 0, 0.00100866, 0.257909, -21.5902, -53.2384, 0.0537386, -12.508, -25.356, 0.000385859, -4.93843E-05, -0.000739866, 0.000188822, 0.000188822, 0.000188822
7615, 1,0.00024853, -0.000207701, 0.000140677, 1.05265, -12.9955, 0.00114054, 3.77545, 67.3966, 0, 0.00104217, 0.000315227, 0.000630297, 1.45845, 19.5281, 0, 0.00104298, 0.000182735, 0.000356803, 0.659749, 11.1783, 0, 0.00104312, 0.340639, -18.6439, -40.2811, 0.0607009, -11.9291, -21.6666, 0.000303443, -5.19616E-05, -0.000568284, 0.000166614, 0.000166614, 0.000166614
7616, 1,0.000196217, -0.000114716, 7.90881E-05, 1.48806, -7.19687, 0.00152494, 0.640845, 95.9557, 0, 0.00107611, 0.000236851, 0.000461968, 1.98775, 14.1216, 0, 0.00107754, 0.000157914, 0.000308567, 0.998768, 9.66795, 0, 0.00107761, 0.18404, -17.417, -25.1318, 0.04386, -12.4526, -16.5951, 0.000219778, -9.18798E-05, -0.000356831, 0.000147574, 0.000147574, 0.000147574
7617, 1,0.000320393, -0.000355792, 0.000237523, 0.0915432, -22.2948, 0.000517487, 21.1449, 3.92879, 0, 0.000974189, 0.000437661, 0.000867142, 0.150835, 26.9974, 0, 0.000973825, 0.000204454, 0.00039704, 0.0846549, 12.2153, 0, 0.000974058, 0.0717844, -22.0333, -59.0308, 0.0221279, -11.5664, -25.1017, 0.000421122, -4.40849E-05, -0.000815276, 0.000187082, 0.000187082, 0.000187082
7618, 1,0.000264093, -0.000268427, 0.000180173, 0.671157, -16.7942, 0.000708986, 9.90867, 31.6677, 0, 0.00100808, 0.000350997, 0.000699217, 0.917372, 21.7304, 0, 0.00100824, 0.000177846, 0.000345353, 0.453767, 10.7433, 0, 0.00100842, 0.289229, -19.4655, -46.0148, 0.0609381, -11.0585, -21.2323, 0.000337696, -5.73083E-05, -0.000633056, 0.000160088, 0.000160088, 0.000160088
7619, 1,0.000207897, -0.00018246, 0.00012449, 1.26985, -11.3725, 0.00102431, 4.24462, 59.3663, 0, 0.00104201, 0.000270935, 0.00053605, 1.75191, 16.3865, 0, 0.00104274, 0.00015085, 0.000294006, 0.800731, 9.16616, 0, 0.00104286, 0.374736, -16.5002, -33.0341, 0.0681512, -10.3555, -17.2112, 0.000255071, -5.99004E-05, -0.000461008, 0.000135448, 0.000135448, 0.000135448
7620, 1,0.000157031, -9.3981E-05, 6.63233E-05, 1.87001, -5.82995, 0.00138708, 0.683223, 87.1447, 0, 0.00107593, 0.000193007, 0.000367981, 2.4995, 10.9518, 0, 0.00107726, 0.000124389, 0.000240951, 1.25016, 7.4952, 0, 0.00107732, 0.206505, -15.2626, -17.7993, 0.0492783, -10.7564, -11.7785, 0.000170506, -0.000100238, -0.00024778, 0.000113609, 0.000113609, 0.000113609
7621, 1,0.00028242, -0.000322105, 0.000215121, 0.106648, -20.1688, 0.000616916, 30.7454, -2.66061, 0, 0.000974092, 0.000388429, 0.000768355, 0.16524, 23.8713, 0, 0.000973672, 0.000177941, 0.000343476, 0.0924197, 10.5039, 0, 0.000973884, 0.0874729, -19.826, -51.8754, 0.0254341, -10.1881, -21.3491, 0.000372477, -5.0092E-05, -0.000709906, 0.000160464, 0.000160464, 0.000160464
7622, 1,0.000224794, -0.000239101, 0.000160981, 0.795447, -14.9279, 0.000643751, 12.2247, 24.3583, 0, 0.00100797, 0.000301758, 0.000602014, 1.08122, 18.6038, 0, 0.00100807, 0.000148692, 0.000287655, 0.539714, 8.88464, 0, 0.00100823, 0.320681, -17.2697, -38.8625, 0.06818, -9.56514, -17.157, 0.000289539, -6.37956E-05, -0.000527689, 0.000131381, 0.000131381, 0.000131381
7623, 1,0.000170136, -0.000157748, 0.00010884, 1.58354, -9.77291, 0.00091099, 4.85588, 51.3246, 0, 0.00104188, 0.000229839, 0.000444646, 2.16659, 13.2427, 0, 0.00104252, 0.000119013, 0.000231936, 1.01569, 7.15346, 0, 0.00104262, 0.409186, -14.2881, -25.8491, 0.0758699, -8.7356, -12.8007, 0.000206678, -6.6533E-05, -0.00035498, 0.000104288, 0.000104288, 0.000104288
7624, 1,0.000121737, -7.49714E-05, 5.52914E-05, 2.49828, -4.53885, 0.0012495, 0.742536, 78.3269, 0, 0.00107578, 0.000154919, 0.000279571, 3.33105, 7.78138, 0, 0.00107701, 9.22331E-05, 0.000175019, 1.67661, 5.32269, 0, 0.00107705, 0.22948, -13.0421, -10.5315, 0.054704, -9.01229, -7.01049, 0.000121242, -0.000107351, -0.000139972, 7.96605E-05, 7.96605E-05, 7.96605E-05
7625, 1,0.000244769, -0.00028847, 0.000192768, 0.129401, -18.0451, 0.000788468, 43.7997, -9.2483, 0, 0.000973943, 0.00033952, 0.000670028, 0.191132, 20.7499, 0, 0.000973469, 0.000151857, 0.000290474, 0.108425, 8.79731, 0, 0.000973658, 0.104318, -17.5646, -44.7894, 0.0289765, -8.78001, -17.6409, 0.000323927, -5.4897E-05, -0.00060591, 0.000133921, 0.000133921, 0.000133921
7626, 1,0.000185839, -0.000210004, 0.000142035, 0.968712, -13.0713, 0.000602223, 15.6542, 17.041, 0, 0.00100781, 0.000255557, 0.000507071, 1.30441, 15.4764, 0, 0.00100784, 0.000119882, 0.000230781, 0.668459, 7.02682, 0, 0.00100798, 0.35238, -15.0153, -31.7664, 0.0756193, -8.03629, -13.1198, 0.000241372, -6.91061E-05, -0.000423474, 0.000102693, 0.000102693, 0.000102693
7627, 1,0.000138978, -0.00013383, 9.39965E-05, 2.06845, -8.20915, 0.000802021, 5.6758, 43.2716, 0, 0.00104169, 0.000193133, 0.000357597, 2.78763, 10.0957, 0, 0.00104225, 8.72051E-05, 0.000171275, 1.37181, 5.13967, 0, 0.00104233, 0.443457, -12.0203, -18.7104, 0.0837075, -7.07848, -8.42425, 0.000158236, -7.21234E-05, -0.000249895, 7.31184E-05, 7.31184E-05, 7.31184E-05
7628, 1,9.58234E-05, -5.89081E-05, 4.72174E-05, 3.63743, -3.37857, 0.00111223, 0.819262, 69.5027, 0, 0.00107555, 0.000129511, 0.000203669, 4.80521, 4.60851, 0, 0.00107669, 6.49767E-05, 0.00011418, 2.48376, 3.1493, 0, 0.00107671, 0.253523, -10.7668, -3.31223, 0.0604349, -7.229, -2.27935, 7.19673E-05, -0.000113465, -3.31129E-05, 4.57129E-05, 4.57129E-05, 4.57129E-05
7629, 1,0.000207564, -0.000254898, 0.000170474, 0.161196, -15.9244, 0.00101333, 59.3879, -15.8337, 0, 0.000973853, 0.000291038, 0.000572272, 0.22897, 17.6329, 0, 0.000973324, 0.000126436, 0.000238276, 0.135063, 7.09511, 0, 0.00097349, 0.12195, -15.2623, -37.7584, 0.0326425, -7.35015, -13.9678, 0.000275458, -5.87668E-05, -0.000503001, 0.000107447, 0.000107447, 0.000107447
7630, 1,0.000150072, -0.000181251, 0.000123445, 1.22621, -11.2301, 0.00059957, 20.9144, 9.71576, 0, 0.0010077, 0.000214175, 0.000415742, 1.62462, 12.3478, 0, 0.00100766, 9.23114E-05, 0.000175733, 0.878375, 5.16946, 0, 0.00100778, 0.383707, -12.7147, -24.7124, 0.0830585, -6.48023, -9.11119, 0.000193176, -7.34935E-05, -0.000320134, 7.40106E-05, 7.40106E-05, 7.40106E-05
7631, 1,0.000115466, -0.000111165, 8.04185E-05, 2.8925, -6.7026, 0.000699915, 6.821, 35.207, 0, 0.00104156, 0.000164883, 0.000278971, 3.79474, 6.94476, 0, 0.00104203, 6.65372E-05, 0.000119577, 2.03863, 3.12407, 0, 0.0010421, 0.477578, -9.70883, -11.603, 0.0917681, -5.39275, -4.07123, 0.000109727, -7.69211E-05, -0.000145471, 4.19277E-05, 4.19277E-05, 4.19277E-05
7632, 1,9.59872E-05, -4.74586E-05, 4.37698E-05, 5.87713, -2.42891, 0.000975451, 0.923555, 60.6696, 0, 0.00107543, 0.000135351, 0.000158882, 7.58965, 1.43254, 0, 0.00107646, 5.78412E-05, 7.31587E-05, 4.1851, 0.974478, 0, 0.00107647, 0.277675, -8.44971, 3.87441, 0.0661056, -5.41626, 2.42672, 2.265E-05, -0.000118846, 7.31059E-05, 1.17478E-05, 1.17478E-05, 1.17478E-05
7633, 1,0.000171087, -0.000221416, 0.000148267, 0.207164, -13.8081, 0.00127061, 76.5021, -22.4172, 0, 0.000973688, 0.000243226, 0.000475332, 0.28329, 14.5204, 0, 0.000973104, 0.000102223, 0.000187436, 0.180169, 5.39709, 0, 0.000973248, 0.139743, -12.9316, -30.7695, 0.036197, -5.90627, -10.3212, 0.000227058, -6.1948E-05, -0.000400922, 8.10297E-05, 8.10297E-05, 8.10297E-05
7634, 1,0.000121413, -0.000153034, 0.000105406, 1.64745, -9.41336, 0.000656301, 28.9864, 2.38262, 0, 0.00100751, 0.00017729, 0.000328837, 2.12116, 9.21686, 0, 0.0010074, 7.08212E-05, 0.000126402, 1.27012, 3.31176, 0, 0.00100749, 0.414435, -10.3799, -17.6851, 0.0904597, -4.90481, -5.12094, 0.000144927, -7.7207E-05, -0.000217376, 4.53193E-05, 4.53193E-05, 4.53193E-05
7635, 1,0.000109285, -9.05234E-05, 6.88777E-05, 4.44866, -5.28943, 0.00060935, 8.50824, 27.1312, 0, 0.00104137, 0.000154451, 0.000218115, 5.57814, 3.78858, 0, 0.00104177, 6.76015E-05, 8.83791E-05, 3.4656, 1.10587, 0, 0.00104181, 0.511298, -7.36571, -4.51132, 0.0999957, -3.68701, 0.269405, 6.11263E-05, -8.11792E-05, -4.14108E-05, 1.07E-05, 1.07E-05, 1.07E-05
7636, 1,0.00015071, 5.03443E-05, 4.60154E-05, 10.0082, 2.56144, 0.000839375, 1.06407, 51.829, 0, 0.00107521, 0.000198666, 0.000171455, 12.5068, -1.74816, 0, 0.00107614, 0.000105283, 8.6267E-05, 7.55861, -1.20286, 0, 0.00107613, 0.302703, -6.10247, 11.0442, 0.0721481, -3.58296, 7.1194, -2.67217E-05, -0.000123745, 0.000178973, -2.22444E-05, -2.22444E-05, -2.22444E-05
7637, 1,0.000136, -0.000188054, 0.000126177, 0.280435, -11.6974, 0.00154659, 94.4891, -28.9993, 0, 0.000973599, 0.000196612, 0.000379709, 0.366389, 11.4108, 0, 0.00097296, 8.05984E-05, 0.000139321, 0.266795, 3.70227, 0, 0.000973082, 0.158074, -10.5835, -23.807, 0.0398293, -4.45546, -6.69117, 0.000178708, -6.46869E-05, -0.000299383, 5.46589E-05, 5.46589E-05, 5.46589E-05
7638, 1,0.000102784, -0.000125706, 8.82709E-05, 2.43698, -7.6376, 0.000787897, 40.6255, -4.95852, 0, 0.00100742, 0.000149377, 0.00025087, 2.9794, 6.08239, 0, 0.00100723, 6.57002E-05, 9.22254E-05, 2.15611, 1.45302, 0, 0.00100731, 0.444748, -8.02301, -10.6689, 0.0978663, -3.31822, -1.1387, 9.6608E-05, -8.0506E-05, -0.000114907, 1.66071E-05, 1.66071E-05, 1.66071E-05
7639, 1,0.000139357, -7.31114E-05, 6.05831E-05, 7.48255, -4.02729, 0.000539497, 11.166, 19.043, 0, 0.00104125, 0.000179632, 0.000192805, 8.8703, 0.626297, 0, 0.00104156, 0.000108809, 9.72918E-05, 6.43867, -0.915573, 0, 0.00104158, 0.544487, -5.00341, 2.58003, 0.108329, -1.9701, 4.60849, 1.24156E-05, -8.51559E-05, 6.25773E-05, -2.05777E-05, -2.05777E-05, -2.05777E-05
7640, 1,0.000249446, 6.56212E-05, 5.32569E-05, 15.9699, 3.63871, 0.00070453, 1.26532, 42.9799, 0, 0.00107507, 0.000310318, 0.000232252, 19.4856, -4.93428, 0, 0.00107591, 0.000192104, 0.000138486, 12.5353, -3.38324, 0, 0.00107588, 0.327571, -3.73798, 18.2133, 0.0780579, -1.73876, 11.8104, -7.61818E-05, -0.000128424, 0.000284797, -5.62842E-05, -5.62842E-05, -5.62842E-05
7641, 1,0.000104068, -0.000154882, 0.000104279, 0.416459, -9.59574, 0.00183364, 112.989, -35.5792, 0, 0.000973426, 0.000152504, 0.000286651, 0.508316, 8.30328, 0, 0.000972733, 6.56109E-05, 9.79411E-05, 0.482036, 2.01008, 0, 0.000972833, 0.17681, -8.23032, -16.8563, 0.0434674, -3.00529, -3.06843, 0.000130393, -6.72353E-05, -0.000198101, 2.83236E-05, 2.83236E-05, 2.83236E-05
7642, 1,0.000107406, -9.99313E-05, 7.27049E-05, 4.16061, -5.93489, 0.000990436, 55.6572, -12.3078, 0, 0.00100723, 0.000141634, 0.000193033, 4.67083, 2.9438, 0, 0.00100698, 9.26851E-05, 8.97284E-05, 4.38019, -0.407391, 0, 0.00100704, 0.474141, -5.65655, -3.649, 0.105109, -1.72848, 2.84555, 4.81994E-05, -8.36473E-05, -1.24376E-05, -1.21399E-05, -1.21399E-05, -1.21399E-05
7643, 1,0.00021309, -6.04038E-05, 5.7011E-05, 12.4676, -2.98817, 0.000508899, 15.6654, 10.9431, 0, 0.00104105, 0.000253495, 0.000216098, 14.3245, -2.54303, 0, 0.00104128, 0.000182713, 0.000138858, 11.0047, -2.94101, 0, 0.00104128, 0.576831, -2.63426, 9.68652, 0.116668, -0.250678, 8.95703, -3.64278E-05, -8.91083E-05, 0.000166788, -5.19205E-05, -5.19205E-05, -5.19205E-05
7644, 1,0.000364906, 8.42573E-05, 6.38371E-05, 22.9585, 4.88814, 0.000571847, 1.56917, 34.1226, 0, 0.00107486, 0.000443551, 0.000314515, 27.6821, -8.12728, 0, 0.0010756, 0.00028969, 0.000201308, 18.331, -5.56767, 0, 0.00107555, 0.352668, -1.36824, 25.3974, 0.0840932, 0.10736, 16.5116, -0.000125746, -0.000133138, 0.000390871, -9.03834E-05, -9.03834E-05, -9.03834E-05
7645, 1,8.07638E-05, -0.000122048, 8.2719E-05, 0.749724, -7.51029, 0.00212749, 131.803, -42.158, 0, 0.000973332, 0.000114496, 0.000199658, 0.801238, 5.19724, 0, 0.000972585, 6.92664E-05, 7.52191E-05, 1.38681, 0.319987, 0, 0.000972662, 0.195356, -5.88424, -9.90284, 0.0468735, -1.56321, 0.556374, 8.20916E-05, -6.9847E-05, -9.67945E-05, 2.01013E-06, 2.01013E-06, 2.01013E-06
7646, 1,0.00015428, -7.6983E-05, 5.99821E-05, 7.85643, -4.3669, 0.00124477, 73.1653, -19.6657, 0, 0.00100713, 0.000175263, 0.000176513, 8.21681, -0.199793, 0, 0.00100681, 0.000153035, 0.000120457, 8.41996, -2.27005, 0, 0.00100685, 0.502574, -3.29271, 3.38952, 0.112106, -0.143789, 6.84185, -3.15093E-07, -8.68851E-05, 9.03154E-05, -4.09338E-05, -4.09338E-05, -4.09338E-05
7647, 1,0.000313001, 6.48354E-05, 5.9072E-05, 18.8379, 3.3267, 0.000550393, 23.5732, 2.83076, 0, 0.00104093, 0.000364203, 0.000276133, 21.6077, -5.72045, 0, 0.00104108, 0.000269356, 0.000193105, 16.3862, -4.97112, 0, 0.00104106, 0.608001, -0.270356, 16.8237, 0.124775, 1.46255, 13.326, -8.54285E-05, -9.32891E-05, 0.000271516, -8.33456E-05, -8.33456E-05, -8.33456E-05
7648, 1,0.000486523, 0.000104903, 7.6404E-05, 30.4287, 6.24117, 0.000443561, 2.07669, 25.2566, 0, 0.00107472, 0.000585611, 0.000405479, 36.4802, -11.3281, 0, 0.00107536, 0.000390649, 0.000267382, 24.4803, -7.75684, 0, 0.0010753, 0.377566, 0.994221, 32.6125, 0.090018, 1.94597, 21.2345, -0.000175439, -0.000138146, 0.000497495, -0.000124559, -0.000124559, -0.000124559
7649, 1,8.47186E-05, -8.9907E-05, 6.18566E-05, 2.13615, -5.45878, 0.00242575, 150.817, -48.7337, 0, 0.000973185, 9.49562E-05, 0.000131028, 1.67479, 2.09178, 0, 0.000972383, 0.000107455, 8.69675E-05, 4.80342, -1.36861, 0, 0.000972437, 0.214026, -3.55708, -2.93228, 0.0501802, -0.136647, 4.19229, 3.37955E-05, -7.27702E-05, 4.80958E-06, -2.42881E-05, -2.42881E-05, -2.42881E-05
7650, 1,0.000238754, -5.90294E-05, 5.22723E-05, 13.5722, -3.03971, 0.00153184, 92.2352, -27.0317, 0, 0.00100693, 0.000260362, 0.000211396, 14.349, -3.34941, 0, 0.00100655, 0.000229225, 0.000166946, 13.3885, -4.13571, 0, 0.00100656, 0.529763, -0.94358, 10.462, 0.118751, 1.42796, 10.8604, -4.89575E-05, -9.04735E-05, 0.000193645, -6.97885E-05, -6.97885E-05, -6.97885E-05
7651, 1,0.000424382, 8.12306E-05, 6.62883E-05, 25.8879, 4.53311, 0.000696241, 36.4636, -5.2941, 0, 0.00104072, 0.000493755, 0.000354897, 29.9188, -8.90702, 0, 0.00104078, 0.000360768, 0.000252053, 22.1081, -7.00673, 0, 0.00104075, 0.638045, 2.0761, 24.0069, 0.132735, 3.16104, 17.7264, -0.000134603, -9.79542E-05, 0.00037705, -0.000114865, -0.000114865, -0.000114865
7652, 1,0.000610974, 0.000126756, 9.01535E-05, 38.1425, 7.65649, 0.000325943, 3.07164, 16.3808, 0, 0.00107449, 0.000731899, 0.000500532, 45.5917, -14.5378, 0, 0.00107503, 0.0004931, 0.000334841, 30.8012, -9.95152, 0, 0.00107495, 0.401818, 3.33725, 39.8743, 0.0956272, 3.76798, 25.9909, -0.000225287, -0.0001437, 0.000604963, -0.000158827, -0.000158827, -0.000158827
7653, 1,0.000143182, -5.95006E-05, 4.27326E-05, 7.07916, -3.49413, 0.00272693, 169.965, -55.3084, 0, 0.000973107, 0.000131321, 0.000118184, 5.48493, -1.01371, 0, 0.00097225, 0.00017053, 0.000123504, 9.52259, -3.05627, 0, 0.000972282, 0.231933, -1.26036, 4.06954, 0.0529615, 1.26746, 7.84838, -1.4523E-05, -7.62424E-05, 0.000106986, -5.05887E-05, -5.05887E-05, -5.05887E-05
7654, 1,0.000341319, 5.54266E-05, 5.19205E-05, 20.2767, 2.80447, 0.00183894, 112.261, -34.4073, 0, 0.00100686, 0.000378456, 0.00027919, 22.229, -6.50568, 0, 0.00100641, 0.000311479, 0.000219435, 18.6852, -6.0049, 0, 0.0010064, 0.555418, 1.37844, 17.5832, 0.124894, 2.97863, 14.9112, -9.77442E-05, -9.46673E-05, 0.000297832, -9.8716E-05, -9.8716E-05, -9.8716E-05
7655, 1,0.000541088, 0.000101419, 7.7273E-05, 33.2663, 5.92402, 0.000939787, 54.0395, -13.4321, 0, 0.00104062, 0.000632453, 0.000442671, 38.7508, -12.1037, 0, 0.0010406, 0.000454406, 0.000313144, 27.9918, -9.04853, 0, 0.00104055, 0.666711, 4.39277, 31.2516, 0.140405, 4.83599, 22.1692, -0.000183971, -0.00010336, 0.000483684, -0.000146492, -0.000146492, -0.000146492
7656, 1,0.000737037, 0.000149377, 0.000104643, 45.998, 9.11158, 0.00024304, 5.6506, 7.49625, 0, 0.00107435, 0.000880601, 0.000597845, 54.8879, -17.7576, 0, 0.0010748, 0.000596418, 0.000403057, 37.2207, -12.1526, 0, 0.0010747, 0.425723, 5.64844, 47.1987, 0.101079, 5.56406, 30.7927, -0.000275305, -0.000150062, 0.000713574, -0.000193201, -0.000193201, -0.000193201
7657, 1,0.000237116, -3.45209E-05, 2.90407E-05, 13.7804, -1.80784, 0.00303021, 189.209, -61.8827, 0, 0.000972915, 0.000236143, 0.000173703, 13.3504, -4.1204, 0, 0.000972003, 0.000243014, 0.00016936, 14.4568, -4.74388, 0, 0.000972013, 0.249712, 0.994641, 11.1169, 0.0556324, 2.64208, 11.5339, -6.28689E-05, -8.05058E-05, 0.000210001, -7.68966E-05, -7.68966E-05, -7.68966E-05
7658, 1,0.000451559, 7.29067E-05, 5.91157E-05, 27.38, 4.12819, 0.00215857, 132.883, -41.7916, 0, 0.00100666, 0.000511668, 0.000362002, 30.8923, -9.66991, 0, 0.00100613, 0.000396434, 0.000274557, 24.1187, -7.87852, 0, 0.0010061, 0.579596, 3.66211, 24.768, 0.13056, 4.5008, 19.0042, -0.000146695, -9.97077E-05, 0.00040316, -0.00012773, -0.00012773, -0.00012773
7659, 1,0.000660677, 0.000124087, 9.07088E-05, 40.8246, 7.43526, 0.001245, 74.564, -21.5835, 0, 0.0010404, 0.000776062, 0.000535205, 47.8674, -15.3114, 0, 0.0010403, 0.000549322, 0.000375421, 33.9677, -11.0972, 0, 0.00104023, 0.693605, 6.66765, 38.5731, 0.147555, 6.47888, 26.6652, -0.000233556, -0.000109757, 0.000591705, -0.000178243, -0.000178243, -0.000178243
7660, 1,0.000864189, 0.000172523, 0.000119629, 53.9482, 10.5941, 0.000299843, 14.795, -1.39914, 0, 0.00107413, 0.00103091, 0.000696596, 64.3073, -20.9888, 0, 0.00107447, 0.000700351, 0.000471774, 43.7062, -14.361, 0, 0.00107435, 0.448788, 7.91599, 54.6017, 0.106184, 7.32538, 35.6515, -0.000325522, -0.000157479, 0.000823623, -0.000227697, -0.000227697, -0.000227697
7661, 1,0.000342522, 3.54791E-05, 2.96635E-05, 20.785, 2.0144, 0.0033349, 208.515, -68.4549, 0, 0.000972824, 0.000368226, 0.000256405, 22.2512, -7.22868, 0, 0.000971858, 0.000319047, 0.00021869, 19.4482, -6.43166, 0, 0.000971845, 0.266396, 3.19614, 18.2235, 0.0575898, 3.97985, 15.2575, -0.000111268, -8.57984E-05, 0.000314125, -0.000103228, -0.000103228, -0.000103228
7662, 1,0.000565507, 9.57686E-05, 7.16701E-05, 34.6691, 5.70656, 0.00248639, 153.899, -49.1848, 0, 0.00100657, 0.000651973, 0.000451796, 39.9111, -12.8424, 0, 0.00100598, 0.000482845, 0.000331064, 29.6244, -9.75685, 0, 0.00100593, 0.601787, 5.89459, 32.0308, 0.13544, 5.986, 23.1491, -0.000195824, -0.000105853, 0.000509905, -0.000156842, -0.000156842, -0.000156842
7663, 1,0.000782078, 0.000148342, 0.000105703, 48.4966, 9.02367, 0.00158327, 96.6627, -29.7486, 0, 0.00104028, 0.000922663, 0.000630565, 57.1594, -18.5312, 0, 0.00104009, 0.000645111, 0.000438466, 40.0057, -13.1535, 0, 0.00104, 0.718552, 8.88877, 45.9862, 0.154076, 8.08125, 31.2251, -0.000283378, -0.000117393, 0.000701396, -0.000210132, -0.000210132, -0.000210132
7664, 1,0.000992181, 0.000196054, 0.000134967, 61.9687, 12.0967, 0.000590911, 35.2299, -10.3045, 0, 0.00107399, 0.00118242, 0.000796372, 73.8179, -24.2316, 0, 0.00107423, 0.000804792, 0.000540878, 50.2416, -16.5769, 0, 0.00107409, 0.470282, 10.1266, 62.0978, 0.110443, 9.04197, 40.5784, -0.000375957, -0.000166214, 0.000935396, -0.000262331, -0.000262331, -0.000262331
7665, 1,0.000451964, 6.11437E-05, 4.4025E-05, 27.8748, 3.79457, 0.00364062, 227.867, -75.0245, 0, 0.000972672, 0.000508637, 0.000347379, 31.3808, -10.3394, 0, 0.000971651, 0.000396684, 0.00026957, 24.4627, -8.12027, 0, 0.000971616, 0.282279, 5.33354, 25.4024, 0.0590767, 5.27425, 19.0275, -0.000159728, -9.23436E-05, 0.000419602, -0.000129587, -0.000129587, -0.000129587
7666, 1,0.000681557, 0.000121778, 8.73473E-05, 42.0631, 7.4324, 0.00281979, 175.184, -56.5878, 0, 0.00100638, 0.000796083, 0.000545271, 49.1188, -16.0245, 0, 0.00100572, 0.000570179, 0.000388416, 35.1765, -11.6409, 0, 0.00100565, 0.622181, 8.06523, 39.386, 0.139676, 7.4272, 27.3557, -0.000245148, -0.000113332, 0.000618336, -0.000186062, -0.000186062, -0.000186062
7667, 1,0.000904772, 0.000173649, 0.000121718, 56.2503, 10.6635, 0.00193948, 119.615, -37.9277, 0, 0.00104007, 0.00107132, 0.000727795, 66.573, -21.7639, 0, 0.0010398, 0.000741582, 0.000502076, 46.0915, -15.2181, 0, 0.00103969, 0.741446, 11.0444, 53.5058, 0.159903, 9.63469, 35.8597, -0.000333453, -0.000126513, 0.000813037, -0.000242172, -0.000242172, -0.000242172
7668, 1,0.00112088, 0.000219882, 0.000150571, 70.0467, 13.6153, 0.000974495, 60.0606, -19.2207, 0, 0.00107377, 0.00133491, 0.000896944, 83.402, -27.4871, 0, 0.00107391, 0.00090968, 0.000610306, 56.8182, -18.8012, 0, 0.00107376, 0.490535, 12.2692, 69.7016, 0.114114, 10.7055, 45.5841, -0.000426622, -0.000176498, 0.00104916, -0.000297109, -0.000297109, -0.000297109
7669, 1,0.00056323, 9.1845E-05, 6.34137E-05, 35.0024, 5.79227, 0.00394712, 247.254, -81.5948, 0, 0.000972581, 0.000652329, 0.000441575, 40.5946, -13.4535, 0, 0.000971506, 0.000475196, 0.000321272, 29.4907, -9.8105, 0, 0.000971449, 0.296966, 7.39618, 32.6675, 0.0599152, 6.51876, 22.8528, -0.000208271, -0.000100367, 0.000526697, -0.00015599, -0.00015599, -0.00015599
7670, 1,0.000798991, 0.000149585, 0.000104797, 49.5275, 9.2424, 0.00315724, 196.665, -64, 0, 0.00100626, 0.000942551, 0.000640962, 58.4444, -19.2166, 0, 0.00100553, 0.000658194, 0.00044636, 40.7642, -13.5309, 0, 0.00100544, 0.640381, 10.1614, 46.848, 0.143047, 8.81603, 31.6337, -0.000294684, -0.000122403, 0.000728733, -0.000215403, -0.000215403, -0.000215403
7671, 1,0.00102849, 0.000199691, 0.000138434, 64.0693, 12.3396, 0.00230613, 143.068, -46.1214, 0, 0.00103995, 0.00122153, 0.000826385, 76.0804, -25.0107, 0, 0.00103959, 0.000838643, 0.00056615, 52.2182, -17.2918, 0, 0.00103946, 0.762615, 13.1226, 61.147, 0.165289, 11.1308, 40.5795, -0.000383792, -0.000137367, 0.000926905, -0.000274369, -0.000274369, -0.000274369
7672, 1,0.00125026, 0.000243964, 0.000166392, 78.1777, 15.1478, 0.00138154, 85.9837, -28.1485, 0, 0.00107362, 0.00148833, 0.000998221, 93.0534, -30.7574, 0, 0.00107367, 0.00101503, 0.000680054, 63.4341, -21.0353, 0, 0.0010735, 0.509504, 14.3324, 77.4303, 0.117228, 12.3074, 50.6814, -0.000477548, -0.000188584, 0.00116522, -0.000332055, -0.000332055, -0.000332055
7673, 1,0.000675488, 0.000124208, 8.44552E-05, 42.1521, 7.86228, 0.00425416, 266.662, -88.1623, 0, 0.00097242, 0.000797647, 0.000537345, 49.8513, -16.5715, 0, 0.000971291, 0.000554247, 0.000373469, 34.5283, -11.5026, 0, 0.000971211, 0.310427, 9.3727, 40.0312, 0.0601046, 7.70618, 26.7414, -0.000256903, -0.000110098, 0.00063565, -0.00018244, -0.00018244, -0.00018244
7674, 1,0.000917445, 0.00017848, 0.000123305, 57.0459, 11.1037, 0.00349767, 218.295, -71.4235, 0, 0.00100608, 0.00109066, 0.000738137, 67.8546, -22.4205, 0, 0.00100528, 0.000746763, 0.00050476, 46.3824, -15.4283, 0, 0.00100517, 0.6567, 12.1733, 54.4314, 0.145782, 10.146, 35.993, -0.000344449, -0.00013328, 0.000841357, -0.000244876, -0.000244876, -0.000244876
7675, 1,0.00115309, 0.000226276, 0.000155656, 71.9443, 14.0428, 0.00267935, 166.839, -54.329, 0, 0.00103976, 0.00137302, 0.000926046, 85.6653, -28.272, 0, 0.00103932, 0.000936246, 0.00063063, 58.3819, -19.375, 0, 0.00103917, 0.781279, 15.1117, 68.9231, 0.169746, 12.561, 45.3943, -0.000434417, -0.00015019, 0.00104326, -0.000306739, -0.000306739, -0.000306739
7676, 1,0.00138029, 0.000268265, 0.000182396, 86.3577, 16.6923, 0.00179696, 112.299, -37.0882, 0, 0.0010734, 0.00164259, 0.00110013, 102.766, -34.0428, 0, 0.00107335, 0.00112084, 0.000750116, 70.0868, -23.2795, 0, 0.00107316, 0.526581, 16.304, 85.298, 0.119436, 13.8383, 55.8808, -0.000528755, -0.000202713, 0.00128385, -0.000367179, -0.000367179, -0.000367179
7677, 1,0.000788383, 0.000157276, 0.000106191, 49.3184, 9.96354, 0.00456152, 286.083, -94.7264, 0, 0.000972328, 0.000943938, 0.00063403, 59.1363, -19.6937, 0, 0.000971145, 0.000633682, 0.000426002, 39.5745, -13.197, 0, 0.000971043, 0.322116, 11.2528, 47.5063, 0.0593512, 8.83011, 30.7014, -0.000305644, -0.000121749, 0.000746704, -0.000208949, -0.000208949, -0.000208949
7678, 1,0.00103673, 0.000208086, 0.000142496, 64.6093, 12.999, 0.00384039, 240.037, -78.8542, 0, 0.00100598, 0.00124003, 0.000836416, 77.3317, -25.6356, 0, 0.00100511, 0.000835824, 0.00056355, 52.0283, -17.3326, 0, 0.00100497, 0.67038, 14.0881, 62.1484, 0.147402, 11.4084, 40.4418, -0.000394453, -0.000146212, 0.000956459, -0.000274488, -0.000274488, -0.000274488
7679, 1,0.00127851, 0.000253287, 0.000173268, 79.8724, 15.7678, 0.00305707, 190.831, -62.553, 0, 0.00103961, 0.00152566, 0.00102662, 95.3212, -31.5498, 0, 0.00103908, 0.00103439, 0.000695503, 64.5824, -21.469, 0, 0.00103891, 0.79779, 17.001, 76.8505, 0.173563, 13.9178, 50.3157, -0.00048535, -0.000165217, 0.0011624, -0.000339296, -0.000339296, -0.000339296
7680, 1,0.00151096, 0.000292765, 0.000198559, 94.5849, 18.248, 0.00221635, 138.806, -46.0416, 0, 0.00107324, 0.00179769, 0.00120264, 112.537, -37.3444, 0, 0.00107309, 0.00122712, 0.000820486, 76.7753, -25.5345, 0, 0.00107288, 0.541358, 18.1731, 93.3187, 0.120521, 15.29, 61.193, -0.000580266, -0.000219109, 0.00140532, -0.000402497, -0.000402497, -0.000402497
7681, 1,0.00090173, 0.000190711, 0.000128284, 56.4991, 12.0815, 0.00486907, 305.51, -101.289, 0, 0.00097218, 0.00109088, 0.00073132, 68.4435, -22.8216, 0, 0.000970943, 0.000713409, 0.000478787, 44.6294, -14.8946, 0, 0.000970818, 0.332673, 13.0274, 55.1046, 0.0581959, 9.88499, 34.7405, -0.0003545, -0.000135514, 0.000860078, -0.000235522, -0.000235522, -0.000235522
7682, 1,0.00115674, 0.000238194, 0.000162159, 72.2147, 14.9189, 0.00418492, 261.873, -86.2969, 0, 0.00100578, 0.00139045, 0.000935573, 86.8675, -28.8646, 0, 0.00100484, 0.000925345, 0.000622687, 57.7018, -19.2456, 0, 0.00100469, 0.682357, 15.8971, 70.0142, 0.148639, 12.5975, 44.9906, -0.000444714, -0.000161404, 0.0010743, -0.000304249, -0.000304249, -0.000304249
7683, 1,0.00140471, 0.00028065, 0.00019119, 87.8506, 17.511, 0.00343802, 214.987, -70.7929, 0, 0.0010394, 0.00167934, 0.00112801, 105.043, -34.8443, 0, 0.00103879, 0.00113307, 0.000760749, 70.8189, -23.5742, 0, 0.0010386, 0.811644, 18.7787, 84.9425, 0.176452, 15.1926, 55.3535, -0.000536606, -0.000182685, 0.00128457, -0.000372051, -0.000372051, -0.000372051
7684, 1,0.00164229, 0.000317453, 0.00021487, 102.86, 19.8143, 0.00263811, 165.431, -55.008, 0, 0.001073, 0.00195362, 0.00130575, 122.366, -40.6631, 0, 0.00107275, 0.00133388, 0.000891191, 83.5006, -27.8011, 0, 0.00107253, 0.554197, 19.9277, 101.507, 0.120764, 16.6535, 66.629, -0.000632088, -0.000238022, 0.00152989, -0.000438014, -0.000438014, -0.000438014
7685, 1,0.00101546, 0.000224375, 0.000150595, 63.6934, 14.21, 0.00517663, 324.93, -107.843, 0, 0.000972095, 0.00123835, 0.000829071, 77.7703, -25.954, 0, 0.000970804, 0.000793399, 0.000531787, 49.6931, -16.5949, 0, 0.000970657, 0.340177, 14.6847, 62.8372, 0.0554167, 10.8633, 38.8658, -0.000403496, -0.000151614, 0.000976003, -0.000262173, -0.000262173, -0.000262173
7686, 1,0.00127745, 0.000268689, 0.000182175, 79.8598, 16.8578, 0.00453095, 283.783, -93.7457, 0, 0.00100571, 0.00154183, 0.0010355, 96.457, -32.1059, 0, 0.0010047, 0.00101533, 0.000682165, 63.403, -21.1666, 0, 0.00100452, 0.69034, 17.5866, 78.0408, 0.147991, 13.7043, 49.6475, -0.000495259, -0.000179105, 0.00119514, -0.000334179, -0.000334179, -0.000334179
7687, 1,0.00153165, 0.00030831, 0.00020937, 95.8763, 19.2698, 0.00382142, 239.266, -79.0462, 0, 0.00103931, 0.00183401, 0.00123014, 114.825, -38.1556, 0, 0.00103862, 0.00123227, 0.000826362, 77.0904, -25.6904, 0, 0.00103841, 0.822581, 20.4338, 93.2103, 0.178212, 16.3773, 60.5157, -0.000588191, -0.000202809, 0.00141001, -0.000405005, -0.000405005, -0.000405005
7688, 1,0.00177428, 0.000342316, 0.000231315, 111.18, 21.3905, 0.00306144, 192.138, -63.9879, 0, 0.00107287, 0.00211037, 0.00140945, 132.252, -43.999, 0, 0.00107252, 0.00144114, 0.000962227, 90.2616, -30.0792, 0, 0.00107228, 0.564013, 21.5574, 109.875, 0.119535, 17.9205, 72.1975, -0.000684244, -0.000259649, 0.00165779, -0.000473744, -0.000473744, -0.000473744
7689, 1,0.00112951, 0.000258197, 0.000173055, 70.9025, 16.346, 0.00548399, 344.334, -114.389, 0, 0.00097194, 0.00138625, 0.000927191, 87.1168, -29.0936, 0, 0.000970596, 0.000873624, 0.000584971, 54.7673, -18.2996, 0, 0.000970426, 0.346066, 16.2182, 70.7167, 0.0521639, 11.7612, 43.0855, -0.000452639, -0.000170213, 0.00109469, -0.000288908, -0.000288908, -0.000288908
7690, 1,0.00139878, 0.000299488, 0.000202464, 87.5431, 18.8122, 0.00487806, 305.749, -101.201, 0, 0.00100552, 0.00169407, 0.00113609, 106.097, -35.3618, 0, 0.00100445, 0.00110576, 0.000741965, 69.1315, -23.0968, 0, 0.00100425, 0.695978, 19.1495, 86.24, 0.146448, 14.7235, 54.4205, -0.000546085, -0.000199485, 0.00131917, -0.000364276, -0.000364276, -0.000364276
7691, 1,0.00165934, 0.000336239, 0.000227775, 103.951, 21.043, 0.00420687, 263.654, -87.3167, 0, 0.00103909, 0.00198965, 0.00133298, 124.67, -41.4854, 0, 0.00103832, 0.00133202, 0.000892354, 83.3991, -27.8191, 0, 0.00103809, 0.830659, 21.9577, 101.668, 0.178985, 17.4657, 65.8126, -0.00064013, -0.00022578, 0.00153894, -0.000438179, -0.000438179, -0.000438179
7692, 1,0.00190695, 0.000367355, 0.000247894, 119.549, 22.9769, 0.00348613, 218.921, -72.9853, 0, 0.00107263, 0.00226798, 0.00151376, 142.196, -47.3539, 0, 0.00107218, 0.00154892, 0.00103363, 97.0607, -32.3702, 0, 0.00107192, 0.571394, 23.0531, 118.437, 0.117228, 19.0841, 77.9093, -0.000736753, -0.000284194, 0.00178927, -0.000509698, -0.000509698, -0.000509698
7693, 1,0.00124391, 0.000292151, 0.000195631, 78.1283, 18.4885, 0.00579079, 363.701, -120.922, 0, 0.000971873, 0.0015346, 0.00102568, 96.4849, -32.2399, 0, 0.000970476, 0.000954112, 0.000638361, 59.8536, -20.0082, 0, 0.000970283, 0.348643, 17.6166, 78.7543, 0.0469181, 12.5713, 47.4065, -0.000501959, -0.000191523, 0.00121637, -0.000315746, -0.000315746, -0.000315746
7694, 1,0.00152079, 0.000330557, 0.000222986, 95.2683, 20.7806, 0.00522612, 327.76, -108.659, 0, 0.00100544, 0.0018472, 0.00123735, 115.79, -38.6338, 0, 0.00100429, 0.00119668, 0.000802114, 74.8915, -25.0378, 0, 0.00100407, 0.699134, 20.5752, 94.6272, 0.144328, 15.6485, 59.3205, -0.000597219, -0.000222774, 0.00144669, -0.000394556, -0.000394556, -0.000394556
7695, 1,0.00178782, 0.000364419, 0.000246386, 112.078, 22.8299, 0.00459426, 288.148, -95.6089, 0, 0.00103895, 0.00214629, 0.00143655, 134.578, -44.8354, 0, 0.00103809, 0.00143237, 0.000958758, 89.7472, -29.9612, 0, 0.00103784, 0.835839, 23.3401, 110.33, 0.178513, 18.4502, 71.2547, -0.000692449, -0.000251821, 0.00167165, -0.000471591, -0.000471591, -0.000471591
7696, 1,0.00204035, 0.00039257, 0.000264604, 127.969, 24.5735, 0.0039123, 245.791, -82.0075, 0, 0.00107244, 0.00242648, 0.00161871, 152.201, -50.7293, 0, 0.0010719, 0.00165726, 0.00110542, 103.899, -34.6752, 0, 0.00107162, 0.576382, 24.4048, 127.207, 0.114152, 20.1364, 83.7749, -0.000789632, -0.000311871, 0.00192459, -0.000545886, -0.000545886, -0.000545886
7697, 1,0.0013586, 0.000326213, 0.000218303, 85.3722, 20.6366, 0.00609628, 382.979, -127.42, 0, 0.000971699, 0.00168333, 0.00112445, 105.876, -35.3972, 0, 0.000970249, 0.00103482, 0.000691901, 64.9538, -21.7248, 0, 0.000970034, 0.352445, 18.8764, 86.9626, 0.0444092, 13.2925, 51.8375, -0.000551428, -0.000215674, 0.00134123, -0.000342654, -0.000342654, -0.000342654
7698, 1,0.00164349, 0.000361864, 0.000243708, 103.035, 22.7615, 0.00557462, 349.791, -116.116, 0, 0.00100524, 0.00200119, 0.00133927, 125.535, -41.9207, 0, 0.00100403, 0.00128812, 0.000862642, 80.6825, -26.9878, 0, 0.00100379, 0.696564, 21.8533, 103.212, 0.13842, 16.4714, 64.3537, -0.000648709, -0.000249156, 0.00157789, -0.000425062, -0.000425062, -0.000425062
7699, 1,0.00191711, 0.000392832, 0.000265184, 120.257, 24.6296, 0.00498366, 312.753, -103.922, 0, 0.00103874, 0.00230395, 0.00154084, 144.551, -48.2057, 0, 0.0010378, 0.00153335, 0.00102558, 96.1366, -32.1174, 0, 0.00103753, 0.837964, 24.5706, 119.209, 0.177544, 19.3235, 76.8513, -0.000745153, -0.000281143, 0.00180836, -0.000505235, -0.000505235, -0.000505235
7700, 1,0.00217443, 0.000417951, 0.000281437, 136.435, 26.1797, 0.00434051, 272.784, -91.0656, 0, 0.00107223, 0.00258582, 0.0017243, 162.262, -54.1224, 0, 0.00107159, 0.00176613, 0.0011776, 110.775, -36.9919, 0, 0.00107129, 0.575661, 25.6004, 136.191, 0.107657, 21.0682, 89.7998, -0.000842909, -0.00034287, 0.00206391, -0.000582329, -0.000582329, -0.000582329
7701, 1,0.00147371, 0.000360377, 0.000241062, 92.6309, 22.7897, 0.00639896, 402.094, -133.878, 0, 0.000971631, 0.00183255, 0.00122368, 115.285, -38.5517, 0, 0.000970129, 0.00111587, 0.000745765, 70.0647, -23.4359, 0, 0.000969891, 0.338601, 19.9732, 95.3433, 0.0262361, 13.9046, 56.377, -0.000601227, -0.000242944, 0.00146949, -0.000369808, -0.000369808, -0.000369808
7702, 1,0.00176689, 0.000393389, 0.00026461, 110.85, 24.7543, 0.00592309, 371.801, -123.546, 0, 0.00100512, 0.00215608, 0.0014418, 135.34, -45.2327, 0, 0.00100384, 0.0013801, 0.000923504, 86.5131, -28.9572, 0, 0.00100357, 0.701762, 22.9816, 112.015, 0.142249, 17.1931, 69.5362, -0.000700432, -0.000278824, 0.00171303, -0.000455666, -0.000455666, -0.000455666
7703, 1,0.00204722, 0.000421471, 0.00028416, 128.49, 26.442, 0.00537548, 337.504, -112.281, 0, 0.00103861, 0.00246262, 0.00164585, 154.589, -51.5984, 0, 0.00103758, 0.00163495, 0.00109285, 102.568, -34.2885, 0, 0.00103729, 0.836427, 25.6423, 128.316, 0.174741, 20.0796, 82.6111, -0.000798284, -0.0003139, 0.0019493, -0.00053915, -0.00053915, -0.00053915
7704, 1,0.00230922, 0.000443505, 0.000298396, 144.951, 27.7961, 0.00477256, 300.017, -100.202, 0, 0.00107208, 0.00274605, 0.00183053, 172.385, -57.5383, 0, 0.00107134, 0.00187555, 0.00125018, 117.69, -39.3242, 0, 0.00107102, 0.575894, 26.6346, 145.404, 0.103584, 21.8745, 95.9944, -0.000896523, -0.000377375, 0.00220745, -0.000618962, -0.000618962, -0.000618962
7705, 1,0.0015888, 0.000394627, 0.000263891, 99.9212, 24.9476, 0.00669739, 420.882, -140.166, 0, 0.000971463, 0.00198182, 0.00132272, 124.732, -41.7556, 0, 0.000969913, 0.00119682, 0.000799318, 75.2024, -25.1927, 0, 0.000969652, 0.376946, 20.955, 103.935, 0.0616575, 14.4552, 61.0611, -0.000650703, -0.000273133, 0.00160115, -0.00039655, -0.00039655, -0.00039655
7706, 1,0.00189118, 0.000425126, 0.000285684, 118.706, 26.7586, 0.0062699, 393.726, -130.969, 0, 0.00100494, 0.00231202, 0.00154523, 145.195, -48.546, 0, 0.00100359, 0.00147281, 0.000985022, 92.3745, -30.9216, 0, 0.00100331, 0.677594, 23.928, 121.033, 0.118779, 17.784, 74.862, -0.000752799, -0.000312061, 0.0018524, -0.000486771, -0.000486771, -0.000486771
7707, 1,0.00217819, 0.00045033, 0.000303306, 136.788, 28.2668, 0.00577115, 362.458, -120.668, 0, 0.00103839, 0.00262235, 0.00175149, 164.705, -55.0255, 0, 0.00103728, 0.00173723, 0.00116045, 109.053, -36.4869, 0, 0.00103697, 0.857339, 26.5462, 137.673, 0.196317, 20.7133, 88.551, -0.000851477, -0.000350467, 0.00209466, -0.000572975, -0.000572975, -0.000572975
7708, 1,0.00244463, 0.000469242, 0.000315491, 153.516, 29.4231, 0.00521243, 327.726, -109.485, 0, 0.00107184, 0.00290707, 0.00193735, 182.566, -60.9784, 0, 0.001071, 0.00198541, 0.00132307, 124.643, -41.6737, 0, 0.00107066, 0.581352, 27.4989, 154.855, 0.107544, 22.55, 102.363, -0.000950399, -0.000415576, 0.00235534, -0.000655689, -0.000655689, -0.000655689
7709, 1,0.00170595, 0.000429033, 0.000286851, 107.199, 27.1134, 0.00697974, 438.881, -146.416, 0, 0.000971358, 0.00213328, 0.00142448, 134.17, -44.8132, 0, 0.000969758, 0.00127977, 0.000855465, 80.3231, -26.799, 0, 0.000969474, 0.183767, 21.6116, 112.644, -0.130732, 14.7446, 65.7832, -0.000702779, -0.000307558, 0.00173726, -0.000425752, -0.000425752, -0.000425752
7710, 1,0.00201644, 0.000457014, 0.000306862, 126.683, 28.7716, 0.00661423, 415.292, -138.068, 0, 0.00100482, 0.00246912, 0.00164875, 155.182, -51.9658, 0, 0.00100341, 0.00156629, 0.00104637, 98.3445, -32.986, 0, 0.00100311, 0.787133, 24.7545, 130.356, 0.227579, 18.3079, 80.4226, -0.000804015, -0.000349207, 0.00199625, -0.000516657, -0.000516657, -0.000516657
7711, 1,0.00230892, 0.000479415, 0.000322631, 145.089, 30.1044, 0.00617347, 387.753, -129.093, 0, 0.00103826, 0.00278203, 0.00185702, 174.836, -58.4754, 0, 0.00103707, 0.0018391, 0.00122771, 115.531, -38.7005, 0, 0.00103674, 0.908117, 27.2806, 147.238, 0.251704, 21.2225, 94.6274, -0.000904388, -0.000390695, 0.00224378, -0.000606313, -0.000606313, -0.000606313
7712, 1,0.00258123, 0.000495154, 0.000332718, 162.144, 31.0604, 0.00566566, 356.277, -119.051, 0, 0.00107169, 0.00306943, 0.00204526, 192.822, -64.429, 0, 0.00107074, 0.0020963, 0.00139681, 131.649, -44.0266, 0, 0.00107039, 0.554246, 28.1703, 164.562, 0.0816569, 23.0732, 108.925, -0.00100512, -0.000457745, 0.00250822, -0.000693093, -0.000693093, -0.000693093
7713, 1,0.00181641, 0.000463372, 0.000309731, 114.635, 29.2761, 0.00723587, 454.063, -150.532, 0, 0.000971139, 0.00227808, 0.0015161, 143.771, -48.5344, 0, 0.000969533, 0.00135592, 0.000901644, 85.5951, -29.0668, 0, 0.000969226, 1.10073, 22.7094, 121.793, 0.782508, 15.5205, 70.8973, -0.000741832, -0.000342942, 0.00187209, -0.000441987, -0.000441987, -0.000441987
7714, 1,0.00214154, 0.000489152, 0.000328263, 134.596, 30.7981, 0.00694678, 436.084, -144.871, 0, 0.0010046, 0.00262621, 0.00175334, 165.114, -55.3184, 0, 0.00100314, 0.00165952, 0.00110871, 104.243, -34.9764, 0, 0.00100281, 0.853886, 25.2824, 139.819, 0.301017, 18.5889, 86.0393, -0.000855062, -0.000391299, 0.00214379, -0.000546106, -0.000546106, -0.000546106
7715, 1,0.00244106, 0.000508766, 0.000342172, 153.411, 31.9566, 0.00658329, 413.271, -137.34, 0, 0.00103804, 0.0029433, 0.00196401, 184.997, -61.8668, 0, 0.00103677, 0.00194224, 0.0012962, 122.02, -40.8482, 0, 0.00103642, 0.83966, 27.754, 157.007, 0.193327, 21.5217, 100.83, -0.000958886, -0.000435239, 0.00239785, -0.000641007, -0.000641007, -0.000641007
7716, 1,0.00271885, 0.000521238, 0.000350068, 170.888, 32.7082, 0.00614114, 386.029, -128.819, 0, 0.00107146, 0.003233, 0.00215381, 203.203, -67.9698, 0, 0.00107041, 0.00220805, 0.00147092, 138.759, -46.4623, 0, 0.00107003, 0.592867, 28.7189, 174.598, 0.123746, 23.5143, 115.749, -0.00105987, -0.00050369, 0.00266636, -0.000730355, -0.000730355, -0.000730355
7717, 1,0.00195274, 0.000497598, 0.000332468, 123.147, 31.4367, 0.00775805, 461.331, -152.749, 0.00805174, 0.000970992, 0.00244877, 0.00163259, 154.453, -52.0961, 0, 0.000969397, 0.00145777, 0.000971865, 91.9303, -31.1701, 0, 0.000969068, 0.750582, 23.4785, 132.059, 0.409029, 16.0547, 77.0465, -0.000805176, -0.000383846, 0.00203414, -0.000482851, -0.000482851, -0.000482851
7718, 1,0.00224204, 0.000521541, 0.000349818, 141.195, 32.8378, 0.0072898, 454.762, -148.146, 0, 0.00100442, 0.00275891, 0.00183761, 173.742, -58.4866, 0, 0.00100296, 0.001728, 0.00115041, 108.825, -36.7766, 0, 0.0010026, 1.24479, 26.0153, 148.2, 0.704067, 19.1059, 90.5198, -0.00089636, -0.000426348, 0.00227155, -0.000565597, -0.000565597, -0.000565597
7719, 1,0.00257866, 0.000538254, 0.000361827, 162.262, 33.8173, 0.0069809, 437.493, -144.61, 0, 0.00103789, 0.00311018, 0.00207461, 195.7, -65.6525, 0, 0.00103656, 0.00205067, 0.00136801, 129.025, -43.3822, 0, 0.00103619, 1.02093, 28.3074, 167.629, 0.388735, 21.9446, 107.813, -0.00101434, -0.000484038, 0.00256353, -0.000676449, -0.000676449, -0.000676449
7720, 1,0.00285876, 0.000547564, 0.000367615, 179.641, 34.3696, 0.0066247, 416.685, -139.285, 0, 0.00107133, 0.00339904, 0.00226454, 213.606, -71.3813, 0, 0.00107015, 0.00232192, 0.00154694, 145.869, -48.7608, 0, 0.00106976, 0.463511, 28.8787, 184.802, 0.00226668, 23.6148, 122.665, -0.00111613, -0.000555515, 0.0028298, -0.000768917, -0.000768917, -0.000768917
7721, 1,0.00207661, 0.000531854, 0.000355352, 130.097, 33.6033, 0.00861874, 464.093, -155.156, 0.0247887, 0.000970792, 0.00260689, 0.00174622, 163.575, -54.3538, 0, 0.000969171, 0.00154742, 0.00103981, 96.7052, -31.9648, 0, 0.000968819, -0.732481, 22.6109, 141.183, -1.07699, 14.9975, 81.9737, -0.000871864, -0.000440116, 0.00219374, -0.000526545, -0.000526545, -0.000526545
7722, 1,0.00239817, 0.000554628, 0.000371955, 150.699, 34.9161, 0.00808227, 461.351, -151.858, 0.0142031, 0.00100419, 0.00294754, 0.00196417, 185.289, -62.0444, 0, 0.00100271, 0.00185194, 0.00123393, 116.306, -38.9581, 0, 0.00100233, 0.637747, 26.6212, 158.874, 0.105864, 19.6529, 97.1155, -0.00096492, -0.000472346, 0.00244384, -0.000612278, -0.000612278, -0.000612278
7723, 1,0.00268841, 0.000567785, 0.00038139, 169.383, 35.6829, 0.00749527, 458.164, -148.653, 0.00282106, 0.00103761, 0.00324953, 0.00216447, 204.688, -68.9245, 9.5787E-08, 0.00103627, 0.00213085, 0.00141848, 134.282, -45.3949, 9.5787E-08, 0.00103587, 1.3181, 28.7384, 176.717, 0.687499, 22.2692, 113.228, -0.00105931, -0.000528271, 0.00270583, -0.000701546, -0.000701546, -0.000701546
7724, 1,0.00299609, 0.00057405, 0.000385297, 188.756, 36.0403, 0.00710563, 444.52, -146.11, 0, 0.00107106, 0.00356264, 0.00237118, 224.38, -75.4861, 0, 0.00106983, 0.00243309, 0.00161868, 153.33, -51.7454, 0, 0.00106942, 1.11327, 29.5885, 195.756, 0.672942, 24.2917, 130.272, -0.0011669, -0.000606682, 0.00299833, -0.000801592, -0.000801592, -0.000801592
7725, 1,0.00217083, 0.0005664, 0.000378411, 136.846, 35.7836, 0.00948139, 465.387, -156.079, 0.0416864, 0.000970614, 0.00273563, 0.00182786, 172.503, -58.1564, 0, 0.000969015, 0.00160715, 0.00107556, 101.278, -34.3036, 0, 0.00096864, 0.542792, 23.7117, 150.215, 0.205599, 15.953, 86.7522, -0.000904527, -0.000478635, 0.00232663, -0.000535987, -0.000535987, -0.000535987
7726, 1,0.00254921, 0.00058671, 0.000393413, 159.645, 36.953, 0.00920347, 465.15, -155.828, 0.0361596, 0.00100403, 0.00313068, 0.00209392, 196.282, -65.2854, 0, 0.0010025, 0.00197085, 0.00132115, 123.199, -40.8151, 0, 0.0010021, -0.0481687, 25.3679, 170.536, -0.561136, 18.3117, 104.695, -0.00103009, -0.000554006, 0.00264327, -0.000655228, -0.000655228, -0.000655228
7727, 1,0.0028521, 0.000598414, 0.000401938, 179.131, 37.609, 0.00863314, 464.42, -155.679, 0.0250777, 0.00103747, 0.00344312, 0.00229384, 216.318, -72.3105, 0, 0.00103603, 0.00226499, 0.00150865, 142.17, -47.5101, 0, 0.00103562, 0.665674, 28.6278, 187.638, 0.0487566, 22.2194, 120.262, -0.00112618, -0.000588911, 0.00288828, -0.000748078, -0.000748078, -0.000748078
7728, 1,0.00313241, 0.000600759, 0.000403113, 197.039, 37.7278, 0.00805612, 462.404, -153.643, 0.0137875, 0.00107088, 0.00372548, 0.00247959, 234.336, -78.5872, 0, 0.00106956, 0.00254296, 0.0016919, 159.947, -53.7166, 0, 0.00106913, 0.863882, 29.1289, 205.769, 0.431267, 23.8657, 136.853, -0.00122098, -0.000669089, 0.00316514, -0.000837699, -0.000837699, -0.000837699
7729, 1,0.00229671, 0.000601321, 0.000401887, 144.843, 37.9836, 0.0104962, 467.482, -157.761, 0.0614689, 0.00097041, 0.00289597, 0.0019368, 182.682, -61.6613, 0, 0.00096881, 0.00169889, 0.00113854, 107.108, -36.3396, 0, 0.000968412, 0.126043, 24.1606, 160.697, -0.176261, 16.3458, 92.8493, -0.000968225, -0.000526597, 0.00249517, -0.000575795, -0.000575795, -0.000575795
7730, 1,0.00265651, 0.000618946, 0.000414775, 166.922, 38.9994, 0.0102699, 466.745, -156.864, 0.0569881, 0.00100376, 0.00327063, 0.00218727, 205.625, -68.9562, 0, 0.00100225, 0.00204531, 0.0013713, 128.401, -43.095, 0, 0.00100183, 0.93401, 25.5588, 180.376, 0.411613, 18.4544, 110.419, -0.00106668, -0.000611358, 0.00279678, -0.00067009, -0.00067009, -0.00067009
7731, 1,0.00300729, 0.000628045, 0.000421659, 188.537, 39.4921, 0.00994954, 467.214, -158.104, 0.050822, 0.00103718, 0.00362812, 0.00241846, 227.616, -75.8231, 0, 0.00103571, 0.00239025, 0.00159345, 149.676, -49.7434, 0, 0.00103528, 0.203951, 27.5948, 199.671, -0.407632, 21.205, 128.433, -0.00119104, -0.000670959, 0.00309219, -0.000792637, -0.000792637, -0.000792637
7732, 1,0.00328554, 0.000627629, 0.000421029, 205.894, 39.4303, 0.00947211, 466.691, -157.953, 0.0415108, 0.00107059, 0.00390532, 0.00260969, 244.878, -81.3948, 0, 0.0010692, 0.00266943, 0.00178632, 167.119, -55.3829, 0, 0.00106875, -0.789999, 28.31, 216.664, -1.20937, 23.1234, 144.235, -0.00130015, -0.000736269, 0.00335704, -0.000898566, -0.000898566, -0.000898566
7733, 1,0.00241017, 0.000635619, 0.000424878, 151.45, 40.1552, 0.0116611, 468.457, -157.925, 0.0841669, 0.000970211, 0.00304356, 0.00203763, 191.466, -64.131, 0, 0.000968613, 0.00177838, 0.0011938, 111.533, -37.3358, 0, 0.000968192, -0.688565, 22.6925, 170.389, -0.978028, 14.8541, 98.1314, -0.00102398, -0.000598186, 0.0026626, -0.000608059, -0.000608059, -0.000608059
7734, 1,0.00279873, 0.000652048, 0.000436956, 175.723, 41.0892, 0.0115061, 468.707, -158.548, 0.0811857, 0.00100358, 0.00344558, 0.00230355, 216.497, -72.4502, 0, 0.00100205, 0.00215504, 0.00144436, 135.141, -45.1894, 0, 0.00100161, 0.69301, 24.9771, 191.681, 0.19607, 17.9348, 117.437, -0.00112623, -0.000682038, 0.00298371, -0.000707016, -0.000707016, -0.000707016
7735, 1,0.00313725, 0.000658284, 0.000441835, 197.303, 41.4069, 0.0111782, 468.703, -158.942, 0.0748078, 0.00103693, 0.00378819, 0.00252049, 238.288, -80.0286, 0, 0.00103549, 0.00249021, 0.00165563, 156.542, -52.6602, 0, 0.00103503, 1.02075, 27.9784, 211.087, 0.431172, 21.6511, 135.898, -0.00123979, -0.000733488, 0.0032717, -0.000820583, -0.000820583, -0.000820583
7736, 1,0.00342972, 0.000654331, 0.000438714, 215.377, 41.1259, 0.0107829, 467.537, -157.49, 0.0670037, 0.00107028, 0.00407644, 0.0027231, 256.062, -85.5518, 0, 0.00106892, 0.00278655, 0.00186362, 174.899, -58.3909, 0, 0.00106845, -0.3239, 28.4916, 228.488, -0.751138, 23.4099, 152.514, -0.00135566, -0.000801735, 0.00354547, -0.000936103, -0.000936103, -0.000936103
7737, 1,0.00252366, 0.00067045, 0.000448249, 158.626, 42.3522, 0.0129157, 469.545, -158.347, 0.108608, 0.000969961, 0.00319158, 0.00213588, 200.832, -67.3171, 0, 0.000968369, 0.00185757, 0.00124598, 116.526, -39.0444, 0, 0.000967925, -0.642221, 22.1095, 180.484, -0.906251, 14.3391, 103.7, -0.00107265, -0.000662116, 0.0028269, -0.000632876, -0.000632876, -0.000632876
7738, 1,0.00292146, 0.000684993, 0.000458999, 183.489, 43.1729, 0.0128252, 469.328, -158.086, 0.106835, 0.00100326, 0.00360111, 0.00240873, 226.346, -75.8049, 0, 0.00100176, 0.00224507, 0.00150605, 140.825, -47.135, 0, 0.00100129, 0.760023, 24.0795, 202.575, 0.287592, 17.1161, 124.001, -0.00117695, -0.000755832, 0.00316266, -0.000734996, -0.000734996, -0.000734996
7739, 1,0.00326622, 0.000688677, 0.000462134, 205.349, 43.3315, 0.0125437, 469.043, -157.908, 0.101335, 0.00103655, 0.00394745, 0.00262721, 248.255, -83.3177, 0, 0.00103514, 0.00258894, 0.00172255, 162.671, -54.65, 0, 0.00103466, 0.824531, 27.0289, 222.1, 0.259155, 20.8116, 142.879, -0.00129541, -0.000808626, 0.00345583, -0.000855196, -0.000855196, -0.000855196
7740, 1,0.0035793, 0.000681286, 0.000456734, 225.13, 42.8385, 0.0122623, 468.974, -158.105, 0.0958442, 0.00106989, 0.00425306, 0.00283671, 267.528, -89.7585, 0, 0.00106855, 0.00290905, 0.00194118, 182.939, -61.439, 0, 0.00106806, 0.411042, 27.8046, 241.06, 0.00762874, 22.8632, 161.446, -0.00140628, -0.000887215, 0.00374982, -0.000967909, -0.000967909, -0.000967909
7741, 1,0.00263337, 0.000705377, 0.000471671, 166.063, 44.5544, 0.014293, 470.552, -158.618, 0.135366, 0.000969802, 0.00333594, 0.00222964, 210.466, -71.0653, 0, 0.000968221, 0.00193284, 0.00129351, 121.771, -41.3096, 0, 0.000967754, 0.0671732, 22.1033, 191.026, -0.171882, 14.4632, 109.638, -0.00111601, -0.000722035, 0.00299102, -0.000652305, -0.000652305, -0.000652305
7742, 1,0.00304487, 0.000718438, 0.000481453, 191.53, 45.2833, 0.0143581, 469.178, -156.262, 0.136481, 0.00100303, 0.00375756, 0.00251154, 236.484, -79.5492, 0, 0.00100158, 0.00233574, 0.00156526, 146.779, -49.4592, 0, 0.00100109, 1.24066, 23.5027, 213.904, 0.809267, 16.6824, 130.886, -0.00122493, -0.000829609, 0.00334518, -0.000759701, -0.000759701, -0.000759701
7743, 1,0.00341117, 0.000719572, 0.000482775, 214.704, 45.2831, 0.0143874, 469.696, -157.096, 0.137101, 0.00103633, 0.00412315, 0.00274158, 259.55, -87.3716, 0, 0.00103494, 0.00270325, 0.00179701, 170.092, -57.3934, 0, 0.00103443, 1.29446, 26.5997, 234.221, 0.74717, 20.5802, 150.853, -0.00134892, -0.000885419, 0.00365192, -0.000887642, -0.000887642, -0.000887642
7744, 1,0.00374644, 0.000708639, 0.000475065, 234.701, 44.574, 0.0143512, 470.232, -158.042, 0.13645, 0.00106961, 0.00444745, 0.00297187, 278.826, -92.5157, 0, 0.00106825, 0.00304897, 0.0020398, 190.785, -63.0266, 0, 0.00106774, -1.35815, 25.4134, 253.492, -1.73862, 20.6749, 170.143, -0.001487, -0.000984723, 0.00397278, -0.00102964, -0.00102964, -0.00102964
7745, 1,0.00278074, 0.000740037, 0.000494974, 175.759, 46.7534, 0.0172904, 471.835, -158.093, 0.193308, 0.000969589, 0.00351757, 0.00234758, 222.364, -75.4685, 0, 0.00096799, 0.00204624, 0.0013655, 129.261, -44.2204, 0, 0.000967499, 0.74264, 21.5019, 204.161, 0.517286, 14.0703, 118.074, -0.00117015, -0.000808037, 0.00320262, -0.000682471, -0.000682471, -0.000682471
7746, 1,0.0031628, 0.000752114, 0.000504155, 198.97, 47.4112, 0.0168173, 469.387, -154.379, 0.183942, 0.00100274, 0.0039086, 0.00261682, 246.036, -82.9227, 0, 0.00100129, 0.00242094, 0.00162651, 152.118, -51.4006, 0, 0.00100078, 1.2943, 22.4797, 224.994, 0.92125, 15.8499, 137.431, -0.00127592, -0.00090966, 0.00353096, -0.0007868, -0.0007868, -0.0007868
7747, 1,0.00357574, 0.000750496, 0.000503556, 224.999, 47.2412, 0.0169183, 470.875, -156.77, 0.186052, 0.00103602, 0.0043184, 0.00287636, 271.798, -91.5675, 0, 0.00103462, 0.00283724, 0.00189065, 178.435, -60.2676, 0, 0.00103409, 0.878338, 25.7107, 248.113, 0.371157, 19.9039, 160.528, -0.00142352, -0.000975391, 0.00388457, -0.000940511, -0.000940511, -0.000940511
7748, 1,0.00388012, 0.000735849, 0.000493317, 243.908, 46.3045, 0.0170047, 472.062, -158.682, 0.187827, 0.00106928, 0.00460843, 0.00307, 289.766, -96.9356, 0, 0.00106789, 0.00315534, 0.00210158, 198.259, -66.2712, 0, 0.00106736, 0.159791, 24.5494, 266.098, -0.182501, 20.0092, 178.987, -0.00152444, -0.00107565, 0.00417287, -0.00104771, -0.00104771, -0.00104771
7749, 1,0.00289342, 0.000775066, 0.000518569, 181.602, 48.995, 0.0241971, 476.372, -160.358, 0.325414, 0.000969699, 0.00366467, 0.00245586, 230.444, -76.8288, 0, 0.000967827, 0.00212493, 0.00142765, 132.87, -44.0699, 0, 0.000967312, -1.53192, 18.9065, 213.112, -1.74474, 11.7669, 122.187, -0.00123802, -0.000899325, 0.00338385, -0.000725882, -0.000725882, -0.000725882
7750, 1,0.00337118, 0.000786682, 0.000527745, 210.853, 49.6068, 0.0230818, 474.126, -157.449, 0.304148, 0.00100274, 0.00415019, 0.0027899, 260.061, -86.6923, 0, 0.00100107, 0.00259684, 0.00175561, 161.887, -53.7173, 0, 0.00100053, -0.316526, 20.2892, 240.104, -0.604648, 13.9987, 147.758, -0.00136767, -0.00103366, 0.00380788, -0.000853616, -0.000853616, -0.000853616
7751, 1,0.0037009, 0.000780487, 0.000523605, 233.587, 49.1754, 0.022328, 473.926, -157.705, 0.289886, 0.0010359, 0.00447427, 0.00297481, 282.369, -96.2587, 0, 0.00103435, 0.00293134, 0.00194718, 185.017, -63.6221, 0, 0.00103381, 2.4142, 25.2845, 261.077, 1.91575, 19.6723, 169.278, -0.00146485, -0.00107434, 0.00410098, -0.00096044, -0.00096044, -0.00096044
7752, 1,0.00405416, 0.000763174, 0.000511833, 255.36, 48.059, 0.023052, 475.578, -159.938, 0.303777, 0.00106917, 0.00480966, 0.00320368, 302.957, -101.896, 0, 0.0010676, 0.00330221, 0.00219857, 207.977, -70.0546, 0, 0.00106705, 0.719716, 23.9092, 281.059, 0.444666, 19.6334, 190.086, -0.00159091, -0.00118075, 0.00442492, -0.00109404, -0.00109404, -0.00109404
7753, 1,0.00302582, 0.000810597, 0.000542807, 189.978, 51.2708, 0.0346653, 482.503, -163.554, 0.519908, 0.000969953, 0.00383066, 0.00256761, 241.064, -80.4948, -8.67362E-19, 0.000967596, 0.00222517, 0.00149465, 139.028, -46.2135, -8.67362E-19, 0.000967058, -1.70986, 18.214, 224.98, -1.8589, 11.43, 129.069, -0.00129715, -0.000992866, 0.00359601, -0.000759, -0.000759, -0.000759
7754, 1,0.00352302, 0.00082045, 0.000550673, 220.488, 51.7936, 0.0342981, 485.035, -168.428, 0.514158, 0.00100311, 0.00433464, 0.00290244, 271.881, -91.5403, 0, 0.00100076, 0.00271675, 0.00182412, 169.34, -57.076, 0, 0.0010002, 0.330249, 20.1453, 254.145, 0.0875393, 14.1347, 157.006, -0.00142835, -0.00114516, 0.00405874, -0.000889356, -0.000889356, -0.000889356
7755, 1,0.00391389, 0.000812739, 0.000545763, 245.035, 51.2471, 0.0343554, 483.031, -165.19, 0.515137, 0.00103617, 0.00471846, 0.00314243, 295.839, -99.577, 0, 0.00103395, 0.00311359, 0.00207254, 194.465, -65.5773, 0, 0.00103338, 0.468316, 22.6234, 275.639, 0.0520575, 17.4061, 179.274, -0.00155829, -0.0012185, 0.00439242, -0.00103022, -0.00103022, -0.00103022
7756, 1,0.00422793, 0.000789553, 0.000529679, 265.086, 49.7984, 0.0352576, 483.097, -164.275, 0.530897, 0.00106935, 0.00501002, 0.00334614, 314.417, -104.793, 0, 0.00106712, 0.00344926, 0.00230515, 215.97, -71.7579, 0, 0.00106655, -1.19185, 21.1911, 294.38, -1.44704, 17.1872, 199.533, -0.00167712, -0.00131071, 0.0046881, -0.00116082, -0.00116082, -0.00116082
7757, 1,0.0031365, 0.000846038, 0.000566932, 197.109, 53.5404, 0.0464799, 488.409, -165.846, 0.728023, 0.000970464, 0.00397467, 0.0026544, 250.44, -84.2104, 0, 0.000967396, 0.0023041, 0.00153693, 143.934, -48.3948, 0, 0.000966834, -0.499896, 17.2035, 235.928, -0.589783, 10.818, 134.956, -0.00132915, -0.00109115, 0.00378657, -0.000765052, -0.000765052, -0.000765052
7758, 1,0.00364373, 0.000855766, 0.000574389, 226.742, 54.0753, 0.0495092, 493.103, -172.483, 0.780717, 0.00100398, 0.00449003, 0.00300375, 280.403, -93.4492, 0, 0.00100053, 0.0028032, 0.00187846, 173.336, -57.4423, 0, 0.000999942, -1.51428, 18.2592, 263.603, -1.76185, 12.6818, 161.407, -0.00149671, -0.00124511, 0.00425801, -0.000932968, -0.000932968, -0.000932968
7759, 1,0.00411245, 0.000845915, 0.00056836, 256.874, 53.3875, 0.0518223, 498.983, -180.537, 0.819308, 0.00103747, 0.00494931, 0.00329722, 309.777, -103.98, 0, 0.00103363, 0.00328028, 0.0021863, 204.225, -68.5642, 0, 0.00103303, -0.0650033, 21.3215, 290.682, -0.443941, 16.5696, 189.567, -0.00163824, -0.00135002, 0.00467533, -0.00108647, -0.00108647, -0.00108647
7760, 1,0.00438482, 0.000817263, 0.000548898, 273.594, 51.4896, 0.0518013, 491.426, -167.174, 0.816403, 0.00107016, 0.00519425, 0.00347213, 324.585, -107.318, 8.26738E-05, 0.00106669, 0.00357897, 0.00239759, 222.832, -73.2271, 3.56517E-05, 0.0010661, -2.21595, 18.0738, 306.096, -2.30859, 14.5415, 207.448, -0.00174035, -0.00144686, 0.00492852, -0.00120235, -0.00120235, -0.00120235
7761, 1,0.00324465, 0.000881055, 0.000590718, 202.514, 55.7907, 0.0583547, 497.659, -172.298, 0.919888, 0.000971283, 0.004116, 0.00275295, 258.092, -85.867, 0, 0.000967064, 0.00238044, 0.00159052, 147.095, -48.5115, 0, 0.000966478, -1.90263, 13.9693, 245.534, -1.94045, 8.03891, 139.436, -0.00138454, -0.00119698, 0.00397462, -0.000794966, -0.000794966, -0.000794966
7762, 1,0.00383034, 0.00089255, 0.000599415, 240.358, 56.4274, 0.0624358, 512.552, -192.838, 0.98321, 0.00100553, 0.00471209, 0.00315246, 296.315, -99.9536, 8.67362E-19, 0.0010002, 0.00295515, 0.00198024, 184.688, -62.3752, 8.67362E-19, 0.000999594, 0.384579, 18.6965, 280.78, 0.209277, 13.6463, 173.27, -0.00155888, -0.00134063, 0.00452122, -0.000968681, -0.000968681, -0.000968681
7763, 1,0.00419766, 0.000880523, 0.000591467, 264.451, 55.6281, 0.064238, 530.363, -198.321, 1, 0.00103893, 0.00506865, 0.00336438, 319.58, -108.409, 4.23516E-22, 0.00103321, 0.00333175, 0.0022144, 209.591, -71.4178, 4.23516E-22, 0.00103259, 2.58311, 20.312, 302.331, 2.11904, 15.9445, 196.19, -0.00165072, -0.00143795, 0.00484758, -0.00107535, -0.00107535, -0.00107535
7764, 1,0.00456393, 0.000850648, 0.000571863, 282.899, 53.0232, 0.0642729, 520.797, -186.496, 1, 0.00107162, 0.00540627, 0.00361188, 335.4, -112.787, 0.00178502, 0.00106626, 0.00372538, 0.00249124, 230.638, -77.4608, 0.00133675, 0.00106565, 0.313998, 19.5195, 318.528, -0.044365, 16.1407, 216.286, -0.0018111, -0.00153729, 0.00518016, -0.00124822, -0.00124822, -0.00124822
7765, 1,0.00332662, 0.000918423, 0.000616076, 210.244, 58.1285, 0.0643816, 518.161, -179.935, 1, 0.000971777, 0.00423413, 0.00281777, 268.073, -91.2181, 0, 0.000966807, 0.00242735, 0.00160991, 152.644, -52.2977, 0, 0.000966197, 1.42776, 15.5728, 256.654, 1.51066, 10.23, 145.152, -0.00139694, -0.00123718, 0.00411402, -0.000780092, -0.000780092, -0.000780092
7766, 1,0.00389019, 0.00093081, 0.000625183, 244.904, 58.8363, 0.0657572, 554.218, -189.009, 1, 0.00100507, 0.00480858, 0.00321802, 303.247, -102.801, 0, 0.000999781, 0.00297959, 0.00199602, 186.873, -63.5503, 0, 0.000999145, 0.4279, 17.4401, 290.534, 0.278338, 12.8286, 177.544, -0.00160216, -0.0013951, 0.00466513, -0.000984787, -0.000984787, -0.000984787
7767, 1,0.00432802, 0.000915767, 0.000615283, 272.406, 57.7944, 0.0665276, 572.834, -192.472, 1, 0.00103819, 0.00523444, 0.00349025, 329.741, -111.238, 9.03928E-06, 0.00103274, 0.00342666, 0.00229199, 215.321, -72.8071, 8.18567E-07, 0.0010321, 2.60081, 15.8769, 315.236, 2.21617, 12.0789, 204.126, -0.00169457, -0.00155912, 0.00505847, -0.00109431, -0.00109431, -0.00109431
7768, 1,0.00467725, 0.000882062, 0.000593969, 285.594, 54.5778, 0.066737, 573.884, -188.867, 1, 0.00107113, 0.00555067, 0.00372606, 339.686, -113.95, 0.00329433, 0.0010657, 0.00380783, 0.00256115, 231.731, -77.6104, 0.0026428, 0.00106507, -1.17332, 16.6401, 326.384, -1.30832, 13.7016, 220.438, -0.00189669, -0.0016317, 0.00538057, -0.00130757, -0.00130757, -0.00130757
7769, 1,0.0034684, 0.000954436, 0.000640037, 218.917, 60.3957, 0.0660042, 555.684, -184.991, 1, 0.000971522, 0.00441067, 0.00295, 278.999, -94.885, 0, 0.000966432, 0.00253519, 0.00169864, 159.073, -54.33, 0, 0.000965796, -0.189256, 14.6301, 270.214, -0.21252, 9.84779, 153.355, -0.00148825, -0.00129658, 0.00432421, -0.000847509, -0.000847509, -0.000847509
7770, 1,0.00396296, 0.000972353, 0.000651345, 251.616, 61.5204, 0.0670805, 590.763, -201.488, 1, 0.0010049, 0.00492321, 0.00326845, 312.622, -107.961, 0, 0.000999242, 0.0030106, 0.00199641, 190.948, -66.6849, 0, 0.000998573, 5.25914, 16.8054, 301.817, 4.62986, 12.7479, 182.677, -0.00158167, -0.00147327, 0.00480651, -0.000942381, -0.000942381, -0.000942381
7771, 1,0.00455357, 0.00096126, 0.00064623, 283.702, 59.8764, 0.0679296, 613.368, -207.981, 1, 0.00103804, 0.00550209, 0.00367124, 342.979, -115.292, 0.00105859, 0.00103207, 0.00361188, 0.00241699, 224.743, -75.2125, 0.000502765, 0.0010314, 1.72992, 12.7256, 331.422, 1.03083, 9.24424, 215.362, -0.0018008, -0.00169535, 0.0053678, -0.00116752, -0.00116752, -0.00116752
7772, 1,0.00494475, 0.000918443, 0.000618285, 289.484, 56.3078, 0.0684378, 626.053, -211.401, 1, 0.00107133, 0.00585496, 0.00394602, 345.362, -116.11, 0.00764909, 0.00106506, 0.00403825, 0.00273118, 233.813, -78.385, 0.00671294, 0.00106441, -0.776749, 14.111, 334.995, -1.17836, 11.4081, 224.925, -0.00203045, -0.00180012, 0.00572247, -0.00141706, -0.00141706, -0.00141706
7773, 1,0.00354787, 0.000989494, 0.000662335, 225.589, 62.6411, 0.0669668, 588.948, -202.582, 1, 0.000971559, 0.00452501, 0.0030185, 287.951, -99.7212, 0, 0.00096592, 0.00258027, 0.00171767, 163.444, -57.4519, 0, 0.000965258, 3.62443, 13.1759, 282.363, 3.22211, 8.97488, 160.159, -0.00148488, -0.0013719, 0.00447466, -0.000825295, -0.000825295, -0.000825295
7774, 1,0.00427522, 0.00101487, 0.000677332, 272.538, 64.3084, 0.0686194, 637.231, -220.25, 1, 0.00100475, 0.00527609, 0.00351748, 336.248, -116.264, 0, 0.000998535, 0.00328312, 0.00219379, 209.201, -72.7601, 0, 0.000997831, 8.27544, 12.2904, 328.226, 6.75396, 8.86029, 202.666, -0.00164695, -0.00165678, 0.00519002, -0.000991314, -0.000991314, -0.000991314
7775, 1,0.00484262, 0.00100508, 0.000673041, 294.592, 61.8187, 0.0693931, 655.815, -223.336, 1, 0.00103773, 0.00583466, 0.00393088, 355.891, -123.628, 0.0051616, 0.00103133, 0.0038575, 0.00262248, 233.579, -81.5605, 0.00402079, 0.00103062, 12.016, 10.3739, 348.494, 10.0886, 6.98023, 227.613, -0.00180641, -0.00193186, 0.00574986, -0.00115155, -0.00115155, -0.00115155
7776, 1,0.00522856, 0.000958155, 0.000644634, 293.329, 58.388, 0.0700448, 668.676, -223.237, 1, 0.0010711, 0.00617598, 0.00417318, 351.291, -118.999, 0.0125211, 0.00106442, 0.00428588, 0.00291277, 235.58, -79.7176, 0.0114672, 0.00106374, 0.968765, 11.2611, 344.766, 0.431091, 8.87653, 229.845, -0.00215579, -0.00199355, 0.0060936, -0.00151552, -0.00151552, -0.00151552
7777, 1,0.00370077, 0.00102593, 0.000684743, 230.828, 64.9188, 0.068189, 614.873, -202.799, 1, 0.000970929, 0.00471645, 0.00317727, 295.388, -97.2174, 0, 0.000965247, 0.00269287, 0.00182877, 166.539, -53.2977, 0, 0.000964559, -1.57071, 2.88651, 290.336, -2.62666, -0.399282, 162.919, -0.00155641, -0.00152617, 0.00465987, -0.000884839, -0.000884839, -0.000884839
7778, 1,0.00425472, 0.00104272, 0.000692579, 269.867, 66.2238, 0.0699186, 661.959, -216.007, 1, 0.00100375, 0.00528856, 0.00354633, 335.722, -114.864, 0, 0.000997683, 0.00322667, 0.00217796, 204.252, -69.5591, 0, 0.00099695, 8.56833, 5.56726, 330.457, 5.40961, 2.89749, 200.37, -0.00162055, -0.00174469, 0.00522885, -0.000971204, -0.000971204, -0.000971204
7779, 1,0.0046959, 0.00103408, 0.000687308, 295.29, 64.1089, 0.0703517, 679.967, -228.125, 1, 0.00103709, 0.0057157, 0.00379849, 358.793, -126.669, 0.00246442, 0.00103055, 0.00368418, 0.0024443, 232.13, -82.998, 0.00158272, 0.00102982, 12.7371, 13.3856, 353.884, 10.224, 11.103, 227.667, -0.00177636, -0.00182268, 0.00565701, -0.00111684, -0.00111684, -0.00111684
7780, 1,0.00519608, 0.000990273, 0.000663299, 297.147, 60.3279, 0.0708728, 693.964, -233.471, 1, 0.0010709, 0.0061752, 0.00416123, 357.048, -123.95, 0.0115024, 0.00106391, 0.0042222, 0.00286101, 237.469, -83.3257, 0.0104194, 0.0010632, 8.56502, 10.7416, 352.543, 7.65928, 9.12547, 233.192, -0.00204054, -0.00204877, 0.00611335, -0.00138482, -0.00138482, -0.00138482
7781, 1,0.00367864, 0.00102505, 0.000682512, 239.173, 64.8457, 0.067916, 606.644, -198.819, 1, 0.00100545, 0.00469733, 0.00310426, 303.853, -110.476, 0, 0.000999926, 0.00266495, 0.00174856, 174.623, -66.4976, 0, 0.000999213, 15.3148, 15.0274, 301.087, 13.0806, 12.8665, 173.546, -0.0014126, -0.00145788, 0.00466294, -0.000765444, -0.000765444, -0.000765444
7782, 1,0.00422169, 0.00104249, 0.000696098, 273.963, 66.2341, 0.0699468, 673.006, -228.467, 1, 0.00103987, 0.00525103, 0.00348847, 339.675, -123.23, 0, 0.00103324, 0.00320101, 0.00211533, 208.596, -77.711, 0, 0.00103248, 19.393, 13.2868, 337.01, 14.9504, 11.6793, 206.503, -0.00152564, -0.00169305, 0.00521804, -0.000900312, -0.000900312, -0.000900312
7783, 1,0.00468135, 0.00103042, 0.000690236, 294.932, 64.0566, 0.0703434, 681.633, -228.759, 1, 0.00107408, 0.00570113, 0.00382197, 358.504, -127.083, 0.00238999, 0.00106729, 0.00366758, 0.00245519, 231.634, -82.8931, 0.00147863, 0.00106653, 16.5646, 10.0397, 354.646, 12.0888, 8.59164, 227.999, -0.00169738, -0.00188293, 0.00564496, -0.00107204, -0.00107204, -0.00107204
7784, 1,0.00516251, 0.000995836, 0.000665959, 295.965, 60.4616, 0.0702971, 670.966, -217.953, 1, 0.00110857, 0.00614597, 0.00416309, 355.952, -122.629, 0.0110281, 0.00110194, 0.00418493, 0.00284662, 236.224, -81.8834, 0.0098275, 0.00110121, 8.84316, 7.3082, 351.736, 7.25413, 6.56327, 231.833, -0.00199127, -0.0020797, 0.00607293, -0.00134659, -0.00134659, -0.00134659
7785, 1,0.000726954, -0.000513468, 0.000380288, 2.43307, -30.787, 0.00386197, 28.6081, 207.075, 0, 0.00215859, 0.000959374, 0.0018076, 6.59364, 52.0609, 0, 0.00216403, 0.000600937, 0.00112968, 2.9216, 34.7064, 0, 0.00216464, -11.7489, 3.49985, -147.934, -6.24467, -6.86297, -91.0115, 0.000606032, 0.000894285, -0.0023448, 0.000451724, 0.000451724, 0.000451724
7786, 1,0.00203454, -0.000576976, 0.000561577, 82.3983, -27.8697, 0.00546136, 141.977, 134.679, 0.0102102, 0.00200719, 0.00257971, 0.00290147, 107.625, 19.1877, 6.65716E-08, 0.00201098, 0.00149, 0.00178116, 57.2031, 17.7448, 6.65716E-08, 0.00201102, -7.45097, 106.123, -156.235, -5.54018, 56.6597, -104.354, 0.000176702, 0.00254759, -0.00303511, 0.000197139, 0.000197139, 0.000197139
7787, 1,0.00227524, 0.000590914, 0.00055267, 102.363, 29.7723, 0.007021, 201.892, 99.0159, 0.0321592, 0.00194514, 0.00286575, 0.00294347, 132.116, 4.45086, 0, 0.00194819, 0.00168498, 0.0018392, 72.6228, 9.40908, 0, 0.00194803, -5.4537, 130.804, -138.703, -4.27564, 72.0119, -95.9635, -1.6244E-05, 0.00283775, -0.00289317, 8.9361E-05, 8.9361E-05, 8.9361E-05
7788, 1,0.00202472, 0.000517037, 0.000423661, 101.183, 28.9172, 0.00556538, 221.721, 55.4732, 0, 0.00195158, 0.00253705, 0.0023424, 129.873, -13.4695, 0, 0.00195376, 0.00151502, 0.00150735, 72.6191, -1.42083, 0, 0.00195338, -0.739261, 114.782, -73.6342, -1.1396, 65.448, -60.0459, -0.000204688, 0.00221615, -0.00179243, -2.14297E-05, -2.14297E-05, -2.14297E-05
7789, 1,0.00179296, 0.000534384, 0.000362936, 108.937, 34.134, 0.00388553, 197.426, -18.5428, 0, 0.00191963, 0.00231255, 0.00163224, 142.37, -44.458, 0, 0.00192044, 0.00128358, 0.000981242, 75.9871, -20.5806, 0, 0.00191969, 5.36761, 69.241, 58.7654, 3.31876, 40.396, 18.0269, -0.000575658, 0.000764247, 0.000533055, -0.000242214, -0.000242214, -0.000242214
7790, 1,0.00247302, 0.000827682, 0.000568854, 161.365, 52.3487, 0.00605699, 372.583, -115.844, 0, 0.00188909, 0.00329723, 0.00224894, 213.532, -77.3027, 0, 0.00188791, 0.00165233, 0.00112009, 109.38, -41.7805, 0, 0.00188682, 11.7129, 26.8992, 193.296, 10.3495, 19.0882, 95.9037, -0.000973001, -0.00064866, 0.002876, -0.000443123, -0.000443123, -0.000443123
7791, 1,0.0019647, 0.000555236, 0.000500064, 88.2039, 28.9742, 0.0056618, 200.581, 89.9593, 0, 0.00201864, 0.00251271, 0.00254568, 116.833, 2.47218, 0, 0.0020215, 0.0014213, 0.00156461, 59.7962, 9.82831, 0, 0.00202126, -5.75981, 94.5725, -96.2292, -5.49376, 49.9587, -73.9499, -5.69561E-05, 0.002039, -0.0020217, 6.67158E-05, 6.67158E-05, 6.67158E-05
7792, 1,0.00242481, 0.000717487, 0.000516191, 141.993, 43.5635, 0.0063484, 323.451, -31.5419, 0, 0.00191744, 0.00311583, 0.0023395, 184.294, -49.8309, 0, 0.00191801, 0.00175291, 0.00138604, 100.609, -23.8754, 0, 0.0019172, 7.21036, 89.8488, 52.4337, 4.11065, 58.0823, 9.43331, -0.000621208, 0.00111398, 0.000316064, -0.000277178, -0.000277178, -0.000277178
7793, 1,0.00363314, 0.00106689, 0.000724207, 228.377, 66.9355, 0.0160491, 441.218, -108.83, 0.166605, 0.00185151, 0.00469718, 0.00320816, 295.152, -97.8813, 0, 0.00185085, 0.00257145, 0.00176949, 161.734, -53.5626, 0, 0.00184951, 9.33002, 26.5498, 257.764, 6.01727, 17.5553, 137.115, -0.00135151, -0.000982553, 0.00392224, -0.000724663, -0.000724663, -0.000724663
7794, 1,0.00196745, -0.000517548, 0.000512439, 84.8341, 24.6539, 0.00768389, 128.592, 153.165, 0.0777106, 0.00219037, 0.00244876, 0.00271319, 108.248, 9.88924, 0, 0.00219571, 0.00150082, 0.0017573, 62.126, 11.7255, 0, 0.00219565, 2.20697, 98.2411, -130.116, 1.11547, 59.8955, -96.1876, 0.000237273, 0.00223373, -0.00263102, 0.000245709, 0.000245709, 0.000245709
7795, 1,0.00301231, 0.000871226, 0.000673514, 160.701, 50.0302, 0.0207615, 418.501, -90.3883, 0.272419, 0.00184728, 0.00384696, 0.00328535, 208.971, -36.5619, 0, 0.00184519, 0.00220177, 0.00203247, 113.6, -12.7481, 0, 0.00184447, 11.2825, 77.6689, 20.7343, 9.95626, 48.5136, -20.2255, -0.000318117, 0.00105365, -0.000141979, 3.021E-05, 3.021E-05, 3.021E-05
7796, 1,0.00528874, 0.00138971, 0.000939972, 305.33, 86.4048, 0.0485272, 519.878, -216.675, 0.767131, 0.00175672, 0.00667627, 0.00462916, 391.596, -102.276, 0.000250288, 0.00174886, 0.00390267, 0.00279292, 219.159, -46.6292, 0.000249612, 0.00174728, -10.6354, -15.2728, 332.737, -15.6733, -23.9708, 179.532, -0.00184943, -0.00195019, 0.00545923, -0.00108041, -0.00108041, -0.00108041
7797, 1,0.00904046, 0.00185213, 0.00125396, 347.028, 105.956, 0.0699717, 662.315, -216.323, 1, 0.00160439, 0.0108634, 0.00757965, 452.56, -151.545, 0.0734282, 0.00159578, 0.00723162, 0.00514464, 241.887, -86.103, 0.0723185, 0.00159401, 46.1596, 21.2198, 387.254, 37.4859, 19.0918, 201.731, -0.00269394, -0.00351275, 0.00877049, -0.0016681, -0.0016681, -0.0016681
7798, 1,0.0143026, 0.00299136, 0.00207653, 337.198, 116.463, 0.0769288, 841.061, -261.067, 1, 0.0014226, 0.0172616, 0.0126256, 453.337, -135.772, 0.193953, 0.00141251, 0.0113593, 0.00857305, 221.365, -58.1179, 0.157838, 0.00141048, 30.2433, -1.48663, 378.559, 9.41797, -10.5717, 175.508, -0.00472054, -0.00634879, 0.0135393, -0.00302807, -0.00302807, -0.00302807
7799, 1,0.0278012, 0.00440389, 0.00307053, 359.94, 119.718, 0.080811, 972.994, -328.66, 1, 0.00125831, 0.0321335, 0.023844, 479.434, -174.668, 0.480546, 0.00124804, 0.0234942, 0.0178397, 240.665, -86.2121, 0.40757, 0.00124548, 80.4896, 33.5961, 409.917, 44.4453, 14.3429, 199.848, -0.00836699, -0.0131177, 0.0253568, -0.00571715, -0.00571715, -0.00571715
7800, 1,0.00573761, 0.0010655, 0.000835598, 271.624, 59.5355, 0.0400412, 421.409, -90.8351, 0.652299, 0.00162815, 0.00678795, 0.00573879, 330.578, -58.2583, 0.0149634, 0.00162593, 0.00469343, 0.00410421, 212.945, -31.2951, 0.0149634, 0.00162521, 9.57787, 68.3137, 96.8833, 6.98081, 45.378, 41.5265, -0.000809261, 0.000494244, 0.0012686, -0.000403425, -0.000403425, -0.000403425
7801, 1,0.00812012, 0.00137248, 0.00102268, 362.953, 78.7486, 0.0409719, 408.897, -79.5844, 0.682137, 0.00136182, 0.00949156, 0.00724583, 441.686, -129.948, 0.0433648, 0.00136193, 0.00674912, 0.00520235, 284.229, -88.1726, 0.0433648, 0.00136098, 40.4254, 74.8689, 274.55, 34.4116, 52.6474, 177.459, -0.00174699, -0.000943891, 0.00485214, -0.00117331, -0.00117331, -0.00117331
7802, 1,0.00819222, 0.00167859, 0.00116093, 322.463, 99.3658, 0.0145732, 367.591, -29.6239, 0.153478, 0.00119029, 0.00983041, 0.00738283, 421.022, -88.8531, 0.045324, 0.00119142, 0.00657277, 0.00514395, 224.457, -26.6383, 0.045324, 0.00119019, -16.9655, -9.08648, 292.611, -25.1099, -37.1754, 142.2, -0.00241105, -0.00229926, 0.00618985, -0.00146037, -0.00146037, -0.00146037
7803, 1,0.00167525, -0.000701955, 0.000573752, 45.9959, -39.5944, 0.0128584, -15.3586, 277.334, 0.323375, 0.00174622, 0.00207646, 0.00297668, 58.5632, 53.8956, 0, 0.0017543, 0.00130119, 0.00194072, 34.6889, 36.9021, 0, 0.00175478, -14.2409, 54.3123, -201.758, -6.34598, 32.4259, -136.786, 0.000613649, 0.00199842, -0.00348605, 0.000517021, 0.000517021, 0.000517021
7804, 1,0.00298046, -0.000925334, 0.000689482, 93.2084, -53.2217, 0.0205948, 30.9654, 238.438, 0.517593, 0.00118223, 0.00343319, 0.00485914, 102.204, 72.9136, 0.00334228, 0.00118727, 0.00252807, 0.00348203, 84.2276, 42.8219, 0.00172912, 0.00118786, -18.7658, 67.1953, -267.17, -7.78088, 60.3432, -181.028, 0.000919872, 0.00265474, -0.00475932, 0.000667833, 0.000667833, 0.000667833
7805, 1,0.00373657, -0.000906089, 0.000661825, 62.368, -50.3773, 0.023012, -83.5878, 361.289, 0.591177, 0.00102406, 0.00415037, 0.00596667, 65.4261, 119.212, 0.0226854, 0.00103104, 0.00332358, 0.00464764, 59.4067, 84.4517, 0.0181126, 0.00103163, -58.5035, 43.7687, -342.901, -43.1956, 44.3068, -254.466, 0.00108314, 0.00349307, -0.00653463, 0.000799437, 0.000799437, 0.000799437
7806, 1,0.0062051, -0.00252115, 0.00169337, -8.41637, -145.243, 0.0450769, -73.4457, 673.254, 1, 0.000738059, 0.00699718, 0.012038, -14.584, 243.632, 0.130578, 0.000753313, 0.00542482, 0.00873799, -1.85173, 135.943, 0.125848, 0.000754739, -100.75, -75.2869, -554.859, -62.2384, -40.3933, -305.197, 0.00421372, 0.00501404, -0.0134903, 0.00301133, 0.00301133, 0.00301133
7807, 1,0.00552187, -0.00190626, 0.00130875, -33.0971, -110.65, 0.0425671, -47.1557, 583.34, 1, 0.000737662, 0.00602865, 0.0108459, -40.0154, 245.462, 0.116221, 0.00075043, 0.00502395, 0.00844236, -25.8986, 164.625, 0.112957, 0.000751488, -128.514, -128.885, -478.986, -97.8754, -87.6676, -308.331, 0.00306622, 0.00287387, -0.0101987, 0.00218269, 0.00218269, 0.00218269
7808, 1,0.00250846, -0.000971501, 0.000702718, 53.2139, -61.7626, 0.02435, -106.027, 434.433, 0.639469, 0.0011026, 0.00293501, 0.00458565, 57.7252, 110.127, 0, 0.00111276, 0.00208537, 0.00319095, 48.8754, 67.8574, 0, 0.00111352, 5.45694, -91.5531, -244.285, 10.2041, -50.4915, -163.285, 0.00194291, -0.000194592, -0.00353517, 0.00138158, 0.00138158, 0.00138158
7809, 1,0.00100877, -0.000482916, 0.000381289, 3.47979, -32.0223, 0.00555896, 136.708, 169.703, 0, 0.00136777, 0.00128736, 0.00172341, 7.56307, 71.9565, 0, 0.00136994, 0.000731027, 0.000965504, -0.597274, 47.3248, 0, 0.00137049, -4.52005, -118.061, -93.2882, -6.90267, -75.8139, -59.2579, 0.00106677, -0.00136423, -0.000870421, 0.000630123, 0.000630123, 0.000630123
7810, 1,0.00118067, -0.000535804, 0.000420286, 7.82822, -37.7428, 0.00483925, 93.7273, 181.786, 0, 0.00208762, 0.00148474, 0.00203349, 9.83037, 81.9158, 0, 0.002091, 0.000877126, 0.00119792, 5.88022, 48.6667, 0, 0.00209213, -15.8539, -76.6692, -153.224, -11.0079, -47.2727, -87.7196, 0.000985585, -0.000331818, -0.00198287, 0.000566509, 0.000566509, 0.000566509
7811, 1,0.00133952, -0.000589632, 0.00047422, 42.3621, -32.5957, 0.00320321, 71.761, 106.98, 0, 0.00194297, 0.0016969, 0.00230593, 54.5644, 34.4072, 0, 0.00194526, 0.000983226, 0.00136001, 30.2149, 21.8161, 0, 0.00194566, -9.01236, 52.8382, -147.047, -6.40597, 29.1003, -88.1428, 0.000376494, 0.00165984, -0.00259429, 0.000235281, 0.000235281, 0.000235281
7812, 1,0.00175796, -0.000530681, 0.00049478, 73.6221, -26.583, 0.00473985, 171.321, 70.7827, 0, 0.00188315, 0.0022167, 0.00246772, 93.8388, 14.6699, 0, 0.00188487, 0.0012993, 0.00147847, 53.4101, 10.7374, 0, 0.00188499, -7.51491, 92.6602, -129.155, -5.32088, 52.7905, -79.6819, 9.27781E-05, 0.00219162, -0.00252204, 7.89822E-05, 7.89822E-05, 7.89822E-05
7813, 1,0.00147283, 0.000392823, 0.000373119, 69.8369, 19.7729, 0.00366849, 149.177, 32.5122, 0, 0.00188951, 0.00186406, 0.00186009, 89.5324, -1.93468, 0, 0.00189056, 0.00108266, 0.00111827, 50.1941, 1.31146, 0, 0.00189046, -1.64418, 77.4271, -69.9789, -1.18633, 44.0587, -46.8067, -5.00632E-05, 0.00160749, -0.00152574, 1.18617E-05, 1.18617E-05, 1.18617E-05
7814, 1,0.00132648, 0.000379797, 0.000274241, 82.8002, 23.6623, 0.00239336, 119.328, -8.11549, 0, 0.00185796, 0.00170323, 0.0012238, 106.316, -34.3726, 0, 0.00185875, 0.000951987, 0.000688745, 59.394, -19.0307, 0, 0.00185829, 6.93611, 48.3029, 47.8788, 5.39216, 29.1882, 22.5119, -0.000389459, 0.00048021, 0.00046708, -0.000180571, -0.000180571, -0.000180571
7815, 1,0.0023253, 0.000665797, 0.000465592, 144.686, 41.6884, 0.00597669, 347.425, -86.4841, 0, 0.00182838, 0.0029891, 0.00211239, 186.23, -59.3959, 0, 0.00182757, 0.00166306, 0.00118768, 103.253, -32.008, 0, 0.00182676, 1.52117, 6.78534, 169.881, 1.65145, 2.2971, 92.0755, -0.000909002, -0.000792149, 0.00266478, -0.000476415, -0.000476415, -0.000476415
7816, 1,0.00129135, -0.000436326, 0.000396264, 52.5489, -22.0271, 0.00342004, 100.461, 82.1609, 0, 0.00195364, 0.00164505, 0.0019043, 67.8862, 13.1812, 0, 0.00195583, 0.000939447, 0.00111759, 37.3004, 9.48055, 0, 0.00195595, -3.05508, 50.2429, -86.7315, -1.69801, 28.2644, -55.0081, 0.000160806, 0.00126989, -0.00164431, 0.000132582, 0.000132582, 0.000132582
7817, 1,0.00151636, 0.000481311, 0.000372876, 84.1782, 28.4486, 0.0053729, 257.9, -5.02538, 0, 0.00185557, 0.00199157, 0.00158263, 112.315, -24.028, 0, 0.00185615, 0.00104646, 0.000846388, 56.3116, -8.72152, 0, 0.00185568, 0.635504, 32.8326, 38.6159, -1.65954, 15.5841, 12.24, -0.000360194, 0.00031445, 0.000435695, -0.000167722, -0.000167722, -0.000167722
7818, 1,0.00306646, 0.000877451, 0.000608325, 199.511, 54.5433, 0.0191315, 428.751, -87.2418, 0.225754, 0.00179229, 0.00394314, 0.00276145, 253.993, -89.347, 0, 0.00179199, 0.00219043, 0.00155659, 145.079, -54.3268, 0, 0.00179097, 8.96672, 32.5109, 226.564, 7.13337, 28.1954, 127.652, -0.00122964, -0.00071893, 0.00339812, -0.000718951, -0.000718951, -0.000718951
7819, 1,0.000877722, -0.00047666, 0.000340543, 20.6422, -27.6294, 0.0034591, 44.5687, 159.571, 0, 0.00211884, 0.00107747, 0.00166735, 25.0226, 34.6374, 0, 0.00212314, 0.000678998, 0.000998859, 16.3072, 21.0296, 0, 0.00212361, 6.37057, 3.98353, -114.266, 5.91808, 0.390934, -69.3979, 0.000704912, 0.000629226, -0.00189595, 0.000482826, 0.000482826, 0.000482826
7820, 1,0.00196793, 0.0005221, 0.000436923, 110.072, 28.6491, 0.0184451, 477.481, -170.77, 0.219283, 0.00178982, 0.00248185, 0.00199957, 138.298, -27.651, 0, 0.00178498, 0.0014599, 0.00114335, 82.1501, -16.9899, 0, 0.00178467, -0.686663, 41.4784, 42.1613, -0.671415, 32.4645, 19.1766, -0.0004438, 0.000430702, 0.000461844, -0.000275386, -0.000275386, -0.000275386
7821, 1,0.00466647, 0.00119412, 0.000832669, 261.609, 73.0575, 0.056811, 573.149, -300.055, 0.911361, 0.00170759, 0.00585972, 0.00419797, 334.608, -75.8133, 2.09455E-06, 0.00169283, 0.00347381, 0.00253675, 188.648, -31.3072, 6.60236E-07, 0.0016916, -27.958, -35.591, 290.989, -29.9165, -36.9068, 160.745, -0.00180749, -0.0019586, 0.00499588, -0.00115071, -0.00115071, -0.00115071
7822, 1,0.00847588, 0.00168458, 0.00118252, 337.389, 95.0226, 0.0777926, 888.179, -298.655, 1, 0.00155841, 0.0101387, 0.00729347, 432.093, -147.222, 0.0669399, 0.00154524, 0.00682284, 0.00503256, 242.953, -90.1337, 0.065094, 0.00154375, 57.8686, 1.11599, 382.68, 49.5223, 6.4315, 214.447, -0.00214777, -0.00399694, 0.0086258, -0.00122962, -0.00122962, -0.00122962
7823, 1,0.0169955, 0.00262249, 0.00182879, 340.7, 114.412, 0.0867487, 1118.42, -357.08, 1, 0.00137859, 0.0195398, 0.014435, 454.678, -140.279, 0.240397, 0.00136421, 0.0144785, 0.0109847, 227.137, -64.3482, 0.222759, 0.00136225, 67.8104, -27.2014, 380.228, 37.7258, -24.3668, 179.686, -0.00355994, -0.009164, 0.015352, -0.00204573, -0.00204573, -0.00204573
7824, 1,0.0330103, 0.0043433, 0.00301334, 386.32, 121.065, 0.0945683, 1314.6, -439.506, 1, 0.00121579, 0.0372, 0.0278224, 507.081, -221.736, 0.555917, 0.00120258, 0.0288641, 0.0219954, 265.884, -127.318, 0.49499, 0.00119975, 161.621, 66.7291, 436.859, 105.697, 52.1387, 224.118, -0.00614734, -0.0176651, 0.0290272, -0.00388726, -0.00388726, -0.00388726
7825, 1,0.00267935, 0.000628035, 0.000523894, 131.027, 33.67, 0.0343284, 461.716, -143.936, 0.529683, 0.00157841, 0.00328683, 0.00282203, 163.65, -10.3503, 0, 0.00157344, 0.00208315, 0.00182004, 98.9647, 0.310933, 0, 0.00157317, -2.74001, -20.8379, 54.6289, 0.0548003, -17.884, 16.8964, -0.000214504, -0.000650115, 0.00103257, 1.27493E-05, 1.27493E-05, 1.27493E-05
7826, 1,0.00591594, 0.000864926, 0.00067298, 261.256, 46.1085, 0.037297, 427.575, -94.7792, 0.591446, 0.00131867, 0.00672994, 0.0052439, 305.959, -71.9532, 0.0284913, 0.00131721, 0.0051186, 0.00400423, 217.143, -50.5066, 0.0274492, 0.00131675, 27.0747, -44.7277, 233.513, 28.374, -36.9867, 160.133, -0.000817562, -0.00283519, 0.00483913, -0.00036446, -0.00036446, -0.00036446
7827, 1,0.0110623, 0.00125712, 0.000916584, 333.734, 70.2949, 0.0243167, 416.081, -74.918, 0.333489, 0.00115338, 0.0122385, 0.00933095, 403.373, -146.505, 0.122596, 0.0011546, 0.00990401, 0.00769864, 264.446, -97.6931, 0.122596, 0.00115362, 58.6504, 19.1972, 361.667, 48.3329, 11.2718, 233.475, -0.00306077, -0.00484409, 0.0104565, -0.00221269, -0.00221269, -0.00221269
7828, 1,0.00137738, -0.000654675, 0.000483173, 13.189, -44.4251, 0.00559335, 23.9061, 284.699, 0.0190914, 0.00168602, 0.00168721, 0.00232184, 14.516, 88.4695, 0, 0.00169148, 0.00106908, 0.00140822, 11.888, 52.4011, 0, 0.00169247, -9.20799, -80.3362, -175.864, -0.350201, -58.426, -98.4271, 0.00123656, -0.000303519, -0.00236832, 0.000858505, 0.000858505, 0.000858505
7829, 1,0.00211522, -0.000906757, 0.000651142, -12.7219, -63.7046, 0.0131205, -81.5749, 467.314, 0.214043, 0.00115041, 0.00250776, 0.00410522, -14.8122, 180.037, 0, 0.00115697, 0.00172398, 0.00281812, -10.5593, 124.306, 0, 0.00115802, -70.1016, -126.033, -343.976, -49.7625, -90.0527, -233.101, 0.0014164, 0.000192033, -0.00452946, 0.000972592, 0.000972592, 0.000972592
7830, 1,0.00263044, -0.00100432, 0.000713101, 20.7614, -68.7929, 0.0191616, -69.0847, 425.136, 0.416241, 0.000994588, 0.00305133, 0.00472106, 19.6821, 166.709, 3.77669E-08, 0.00100085, 0.00220985, 0.00330154, 21.8951, 110.008, 3.77669E-08, 0.00100178, -86.1395, -68.4509, -345.538, -60.24, -41.8851, -227.898, 0.000921402, 0.00125384, -0.00487983, 0.000580535, 0.000580535, 0.000580535
7831, 1,0.00878707, -0.00301948, 0.0020132, -14.4373, -172.615, 0.0408432, -117.725, 638.665, 1, 0.000719524, 0.00967249, 0.0155777, -24.9988, 290.327, 0.195469, 0.000732713, 0.00792027, 0.011737, -3.42177, 154.717, 0.193191, 0.000734527, -181.334, -123.245, -566.402, -108.72, -65.0814, -290.35, 0.0031828, 0.00568513, -0.0141545, 0.00201094, 0.00201094, 0.00201094
7832, 1,0.00673742, -0.00245488, 0.00166215, -29.1116, -146.416, 0.0405371, -186.243, 657.104, 1, 0.000719969, 0.00737783, 0.0125168, -39.4743, 286.513, 0.132146, 0.000733859, 0.00611045, 0.00945193, -18.3969, 173.95, 0.130629, 0.000735309, -169.419, -214.116, -476.005, -118.092, -130.674, -273.084, 0.00274099, 0.0010958, -0.00885557, 0.00167326, 0.00167326, 0.00167326
7833, 1,0.00287781, -0.00147501, 0.00105754, 46.0523, -96.4208, 0.0165709, -157.294, 450.185, 0.479395, 0.00106589, 0.00350972, 0.00559507, 49.1254, 158.692, 3.52993E-05, 0.00107381, 0.00225121, 0.003503, 43.3206, 87.0034, 2.41548E-06, 0.00107506, -15.907, -225.646, -234.523, -5.88327, -122.948, -132.179, 0.00221612, -0.00225492, -0.00253632, 0.00130111, 0.00130111, 0.00130111
7834, 1,0.00196512, -0.00092371, 0.000721176, 29.4631, -61.1543, 0.00830804, 163.536, 191.867, 0.0457097, 0.0013106, 0.00247794, 0.00327633, 36.1928, 109.512, 0, 0.00131246, 0.00145665, 0.00185026, 22.9862, 62.5358, 0, 0.00131346, 7.82606, -239.454, -96.9088, 3.06323, -135.171, -55.4995, 0.00191757, -0.00334062, -0.000354364, 0.00107844, 0.00107844, 0.00107844
7835, 1,0.00154242, -0.000622633, 0.000522197, 8.60353, -47.8882, 0.00487108, 98.0309, 177.759, 0, 0.00201842, 0.00196189, 0.00240145, 9.97194, 111.846, 0, 0.00202058, 0.00112474, 0.00136377, 7.35957, 62.3183, 0, 0.0020222, -11.9841, -136.366, -187.188, -8.18132, -77.3291, -101.445, 0.00152375, -0.00112358, -0.00221502, 0.000825721, 0.000825721, 0.000825721
7836, 1,0.00101805, -0.000675959, 0.000471601, 17.8096, -40.9964, 0.00270726, 71.4911, 75.8899, 0, 0.00187965, 0.00128465, 0.00217035, 21.3894, 52.8988, 0, 0.00188035, 0.000751708, 0.00122952, 14.2416, 28.6501, 0, 0.00188109, -10.4392, 18.3096, -166.567, -7.85364, 12.4626, -90.5593, 0.000626659, 0.00122047, -0.00270526, 0.000300727, 0.000300727, 0.000300727
7837, 1,0.00147457, -0.000614887, 0.000502662, 55.0242, -34.0107, 0.00363723, 147.795, 32.3907, 0, 0.00182166, 0.001865, 0.00231708, 68.5448, 26.3362, 0, 0.00182183, 0.00108415, 0.00131258, 41.5041, 13.0862, 0, 0.00182223, -6.86702, 67.3015, -139.443, -4.68607, 40.7949, -75.3675, 0.00028065, 0.0018388, -0.00254652, 0.000119075, 0.000119075, 0.000119075
7838, 1,0.00124729, -0.000434979, 0.000385157, 55.0714, -22.5959, 0.0028871, 135.573, 1.27617, 0, 0.00182764, 0.00158248, 0.00172827, 68.8798, 8.07973, 0, 0.00182743, 0.000912197, 0.00095838, 41.269, 2.62147, 0, 0.0018276, -1.49669, 56.1447, -78.8872, -1.12805, 33.7561, -40.4925, 0.000100978, 0.00131491, -0.00154684, 2.31552E-05, 2.31552E-05, 2.31552E-05
7839, 1,0.00120069, 0.000294254, 0.000241544, 74.6441, 16.7494, 0.0033275, 184.807, -36.7305, 0, 0.00179726, 0.00149204, 0.00113302, 91.2437, -27.1378, 0, 0.00179698, 0.00091151, 0.000661739, 58.1542, -19.5294, 0, 0.00179676, 7.33704, 34.5384, 39.5381, 6.10508, 22.0993, 30.3839, -0.000275762, 0.000302928, 0.000413124, -0.000182821, -0.000182821, -0.000182821
7840, 1,0.00233891, 0.000544977, 0.000383599, 140.423, 33.9141, 0.00749195, 412.649, -78.5925, 0.000122687, 0.00176782, 0.00288106, 0.00203505, 174.162, -49.8107, 0, 0.00176699, 0.00179841, 0.00127432, 106.786, -28.0167, 0, 0.00176637, -6.22294, -6.40909, 162.064, -5.62603, -8.90641, 98.5826, -0.000926621, -0.0009203, 0.00265486, -0.00057295, -0.00057295, -0.00057295
7841, 1,0.00104069, -0.000507579, 0.000389044, 36.0572, -29.3353, 0.00291308, 92.5875, 60.6808, 0, 0.00188963, 0.00131097, 0.0017478, 43.4993, 25.1036, 0, 0.00189073, 0.000770551, 0.000972122, 28.6212, 10.7694, 0, 0.00189117, -1.00202, 22.157, -96.4656, 0.138764, 15.2299, -47.6768, 0.000380727, 0.000863379, -0.00165131, 0.000179707, 0.000179707, 0.000179707
7842, 1,0.00138079, 0.000363018, 0.000320105, 79.6285, 19.6064, 0.00797146, 394.857, -47.502, 0.00737209, 0.00179548, 0.00173807, 0.0014277, 98.9657, -21.7181, 3.87229E-07, 0.00179472, 0.00102813, 0.000806929, 60.5064, -15.1728, 3.87229E-07, 0.00179453, 4.71093, 19.3076, 41.1359, 2.64051, 10.8921, 31.9859, -0.000246248, 6.44497E-05, 0.00053412, -0.00018778, -0.00018778, -0.00018778
7843, 1,0.00286704, 0.000750552, 0.000521873, 181.781, 46.5207, 0.0279133, 483.693, -170.776, 0.396949, 0.00173652, 0.00361719, 0.00258841, 228.283, -74.9541, 1.63153E-07, 0.00173246, 0.00211719, 0.00154555, 135.293, -45.4298, 1.63153E-07, 0.00173163, 3.1547, 12.0288, 209.679, 2.06895, 9.74451, 124.476, -0.00112622, -0.000926933, 0.003269, -0.000687107, -0.000687107, -0.000687107
7844, 1,0.00114082, -0.000538316, 0.000418424, 26.1789, -35.2263, 0.00239661, 45.5104, 91.1481, 0, 0.00205044, 0.00143635, 0.00188094, 30.3846, 50.8828, 0, 0.00205178, 0.000847152, 0.00105107, 22.0693, 24.645, 0, 0.00205265, 11.3591, -32.0722, -131.935, 8.64835, -15.417, -67.1664, 0.0010504, 0.000121989, -0.00199795, 0.000580879, 0.000580879, 0.000580879
7845, 1,0.00125107, 0.000363667, 0.000351413, 50.3166, 17.5328, 0.0242007, 527.12, -246.212, 0.333052, 0.00173325, 0.00161193, 0.00153054, 67.6857, 13.1441, 0, 0.0017244, 0.000892338, 0.000835169, 33.0611, 14.0223, 0, 0.00172437, -20.392, -18.1817, -0.858648, -19.8732, -17.0939, -5.09994, -0.000228042, -0.000190826, 0.000205456, -0.000204036, -0.000204036, -0.000204036
7846, 1,0.00421336, 0.00105759, 0.000745455, 258.702, 64.1664, 0.0654177, 638.991, -308.297, 1, 0.00165388, 0.0052638, 0.00369872, 322.656, -97.9691, 0, 0.00163786, 0.00316771, 0.00222041, 194.892, -60.0969, 0, 0.00163686, -6.54748, -3.10232, 303.557, -4.82452, -0.505171, 185.621, -0.00170269, -0.001625, 0.00491687, -0.00107366, -0.00107366, -0.00107366
7847, 1,0.00996466, 0.00157526, 0.00111159, 316.319, 86.8287, 0.0815389, 979.332, -314.621, 1, 0.00150735, 0.011514, 0.00820472, 402.853, -121.183, 0.0989622, 0.00149314, 0.00842454, 0.00617791, 230.006, -67.0964, 0.0964481, 0.00149176, 14.3999, -20.5574, 369.707, 10.1055, -17.7298, 208.913, -0.00346238, -0.00481112, 0.0103542, -0.00248747, -0.00248747, -0.00248747
7848, 1,0.0220731, 0.00234258, 0.00159145, 361.783, 112.328, 0.0931332, 1268.78, -404.751, 1, 0.00133504, 0.0243942, 0.0183491, 474.047, -176.849, 0.321137, 0.00131996, 0.0197569, 0.0152881, 249.583, -100.227, 0.315328, 0.00131795, 82.9641, 11.0653, 436.516, 58.2695, 14.1649, 228.246, -0.00633666, -0.0118534, 0.0216853, -0.00490377, -0.00490377, -0.00490377
7849, 1,0.0316269, 0.00363953, 0.00252532, 382.969, 121.161, 0.10276, 1416.13, -481.621, 1, 0.00117625, 0.0350954, 0.0267183, 503.715, -220.505, 0.430147, 0.00116108, 0.0281988, 0.0220025, 262.662, -124.178, 0.388184, 0.00115861, 155.712, 63.7239, 442.079, 100.851, 47.4605, 224.223, -0.00713386, -0.0169164, 0.0287567, -0.0051065, -0.0051065, -0.0051065
7850, 1,0.002448, 0.000391235, 0.000382987, 132.577, -18.2884, 0.0379675, 461.19, -137.088, 0.591469, 0.00152597, 0.00280487, 0.0023443, 149.098, -21.442, 0, 0.00152144, 0.00210682, 0.00167503, 116.726, -22.9886, 0, 0.00152148, -13.3534, -30.3028, 107.982, -8.48826, -17.0768, 94.5308, -0.000628744, -0.00102154, 0.00199804, -0.000551439, -0.000551439, -0.000551439
7851, 1,0.00551928, 0.000520608, 0.000428028, 239.978, 22.7806, 0.042655, 428.997, -89.6129, 0.683123, 0.00127332, 0.0060263, 0.0044546, 262.276, -60.1097, 0.029648, 0.00127159, 0.00501542, 0.00366914, 217.797, -52.1293, 0.0257649, 0.00127142, -8.58294, -36.3203, 225.232, -4.22745, -25.2759, 185.891, -0.00164083, -0.0024586, 0.00509095, -0.0013611, -0.0013611, -0.0013611
7852, 1,0.0108994, 0.000802642, 0.000591162, 306.434, 40.0277, 0.0347682, 395.004, -50.4597, 0.535005, 0.00111245, 0.0116164, 0.00838447, 345.855, -147.863, 0.137024, 0.00111405, 0.0101954, 0.0074319, 267.255, -124.439, 0.137024, 0.00111359, 87.8514, 47.237, 308.502, 88.0151, 51.2927, 234.008, -0.00249497, -0.00470188, 0.0097943, -0.00179496, -0.00179496, -0.00179496
7853, 1,0.00177722, -0.000846793, 0.000640978, 8.18512, -59.9218, 0.00386407, 21.4489, 216.898, 0, 0.00162858, 0.00220923, 0.00311783, 8.71474, 129.509, 0, 0.00163089, 0.0013474, 0.0018448, 7.79069, 76.1145, 0, 0.00163231, -16.9203, -121.365, -250.242, -10.9185, -74.0469, -143.378, 0.00169209, -0.000524842, -0.00326863, 0.000979764, 0.000979764, 0.000979764
7854, 1,0.00234673, -0.00126002, 0.00088746, -6.47289, -87.9216, 0.00865597, -12.402, 382.745, 0.0810366, 0.00112086, 0.00285458, 0.00506973, -10.8352, 197.151, 0, 0.00112457, 0.00184315, 0.00332146, -1.8637, 121.03, 0, 0.00112596, -56.2665, -149.845, -385.341, -36.6438, -91.9878, -234.458, 0.00192578, -4.16286E-05, -0.00508303, 0.00114393, 0.00114393, 0.00114393
7855, 1,0.00241948, -0.00153425, 0.00102268, -29.7415, -101.78, 0.0136724, -73.3045, 404.904, 0.28199, 0.000966098, 0.00289541, 0.00607383, -36.2959, 232.389, 0, 0.000969996, 0.00197421, 0.00408591, -21.6775, 153.98, 0, 0.000971231, -94.7543, -130.993, -471.42, -67.2813, -89.0882, -305.572, 0.00167661, 0.000952823, -0.00640004, 0.0010241, 0.0010241, 0.0010241
7856, 1,0.0116063, -0.00359921, 0.00235321, -25.2786, -199.952, 0.0421484, -73.5869, 551.713, 1, 0.000701177, 0.0126387, 0.0196045, -36.1244, 338.538, 0.264277, 0.000710931, 0.0105767, 0.014987, -14.3702, 180.328, 0.261991, 0.000713077, -202.802, -128.954, -683.858, -121.942, -66.2622, -352.78, 0.00457868, 0.00829976, -0.019321, 0.00307448, 0.00307448, 0.00307448
7857, 1,0.00654391, -0.00295737, 0.00196173, -69.2043, -179.201, 0.0428019, -170.834, 610.751, 1, 0.000702001, 0.00733519, 0.013328, -83.3155, 350.443, 0.132167, 0.000713528, 0.00576511, 0.00961586, -54.7448, 211.409, 0.131447, 0.000715269, -177.388, -304.92, -569.02, -126.082, -190.19, -317.956, 0.0040779, -0.000315875, -0.00990094, 0.00262983, 0.00262983, 0.00262983
7858, 1,0.00318778, -0.00190178, 0.00133095, 27.3391, -124.199, 0.0168079, -129.073, 443.282, 0.433769, 0.00102963, 0.00394733, 0.00663631, 27.304, 209.247, 0.00304293, 0.00103592, 0.00242858, 0.00397659, 27.3993, 114.271, 0.00223874, 0.00103752, 1.13478, -335.249, -293.629, 11.1166, -193.827, -160.102, 0.00342006, -0.00382698, -0.00299435, 0.00211422, 0.00211422, 0.00211422
7859, 1,0.00252138, -0.00130246, 0.000976762, 26.8972, -87.5745, 0.00946083, 133.282, 222.861, 0.0800768, 0.00125522, 0.00317119, 0.00459769, 31.5893, 159.599, 0, 0.00125672, 0.00187241, 0.0026469, 22.2679, 89.7147, 0, 0.00125815, 14.0867, -361.958, -130.926, 9.80156, -206.952, -71.9937, 0.00282326, -0.00514364, -0.000269829, 0.00163321, 0.00163321, 0.00163321
7860, 1,0.00170518, -0.000754025, 0.000621574, -2.4454, -60.3547, 0.00343474, 24.8456, 184.819, 0, 0.00195024, 0.00219302, 0.00274152, -4.09976, 145.091, 0, 0.0019515, 0.00121839, 0.00150145, -0.725548, 78.71, 0, 0.0019536, -16.3308, -175.923, -243.019, -9.09821, -96.8532, -130.178, 0.00194342, -0.00143706, -0.00286067, 0.00105189, 0.00105189, 0.00105189
7861, 1,0.000945767, -0.000815263, 0.00055654, 5.50668, -52.0476, 0.00352255, 135.445, 41.735, 0, 0.00181681, 0.00123325, 0.00234825, 5.55023, 71.1768, 0, 0.00181595, 0.000676885, 0.00125707, 6.2671, 34.879, 0, 0.00181701, -6.95401, -2.38275, -204.194, -4.06482, 3.88805, -104.46, 0.000977166, 0.00107049, -0.00320243, 0.000467226, 0.000467226, 0.000467226
7862, 1,0.00137173, -0.00073714, 0.00055196, 44.5889, -43.3073, 0.00355864, 173.587, -7.23974, 0, 0.00176016, 0.00173847, 0.00237487, 53.4533, 38.5909, 0, 0.00175885, 0.00100503, 0.00127231, 35.726, 15.8368, 0, 0.0017595, -5.51679, 52.26, -162.516, -3.28677, 34.9849, -79.2086, 0.000491943, 0.00171354, -0.00283149, 0.000181015, 0.000181015, 0.000181015
7863, 1,0.00115348, -0.000553904, 0.000439388, 47.1423, -31.3264, 0.0034341, 197.831, -47.5411, 0, 0.00176604, 0.00147664, 0.0017565, 57.264, 17.0353, 0, 0.00176419, 0.000831992, 0.000884368, 37.0947, 3.17181, 0, 0.00176459, -2.21922, 45.2559, -94.1426, -1.5009, 29.3202, -37.3347, 0.000215401, 0.00122554, -0.00171731, 1.1872E-05, 1.1872E-05, 1.1872E-05
7864, 1,0.00120426, 0.0002679, 0.000261078, 66.9379, 13.0564, 0.00578985, 347.076, -98.5732, 0, 0.00173709, 0.0014397, 0.00112685, 78.4818, -13.4931, 0, 0.00173469, 0.000991643, 0.000709597, 56.4687, -12.4742, 0, 0.00173466, -5.41235, 20.6331, 25.2586, -5.96414, 10.7465, 32.6404, -0.000343945, 0.000223562, 0.000339134, -0.000341122, -0.000341122, -0.000341122
7865, 1,0.00222287, 0.000431139, 0.000297731, 144.234, 26.8547, 0.0134156, 453.245, -132.067, 0.117267, 0.00170868, 0.00264463, 0.00186444, 170.639, -60.6841, 0, 0.00170645, 0.0018057, 0.00128532, 118.045, -43.4535, 0, 0.00170597, 8.92823, 11.0043, 162.12, 8.92065, 8.49032, 112.95, -0.000791856, -0.000723283, 0.00249938, -0.000523543, -0.000523543, -0.000523543
7866, 1,0.000998728, -0.00063649, 0.000448113, 23.9999, -39.0163, 0.00468158, 217.129, 5.65803, 0, 0.00182684, 0.00124452, 0.00188086, 26.7533, 43.653, 0, 0.00182572, 0.000761305, 0.00101426, 21.613, 19.6332, 0, 0.00182643, -8.7741, 4.61828, -126.803, -7.52439, 5.36446, -56.7396, 0.000496324, 0.000784305, -0.00198891, 0.000144355, 0.000144355, 0.000144355
7867, 1,0.00147516, -0.000350484, 0.000347175, 81.4504, -16.4871, 0.0149023, 459.375, -141.111, 0.146783, 0.0017368, 0.00180809, 0.00158721, 97.2432, -14.3757, 0, 0.00173288, 0.00115025, 0.000931802, 66.0332, -14.2118, 0, 0.00173288, 7.31209, 19.3079, 16.507, 5.26913, 12.6974, 24.669, -9.07492E-05, 0.000178347, 0.000145459, -0.000132977, -0.000132977, -0.000132977
7868, 1,0.00312238, 0.00064324, 0.000439404, 201.939, 39.9287, 0.0392445, 500.741, -192.009, 0.605786, 0.00167878, 0.00376306, 0.00251088, 241.657, -83.7956, 0, 0.00167317, 0.00248307, 0.00164882, 162.333, -58.4316, 0, 0.00167248, 15.8959, 17.9334, 217.558, 14.7044, 15.0979, 145.492, -0.00101245, -0.000945678, 0.0033173, -0.000642075, -0.000642075, -0.000642075
7869, 1,0.00101492, -0.00068634, 0.00051882, 3.46763, -46.4073, 0.00462477, 199.226, 26.0094, 0, 0.00198204, 0.00135991, 0.00219784, 5.70864, 79.5796, 0, 0.00198031, 0.000681532, 0.00118377, 1.87899, 42.0457, 0, 0.00198152, -3.6709, -43.7836, -191.284, -5.72785, -18.6053, -101.804, 0.00116983, 0.000325618, -0.00278674, 0.00053545, 0.00053545, 0.00053545
7870, 1,0.0017133, -0.0004315, 0.000395762, 102.883, -22.1444, 0.0329827, 515.604, -221.094, 0.49535, 0.00167298, 0.00205817, 0.00196097, 117.516, -24.9075, 0, 0.00166537, 0.00137865, 0.00123033, 88.6507, -29.6469, 0, 0.0016655, 31.7067, 15.8627, 27.1532, 30.4858, 16.1007, 42.3542, 0.000255848, -7.81082E-05, 0.000226197, 0.000153591, 0.000153591, 0.000153591
7871, 1,0.00446683, 0.000946852, 0.000653275, 267.433, 57.6232, 0.0696013, 686.326, -258.877, 1, 0.00159401, 0.00541152, 0.00379627, 324.936, -92.6188, 0.000329814, 0.0015813, 0.00352335, 0.00252999, 209.996, -57.6142, 8.66664E-05, 0.00158041, -19.7196, 0.18117, 297.395, -19.6103, 0.332449, 192.12, -0.00192508, -0.0014787, 0.00490627, -0.00137124, -0.00137124, -0.00137124
7872, 1,0.0114636, 0.00141974, 0.000982523, 313.503, 77.0583, 0.0827698, 1010.67, -324.031, 1, 0.00145647, 0.0128721, 0.00912107, 390.505, -126.907, 0.13288, 0.00144245, 0.010058, 0.00728155, 236.539, -77.6514, 0.129761, 0.0014412, 1.70773, 7.35504, 371.659, 1.35016, 4.99378, 226.61, -0.00508249, -0.00479994, 0.0121058, -0.00422257, -0.00422257, -0.00422257
7873, 1,0.0206021, 0.00201265, 0.00135381, 337.157, 99.0648, 0.0942768, 1297.33, -420.59, 1, 0.00129283, 0.0226056, 0.0168875, 436.193, -151.396, 0.288131, 0.00127675, 0.0186003, 0.0142595, 238.143, -80.9597, 0.281434, 0.00127501, 34.7598, 12.4602, 406.969, 18.8979, 3.46943, 220.512, -0.00801355, -0.00965934, 0.020599, -0.00676868, -0.00676868, -0.00676868
7874, 1,0.0251676, 0.00235698, 0.0016205, 373.409, 114.214, 0.104958, 1432.34, -480.425, 1, 0.00113923, 0.0274551, 0.0204967, 487.453, -197.152, 0.252171, 0.00112348, 0.0228928, 0.0174341, 259.541, -117.337, 0.244222, 0.00112178, 92.3073, 50.3281, 448.819, 70.4687, 45.283, 236.259, -0.00883867, -0.0119039, 0.0244638, -0.00737116, -0.00737116, -0.00737116
7875, 1,0.0027614, -0.000436229, 0.00038983, 150.37, -23.1109, 0.0452214, 457.864, -126.072, 0.717727, 0.0014731, 0.00307644, 0.00262012, 163.102, -22.4008, 0, 0.00146862, 0.00245716, 0.00191338, 138.059, -29.1237, 0, 0.00146878, -5.68873, 8.68803, 64.2032, -5.56763, 15.9318, 77.0068, -0.00050386, -0.000224232, 0.00109126, -0.000610037, -0.000610037, -0.000610037
7876, 1,0.00472627, -0.000263611, 0.000217712, 227.828, -11.8115, 0.0490897, 430.915, -83.0066, 0.785901, 0.00122771, 0.00486698, 0.00355817, 227.352, -64.3932, 0.0223204, 0.00122606, 0.0045893, 0.00327704, 228.429, -72.3493, 0.0184168, 0.00122622, -3.48128, 17.7095, 178.951, -1.22052, 30.4221, 187.846, -0.00158969, -0.00102916, 0.00367649, -0.00164443, -0.00164443, -0.00164443
7877, 1,0.0068892, -0.000483206, 0.000398529, 246.972, -15.9939, 0.0434121, 431.776, -109.705, 0.691259, 0.0010753, 0.00687327, 0.00534666, 241.472, -95.1223, 0.0670783, 0.00107391, 0.00693405, 0.00522513, 253.176, -105.952, 0.0669881, 0.0010741, 44.8043, 10.573, 229.99, 54.8334, 29.0156, 234.007, -0.00176515, -0.00319839, 0.00656643, -0.00174815, -0.00174815, -0.00174815
7878, 1,0.00170917, -0.00104643, 0.000776091, -2.54006, -74.0851, 0.0023153, 2.72969, 143.48, 0, 0.00157169, 0.00220723, 0.00350652, -3.69584, 146.112, 0, 0.00157163, 0.00121934, 0.00197669, -0.939431, 79.9334, 0, 0.00157332, -13.1341, -105.962, -319.241, -8.02226, -49.8318, -181.946, 0.00201357, 6.1628E-05, -0.0044461, 0.00107994, 0.00107994, 0.00107994
7879, 1,0.00260877, -0.00164438, 0.00115551, -13.075, -112.187, 0.00517617, 27.0401, 292.046, 0, 0.00108864, 0.0032741, 0.00592039, -16.0931, 229.66, 0, 0.00108974, 0.0019449, 0.00362124, -10.0227, 137.006, 0, 0.00109138, -35.8544, -171.964, -481.161, -22.2487, -103.764, -285.006, 0.00284088, -4.42133E-06, -0.00656301, 0.00166963, 0.00166963, 0.00166963
7880, 1,0.00384924, -0.00220975, 0.00149899, -25.62, -140.347, 0.00689489, -28.7009, 325.538, 0.0794811, 0.000937216, 0.00455387, 0.00872336, -30.0678, 297.955, 0.017718, 0.00093782, 0.00318119, 0.00589164, -19.5632, 197.132, 0.017718, 0.000939371, -93.6055, -222.07, -578.189, -76.315, -164.876, -350.205, 0.00305122, 0.000149769, -0.00808411, 0.00178838, 0.00178838, 0.00178838
7881, 1,0.0120457, -0.00439172, 0.00292467, -39.3052, -197.63, 0.0366189, -84.4994, 444.19, 1, 0.000679689, 0.013439, 0.0220344, -51.0877, 325.547, 0.336539, 0.000686387, 0.0106526, 0.0162521, -27.5177, 173.93, 0.308973, 0.000688513, -132.297, -143.742, -700.603, -80.251, -77.1886, -364.349, 0.00884836, 0.00833814, -0.0236897, 0.00643595, 0.00643595, 0.00643595
7882, 1,0.0067235, -0.00333077, 0.00223647, -47.6519, -189.138, 0.035934, -118.535, 463.274, 0.944589, 0.000685201, 0.00779058, 0.0138416, -55.9635, 324.774, 0.142161, 0.000692209, 0.00567293, 0.00945767, -38.9273, 183.871, 0.134795, 0.00069394, -82.8028, -282.658, -608.863, -57.9999, -164.128, -329.485, 0.00682053, -0.000281513, -0.0122629, 0.0047816, 0.0047816, 0.0047816
7883, 1,0.00345046, -0.00214035, 0.00150588, 23.8006, -140.902, 0.0158777, -63.8419, 379.162, 0.369052, 0.000995344, 0.00432148, 0.00730326, 25.2508, 241.42, 0, 0.000999165, 0.00257973, 0.00429477, 22.3774, 134.683, 0, 0.0010009, 11.9345, -382.252, -353.943, 13.7455, -223.654, -194.142, 0.00405378, -0.00426995, -0.00370143, 0.00241253, 0.00241253, 0.00241253
7884, 1,0.00263932, -0.00151187, 0.00112828, 11.177, -103.366, 0.00623427, 94.067, 269.512, 0, 0.00120014, 0.00338257, 0.0051486, 14.387, 195.898, 0, 0.00120158, 0.00189725, 0.0028952, 8.04105, 110.164, 0, 0.00120325, 7.4094, -423.767, -171.336, 2.79603, -240.122, -93.1658, 0.00324305, -0.00587993, -0.000542302, 0.00179596, 0.00179596, 0.00179596
7885, 1,0.00227574, 0.000734176, 0.000502021, 145.311, 46.4869, 0.00539465, 338.583, -112.233, 0, 0.00175718, 0.00300919, 0.00205525, 191.754, -66.173, 0, 0.00175587, 0.00154299, 0.00105309, 98.9077, -34.5247, 0, 0.00175496, -0.296299, 14.2655, 184.55, 0.676843, 8.62935, 94.268, -0.00104472, -0.000741055, 0.00285957, -0.000526251, -0.000526251, -0.000526251
7886, 1,0.00194309, 0.000656441, 0.000456541, 124.619, 41.92, 0.00414258, 264.72, -92.47, 0, 0.00185078, 0.00259869, 0.00181902, 166.493, -58.364, 0, 0.00184976, 0.00128834, 0.000908466, 82.7908, -29.1006, 0, 0.00184888, -1.30186, 14.5687, 161.825, -0.429841, 8.12728, 79.6044, -0.000943515, -0.000611125, 0.00250173, -0.000464577, -0.000464577, -0.000464577
7887, 1,0.00203785, 0.000686875, 0.000477612, 129.455, 43.843, 0.0044252, 285.494, -102.499, 0, 0.00189198, 0.00272322, 0.00191029, 173.219, -59.5718, 0, 0.00189067, 0.00135399, 0.00095895, 85.7701, -29.0079, 0, 0.00188973, -0.208403, 14.3124, 164.611, -0.232086, 7.30343, 79.9523, -0.00094168, -0.000635456, 0.0025438, -0.000461278, -0.000461278, -0.000461278
7888, 1,0.00096361, 0.000352394, 0.00025258, 59.9923, 23.4502, 0.00324962, 153.611, 0.0438465, 0, 0.00183678, 0.00129037, 0.000904066, 82.257, -28.3137, 0, 0.00183763, 0.000657092, 0.000501232, 38.6611, -10.0091, 0, 0.00183708, -0.218913, 48.0868, 37.0731, -0.624921, 26.2693, 4.38302, -0.000433372, 0.000570687, 0.000322396, -0.000152561, -0.000152561, -0.000152561
7889, 1,0.000549592, 0.000235145, 0.00019928, 44.7719, 18.8428, 0.00244359, 133.555, -24.2642, 0, 0.00189354, 0.000674205, 0.000611846, 58.4743, -35.6423, 0, 0.00189389, 0.000439985, 0.000334162, 31.8078, -14.8104, 0, 0.00189325, 2.44296, 56.466, 48.0181, 1.15522, 31.45, 11.8259, -0.00049561, 0.000633241, 0.000440979, -0.000193873, -0.000193873, -0.000193873
7890, 1,0.00106245, 0.00034147, 0.000258924, 71.3085, 24.4165, 0.00279224, 153.682, -29.1574, 0, 0.00191375, 0.00137634, 0.000995094, 94.4356, -39.5375, 0, 0.00191407, 0.000765452, 0.000516529, 48.978, -17.2566, 0, 0.00191338, 3.17357, 61.6702, 53.7687, 1.68053, 34.9594, 15.1297, -0.000543406, 0.000682077, 0.000503135, -0.000223314, -0.000223314, -0.000223314
7891, 1,0.00122996, 0.000314514, 0.000258427, 57.3637, 17.8646, 0.00437308, 161.364, 60.8944, 0, 0.00216593, 0.00153867, 0.0015437, 74.9622, -2.93763, 0, 0.00216818, 0.000924075, 0.00104332, 39.8937, 5.12741, 0, 0.00216789, 3.87189, 74.4841, -69.5431, 2.11533, 39.2286, -56.7262, 5.65277E-05, 0.00152996, -0.00153844, 0.000148434, 0.000148434, 0.000148434
7892, 1,0.00140621, 0.000350427, 0.000262361, 70.0199, 20.7482, 0.00458849, 181.655, 47.2959, 0, 0.00201201, 0.00175632, 0.00159943, 90.7547, -10.4162, 0, 0.00201389, 0.00105627, 0.00107606, 49.2917, 0.832349, 0, 0.00201352, -0.250423, 89.6528, -58.1537, -0.876883, 48.4238, -50.0439, -0.000148392, 0.00173291, -0.0014151, 1.73559E-05, 1.73559E-05, 1.73559E-05
7893, 1,0.00169875, 0.000425672, 0.000324195, 87.4064, 24.9188, 0.0050429, 204.168, 45.888, 0, 0.00195269, 0.0021235, 0.00188887, 112.28, -16.0744, 0, 0.00195466, 0.00127448, 0.00124281, 62.5568, -3.17147, 0, 0.00195425, 0.446258, 106.032, -58.255, -0.0804193, 59.1883, -49.5935, -0.000221861, 0.00199029, -0.00150715, -2.79451E-05, -2.79451E-05, -2.79451E-05
7894, 1,0.00216542, 0.000552453, 0.000495149, 100.013, 28.8258, 0.00660828, 229.915, 71.1879, 0.0163327, 0.00193488, 0.00271786, 0.00271162, 128.838, -0.529867, 0, 0.00193715, 0.00161299, 0.00172136, 71.1881, 6.76887, 0, 0.00193692, -4.09879, 128.071, -122.383, -3.60081, 70.7388, -87.4446, -6.86736E-05, 0.00270152, -0.00262373, 5.92256E-05, 5.92256E-05, 5.92256E-05
7895, 1,0.0017743, 0.000468993, 0.000420708, 79.694, 24.4684, 0.00525332, 191.927, 75.7029, 0, 0.00201209, 0.00224328, 0.00228448, 104.162, 2.49525, 0, 0.00201448, 0.00130534, 0.00144322, 55.2268, 8.68405, 0, 0.00201428, -2.62163, 103.859, -108.723, -2.60768, 55.0147, -78.4592, 6.68678E-06, 0.00223687, -0.00228362, 0.000106681, 0.000106681, 0.000106681
7896, 1,0.00104733, 0.000316005, 0.000307284, 36.7588, 15.2747, 0.00290157, 53.0844, 112.884, 0, 0.00216531, 0.00136167, 0.00161398, 51.954, 16.6547, 0, 0.00216869, 0.000734023, 0.00100412, 21.6124, 17.5668, 0, 0.00216866, -2.63999, 48.9005, -96.2246, -2.39913, 18.8774, -69.1788, 0.000222159, 0.00129709, -0.00178924, 0.00024352, 0.00024352, 0.00024352
7897, 1,0.000477443, -0.000193561, 0.000176012, 11.1195, -9.02389, 0.00244599, 56.1326, 79.7223, 0, 0.00138391, 0.000593544, 0.00093519, 16.7654, 14.9974, 0, 0.00138537, 0.000406784, 0.000667439, 7.67225, 15.414, 0, 0.00138536, 11.1578, -3.40692, -52.7429, 6.93096, -15.6442, -37.5288, 0.000477392, 0.000163972, -0.000884714, 0.000395747, 0.000395747, 0.000395747
7898, 1,0.000801736, -0.000378434, 0.000273926, 1.75335, -22.8245, 0.00475637, 85.5346, 178.928, 0.00399633, 0.00120438, 0.00094687, 0.00181173, 3.67225, 54.8609, 0, 0.00120681, 0.000673887, 0.00131482, 0.709146, 41.7623, 0, 0.00120707, 0.753515, -33.6649, -131.671, -0.114898, -33.3573, -91.8146, 0.000889128, 0.000152509, -0.00193164, 0.000667057, 0.000667057, 0.000667057
7899, 1,0.00106297, -0.000609916, 0.000409555, -20.205, -39.6148, 0.0126957, -57.3063, 340.111, 0.30435, 0.000899583, 0.00125788, 0.00266931, -21.7833, 109.641, 0, 0.000903973, 0.000871555, 0.00187488, -18.4294, 80.9707, 0, 0.000904394, -24.9869, -55.1576, -248.779, -23.4967, -43.8828, -175.533, 0.00121651, 0.000567692, -0.0035629, 0.000801368, 0.000801368, 0.000801368
7900, 1,0.00149068, -0.000781585, 0.000524046, -9.8443, -51.5591, 0.0257352, -76.3021, 368.808, 0.741007, 0.000824004, 0.00174561, 0.00349742, -12.3832, 127.226, 0, 0.000830739, 0.00124264, 0.00247483, -6.82094, 88.4218, 0, 0.000831262, -17.1153, -39.5015, -325.062, -13.6765, -27.5536, -224.035, 0.00169041, 0.00119407, -0.00494842, 0.00115899, 0.00115899, 0.00115899
7901, 1,0.000661394, -0.000247842, 0.000189263, 2.91041, -14.9134, 0.00997656, -19.538, 340.157, 0.157693, 0.00102198, 0.000709827, 0.00110763, 2.14415, 40.7679, 0, 0.0010275, 0.000613132, 0.000914659, 3.72876, 32.3195, 0, 0.00102765, 1.70397, -24.9638, -99.0438, 3.18362, -21.3685, -78.7735, 0.000708425, 0.000117386, -0.00148703, 0.000610619, 0.000610619, 0.000610619
7902, 1,0.00180356, 0.000584296, 0.000424272, 110.041, 35.1065, 0.0137431, 441.598, -125.313, 0.129691, 0.0011886, 0.00238608, 0.00179402, 145.102, -43.0474, 0, 0.00118683, 0.00122287, 0.000948633, 75.027, -22.8598, 0, 0.00118644, 9.08945, 0.607901, 119.445, 8.79975, -2.08814, 61.8677, -0.000469613, -0.000674515, 0.00184284, -0.00015676, -0.00015676, -0.00015676
7903, 1,0.00435774, 0.00123872, 0.000828889, 266.556, 77.9569, 0.0493708, 496.148, -177.845, 0.779111, 0.00126162, 0.0055958, 0.00378468, 344.446, -106.947, 0, 0.00125737, 0.0031202, 0.0021415, 188.718, -54.9676, 0, 0.00125631, -10.9521, -2.42393, 334.216, -12.1267, -5.296, 182.326, -0.00192176, -0.00174783, 0.00540499, -0.00113053, -0.00113053, -0.00113053
7904, 1,0.000577655, -0.000291405, 0.000249412, 8.35168, -16.0608, 0.00562679, 11.7173, 259.477, 0.0444353, 0.00112467, 0.000645873, 0.00110864, 10.0636, 28.8501, 0, 0.00112901, 0.000529461, 0.000820931, 7.7737, 22.8415, 0, 0.00112912, 4.4124, -0.872441, -90.0902, 5.40276, -5.89462, -68.0327, 0.000573691, 0.000436461, -0.00147793, 0.00050322, 0.00050322, 0.00050322
7905, 1,0.00131386, 0.000560463, 0.000417249, 73.0387, 33.3403, 0.00645756, 312.651, -9.61538, 0, 0.00132303, 0.00185991, 0.00152344, 105.67, -23.3917, 0, 0.00132333, 0.000785521, 0.000730544, 41.2729, -4.92499, 0, 0.00132293, 2.22351, 11.2261, 56.7254, 1.29407, 3.79786, 9.68304, -0.000302201, -0.000135854, 0.000817817, -2.98662E-05, -2.98662E-05, -2.98662E-05
7906, 1,0.00376883, 0.00107193, 0.000717328, 241.035, 67.3124, 0.0250854, 484.229, -173.694, 0.343832, 0.00139887, 0.00484048, 0.00321446, 308.314, -106.341, 0, 0.00139641, 0.00269741, 0.00179106, 173.785, -61.6952, 0, 0.0013954, 7.9434, 14.3268, 296.753, 7.36412, 11.0871, 166.635, -0.00150547, -0.00137618, 0.00460718, -0.000816129, -0.000816129, -0.000816129
7907, 1,0.00096526, -0.000270737, 0.000266012, 25.4883, -13.3453, 0.0044163, 103.763, 140.891, 0, 0.00160593, 0.00120794, 0.00158463, 36.4578, 27.83, 0, 0.00160888, 0.000731115, 0.00110098, 14.913, 26.4986, 0, 0.00160892, -7.55585, 35.7476, -111.682, -6.50865, 14.557, -87.5442, 0.000300939, 0.00119523, -0.00194735, 0.000304769, 0.000304769, 0.000304769
7908, 1,0.00128678, 0.000479757, 0.000339133, 76.8315, 29.543, 0.00431528, 190.671, 18.0324, 0, 0.00158603, 0.00175079, 0.00131949, 105.65, -30.5064, 0, 0.00158728, 0.000837936, 0.000689978, 48.712, -12.002, 0, 0.00158681, 4.30126, 37.7079, 49.5099, 3.22468, 21.4849, 11.2963, -0.000370494, 0.000315106, 0.000550649, -0.000100658, -0.000100658, -0.000100658
7909, 1,0.00286424, 0.000885218, 0.000595199, 178.945, 55.6537, 0.00782363, 430.443, -102.127, 0.0064523, 0.00158057, 0.00374832, 0.00254773, 234.529, -76.685, 0, 0.00157991, 0.00198115, 0.00136532, 123.421, -39.6113, 0, 0.00157896, -1.42933, 8.36959, 223.115, -0.922071, 3.92671, 115.829, -0.00123506, -0.00103243, 0.00351183, -0.000641359, -0.000641359, -0.000641359
7910, 1,0.00223358, 0.000598499, 0.000415351, 139.08, 37.5902, 0.00615218, 360.304, -93.4807, 0, 0.00170269, 0.00282818, 0.00197243, 176.412, -57.157, 0, 0.00170168, 0.00164178, 0.00115232, 101.934, -32.2466, 0, 0.001701, -4.94104, 6.2543, 170.158, -2.63107, 3.17689, 96.1941, -0.00101159, -0.000768404, 0.00270734, -0.000571849, -0.000571849, -0.000571849
7911, 1,0.00185324, 0.000521655, 0.000369462, 117.727, 32.9187, 0.00479129, 298.992, -97.2741, 0, 0.00179314, 0.00237276, 0.00166971, 150.495, -51.0736, 0, 0.0017918, 0.00133539, 0.000936778, 85.0774, -28.9388, 0, 0.00179116, -2.22173, 9.58598, 145.857, 0.261252, 5.6325, 80.9226, -0.000855827, -0.000601694, 0.00228617, -0.000455912, -0.000455912, -0.000455912
7912, 1,0.00189529, 0.000543595, 0.000385275, 120.421, 34.2694, 0.00476376, 296.71, -95.8231, 0, 0.00183162, 0.00243767, 0.00172582, 154.595, -52.2451, 0, 0.00183033, 0.00135388, 0.000959004, 86.3213, -29.2631, 0, 0.00182964, -1.2102, 10.9308, 147.015, 0.467273, 6.5639, 80.758, -0.000852458, -0.000591595, 0.00229169, -0.000456266, -0.000456266, -0.000456266
7913, 1,0.000730984, 0.000209717, 0.00015503, 46.328, 13.9325, 0.00155102, 82.9318, -12.8884, 0, 0.00177866, 0.000936025, 0.000683478, 60.0484, -21.0748, 0, 0.0017789, 0.000529157, 0.000390281, 32.7556, -10.2736, 0, 0.00177859, 0.361097, 31.9602, 30.903, -0.160537, 18.5946, 12.3867, -0.00031549, 0.000343668, 0.000313894, -0.000156322, -0.000156322, -0.000156322
7914, 1,0.00038732, 0.000130136, 0.00011942, 33.9245, 11.1032, 0.0011607, 80.9034, -34.993, 0, 0.00183284, 0.000488666, 0.000456803, 43.7224, -27.6451, 0, 0.00183262, 0.000292266, 0.000250841, 24.4519, -14.3334, 0, 0.00183222, 2.96514, 40.3273, 39.643, 2.0467, 23.107, 17.8464, -0.000365866, 0.000417741, 0.000396806, -0.000175654, -0.000175654, -0.000175654
7915, 1,0.000784027, 0.000241656, 0.000182403, 54.5646, 16.8336, 0.00165165, 104.552, -35.5133, 0, 0.00185109, 0.00102279, 0.000756316, 71.2669, -30.5457, 0, 0.00185095, 0.000547604, 0.000395667, 37.9685, -16.0028, 0, 0.00185051, 3.25022, 43.541, 44.846, 2.2583, 24.6711, 21.0789, -0.000406516, 0.000440121, 0.000462137, -0.00019852, -0.00019852, -0.00019852
7916, 1,0.000834314, -0.000242205, 0.000228803, 33.4931, -11.6898, 0.00230526, 79.8763, 39.0905, 0, 0.00209352, 0.00104939, 0.00122407, 43.446, 8.29137, 0, 0.00209456, 0.000619439, 0.000768533, 23.5475, 7.71238, 0, 0.00209458, 4.34239, 41.6904, -70.9069, 2.10843, 22.3214, -47.567, 0.000235505, 0.00101283, -0.00138266, 0.00018027, 0.00018027, 0.00018027
7917, 1,0.00106586, 0.000276381, 0.00024895, 50.7444, 14.3498, 0.00294002, 121.393, 23.5886, 0, 0.00194357, 0.0013422, 0.00131526, 65.0912, -2.245, 0, 0.00194438, 0.000789555, 0.000817571, 36.3994, 1.2143, 0, 0.00194427, 0.272729, 63.5327, -57.0704, -0.064364, 35.5314, -39.11, -1.63995E-05, 0.00130891, -0.00125584, 3.19175E-05, 3.19175E-05, 3.19175E-05
7918, 1,0.00133429, 0.000344137, 0.000305329, 66.4462, 18.1539, 0.00347106, 148.762, 20.5302, 0, 0.00188758, 0.00167805, 0.00157984, 84.5807, -7.10575, 0, 0.00188843, 0.000990778, 0.000970333, 48.3239, -2.02813, 0, 0.00188827, -0.615521, 79.2995, -57.3667, -0.522339, 45.5416, -38.9349, -0.000111101, 0.00156592, -0.00133924, -2.8177E-05, -2.8177E-05, -2.8177E-05
7919, 1,0.00171866, -0.000457897, 0.000452313, 75.7507, -21.8943, 0.00473026, 188.067, 47.6756, 0, 0.00187169, 0.00216534, 0.00229369, 96.643, 7.6441, 0, 0.00187291, 0.00127202, 0.00138921, 54.8603, 7.0591, 0, 0.00187293, -4.38718, 96.0446, -114.59, -3.16534, 54.5488, -72.5608, 4.49854E-05, 0.0021526, -0.00232126, 6.31669E-05, 6.31669E-05, 6.31669E-05
7920, 1,0.00137982, -0.00039343, 0.000378876, 58.1214, -19.2136, 0.00373856, 141.175, 47.7107, 0, 0.00194492, 0.00174413, 0.0019267, 74.7533, 10.3087, 0, 0.0019461, 0.00101551, 0.00116909, 41.49, 8.73467, 0, 0.00194615, -0.65083, 74.3595, -104.635, -0.626871, 41.245, -66.8222, 0.000162168, 0.00173574, -0.00206489, 0.000139327, 0.000139327, 0.000139327
7921, 1,0.000628134, -0.00032061, 0.000252783, 11.9972, -18.1411, 0.00195715, 28.725, 85.6192, 0, 0.00208611, 0.0008112, 0.00126777, 17.6936, 27.7298, 0, 0.00208807, 0.000448036, 0.000766238, 6.43925, 19.7848, 0, 0.00208834, 1.26614, 13.2762, -97.7317, 0.313466, 3.00144, -62.6692, 0.000470686, 0.000717754, -0.00163824, 0.000326736, 0.000326736, 0.000326736
7922, 1,0.000706874, -0.000275807, 0.000214368, 13.2176, -16.6114, 0.00328335, 95.8462, 79.6493, 0, 0.00132501, 0.000859634, 0.00121577, 16.8876, 31.8823, 0, 0.00132604, 0.000554195, 0.000790266, 9.56173, 22.3279, 0, 0.00132624, 16.8407, -55.18, -57.3076, 9.48263, -39.8187, -36.6476, 0.000858112, -0.000665299, -0.000710201, 0.000552927, 0.000552927, 0.000552927
7923, 1,0.000845665, -0.000565538, 0.000384497, -7.2284, -37.0012, 0.00484512, 87.4996, 189.619, 0, 0.00116173, 0.00104744, 0.0020541, -7.95807, 76.9533, 0, 0.00116385, 0.000645318, 0.0012908, -6.36474, 49.4749, 0, 0.00116437, -8.0853, -79.5447, -143.23, -6.77762, -53.2122, -88.435, 0.00104645, -0.000469355, -0.00182569, 0.000643292, 0.000643292, 0.000643292
7924, 1,0.00124885, -0.000877277, 0.000578455, -23.7481, -58.9493, 0.00987806, -103.692, 387.377, 0.221074, 0.000876197, 0.00151418, 0.00329499, -28.5611, 133.375, 0, 0.000880595, 0.00100324, 0.00216291, -17.7037, 86.6179, 0, 0.000881263, -28.6415, -88.3593, -283.125, -19.2064, -58.0965, -182.551, 0.00151225, 0.000240528, -0.00391673, 0.000978956, 0.000978956, 0.000978956
7925, 1,0.00167697, -0.00103287, 0.000682549, -13.3115, -69.1726, 0.0237651, -93.6116, 431.833, 0.594398, 0.00080652, 0.00200349, 0.00394061, -18.073, 150.322, 0, 0.000813036, 0.00135217, 0.00258571, -8.43751, 95.9669, 0, 0.000813753, -21.5926, -56.0842, -373.288, -10.8442, -35.3018, -241.755, 0.00194713, 0.00120926, -0.00559523, 0.00132334, 0.00132334, 0.00132334
7926, 1,0.000639607, -0.000302762, 0.000218885, -8.14611, -21.6187, 0.0044602, -11.2267, 297.543, 0, 0.00099723, 0.000765292, 0.00145028, -9.28877, 60.0545, 0, 0.00100108, 0.000563738, 0.00111376, -3.67143, 40.5539, 0, 0.0010014, -13.8522, -48.9429, -117.368, -11.505, -35.8894, -74.2673, 0.000672924, -8.40621E-05, -0.00156319, 0.000417536, 0.000417536, 0.000417536
7927, 1,0.00156013, 0.000357267, 0.000270845, 92.5979, 21.3236, 0.0252614, 522.448, -241.415, 0.356471, 0.00115748, 0.00190513, 0.00144821, 113.31, -30.7052, 0, 0.00115241, 0.00122147, 0.000945483, 72.1999, -18.8336, 0, 0.00115219, 3.64836, -4.99513, 93.4625, 3.25636, -0.699861, 53.9442, -0.000409029, -0.000594135, 0.00150146, -0.00023099, -0.00023099, -0.00023099
7928, 1,0.00435029, 0.00108911, 0.000733748, 275.281, 68.7789, 0.0633251, 546.565, -238.097, 1, 0.00122598, 0.00543295, 0.00368793, 343.523, -117.072, 2.71051E-20, 0.00121761, 0.00327205, 0.00223902, 207.407, -70.8611, 2.71051E-20, 0.0012167, 15.0477, -0.249039, 336.419, 13.2122, -0.804924, 200.176, -0.00155721, -0.00186055, 0.00531734, -0.000872148, -0.000872148, -0.000872148
7929, 1,0.000626504, -0.000296896, 0.000210142, -5.62104, -20.8398, 0.003643, 5.46308, 223.356, 0, 0.00109485, 0.00074344, 0.0012203, -6.8745, 55.7263, 0, 0.00109783, 0.000512769, 0.000816138, -4.17094, 37.5451, 0, 0.00109816, -7.76252, -38.8766, -120.54, -5.13993, -28.3717, -79.1235, 0.000732588, 5.60604E-05, -0.00169271, 0.000503554, 0.000503554, 0.000503554
7930, 1,0.000838216, 0.000330263, 0.000259954, 42.3265, 19.0756, 0.00856173, 416.34, -85.1294, 0.0221312, 0.00128847, 0.001167, 0.000983347, 61.3199, -7.94836, 0, 0.00128684, 0.00051093, 0.000479318, 23.4166, 1.34402, 0, 0.00128664, -5.47893, -18.5638, 47.8878, -5.61238, -16.4395, 18.0198, -0.000235718, -0.000520878, 0.000885602, -9.25065E-05, -9.25065E-05, -9.25065E-05
7931, 1,0.00375039, 0.000929251, 0.000628863, 229.972, 58.3551, 0.0354839, 493.025, -187.106, 0.544703, 0.00135876, 0.00467327, 0.00324188, 287.866, -89.8961, 0, 0.00135482, 0.00283164, 0.00199672, 172.375, -51.2942, 0, 0.00135397, 0.277412, -9.8141, 279.225, -0.215876, -10.0794, 164.178, -0.00142977, -0.00162468, 0.00451298, -0.000835096, -0.000835096, -0.000835096
7932, 1,0.000576317, -0.000301576, 0.000220478, 4.287, -18.5721, 0.00227885, 28.3578, 106.271, 0, 0.00155294, 0.000714482, 0.00123543, 6.54462, 36.7168, 0, 0.0015547, 0.000439388, 0.000802088, 2.08514, 25.2075, 0, 0.00155499, -4.35437, 2.98149, -108.778, -3.38526, -0.594805, -71.6424, 0.000501439, 0.000641842, -0.00173885, 0.000342198, 0.000342198, 0.000342198
7933, 1,0.000952927, 0.000292042, 0.000219488, 57.0275, 17.7084, 0.00347992, 193.774, -39.2535, 0, 0.00153746, 0.00124292, 0.000959463, 74.6384, -21.0917, 0, 0.00153701, 0.000664662, 0.000530136, 39.5007, -10.6059, 0, 0.00153675, 4.0955, 15.9062, 43.2735, 2.89009, 9.06525, 19.8625, -0.000236679, 2.73478E-06, 0.00057626, -9.70803E-05, -9.70803E-05, -9.70803E-05
7934, 1,0.0028404, 0.000743624, 0.000505452, 181.865, 46.6241, 0.0122527, 457.142, -140.204, 0.0951175, 0.00153374, 0.00358234, 0.00240553, 228.345, -79.3985, 0, 0.00153203, 0.00209968, 0.00140399, 135.491, -48.6753, 0, 0.00153126, 7.60486, 8.52126, 222.07, 8.62497, 6.85843, 130.542, -0.00110051, -0.00107132, 0.00346003, -0.00059696, -0.00059696, -0.00059696
7935, 1,0.00204698, 0.000475716, 0.00033024, 131.74, 29.8087, 0.00704124, 413.791, -108.423, 0, 0.00164903, 0.00251908, 0.00170818, 161.245, -56.6607, 0, 0.00164764, 0.00157714, 0.00105821, 102.423, -37.1218, 0, 0.00164712, 8.03059, 7.35028, 154.601, 9.48697, 5.67704, 96.2015, -0.000745304, -0.000737362, 0.0024018, -0.000409022, -0.000409022, -0.000409022
7936, 1,0.00184199, 0.000402993, 0.000287919, 115.84, 25.3158, 0.00582989, 361.059, -114.523, 0, 0.00173554, 0.00224256, 0.00157378, 140.952, -46.5797, 0, 0.00173363, 0.00144279, 0.00100423, 90.8447, -29.8599, 0, 0.00173316, -1.12493, 5.45382, 135.41, 1.05003, 3.02708, 85.5026, -0.000773967, -0.000618347, 0.00214789, -0.000466634, -0.000466634, -0.000466634
7937, 1,0.00183513, 0.000425389, 0.000304416, 117.291, 26.6715, 0.00570012, 355.985, -115.927, 0, 0.00177159, 0.00225896, 0.00159082, 143.832, -49.0277, 0, 0.00176967, 0.00141227, 0.000985802, 90.8309, -31.502, 0, 0.00176916, 1.62965, 8.31465, 137.139, 3.3704, 5.5774, 85.5581, -0.000750222, -0.00059628, 0.0021418, -0.000439355, -0.000439355, -0.000439355
7938, 1,0.000644082, 0.000125388, 9.6925E-05, 40.2631, 7.25237, 0.00269368, 157.7, -40.5096, 0, 0.00172117, 0.000760676, 0.000555046, 47.0286, -15.1611, 0, 0.00172047, 0.000531511, 0.000374619, 33.7204, -11.6223, 0, 0.00172037, 2.71665, 21.4591, 21.3075, 2.53112, 13.8213, 18.5145, -0.000183613, 0.000214582, 0.000214982, -0.000132654, -0.000132654, -0.000132654
7939, 1,0.000399951, 9.14245E-05, 7.52671E-05, 32.8438, 6.67215, 0.00175217, 127.031, -59.1266, 0, 0.00177247, 0.000448206, 0.000390863, 37.3638, -22.1824, 0, 0.00177141, 0.00036332, 0.000291292, 28.901, -15.859, 0, 0.00177122, 4.04681, 30.8107, 31.6898, 3.40399, 19.0286, 25.1444, -0.000266507, 0.000302381, 0.000324014, -0.000181359, -0.000181359, -0.000181359
7940, 1,0.000628802, 0.000180242, 0.000137407, 43.7128, 11.2647, 0.00181604, 125.708, -53.245, 0, 0.00178864, 0.000801353, 0.000618464, 54.6064, -21.9034, 0, 0.00178773, 0.000464566, 0.00036982, 33.2111, -14.5415, 0, 0.00178752, 1.46309, 30.739, 33.5082, 0.787182, 17.5014, 25.336, -0.000317265, 0.000305357, 0.000367267, -0.000216458, -0.000216458, -0.000216458
7941, 1,0.000651196, -0.000330006, 0.000255398, 21.3907, -18.7944, 0.00144678, 59.6584, 11.597, 0, 0.00202213, 0.000830532, 0.0011341, 26.6681, 16.699, 0, 0.00202196, 0.000473024, 0.000627344, 16.1743, 8.12632, 0, 0.00202224, 4.81004, 23.1916, -78.0985, 2.61281, 14.4927, -41.4845, 0.000372373, 0.000753601, -0.00139685, 0.000191211, 0.000191211, 0.000191211
7942, 1,0.000878517, -0.000310757, 0.00027546, 38.696, -16.3217, 0.00185469, 91.5135, -5.19899, 0, 0.0018756, 0.0011176, 0.00122253, 48.3616, 5.91933, 0, 0.00187526, 0.000640301, 0.000674752, 29.0733, 1.53514, 0, 0.00187539, 0.613481, 46.4175, -64.7889, 0.414954, 28.1354, -33.1558, 0.000111251, 0.00107531, -0.0012825, 3.81798E-05, 3.81798E-05, 3.81798E-05
7943, 1,0.00110852, -0.000355323, 0.00033022, 52.5233, -17.8313, 0.0024086, 123.43, -12.8572, 0, 0.00182299, 0.00141348, 0.00145462, 65.9017, 1.23773, 0, 0.00182257, 0.000803677, 0.000794877, 39.1507, -1.54233, 0, 0.00182266, -0.0994469, 61.1035, -64.7172, 0.0047604, 36.7372, -32.1149, 2.21421E-05, 0.00131232, -0.00135441, -1.92355E-05, -1.92355E-05, -1.92355E-05
7944, 1,0.00147623, -0.0005376, 0.000463637, 60.7537, -28.7213, 0.00360771, 160.163, 13.8945, 0, 0.00180905, 0.00186586, 0.0021504, 75.8702, 16.5404, 0, 0.00180898, 0.00108662, 0.00122356, 45.6389, 7.6795, 0, 0.00180924, -3.48645, 75.248, -121.383, -2.24587, 45.3085, -66.1012, 0.000195436, 0.00185268, -0.00231626, 8.29128E-05, 8.29128E-05, 8.29128E-05
7945, 1,0.0011622, -0.000466989, 0.000385532, 43.9378, -25.7358, 0.00284966, 118.776, 21.364, 0, 0.00187819, 0.00146617, 0.00180356, 54.6537, 19.6539, 0, 0.00187825, 0.000858308, 0.00103298, 33.2262, 9.84812, 0, 0.00187854, -0.447282, 54.2402, -112.755, -0.251982, 33.022, -62.3143, 0.000306879, 0.00145722, -0.00208281, 0.000157325, 0.000157325, 0.000157325
7946, 1,0.000547292, -0.00038442, 0.000267061, 2.76429, -24.6493, 0.0018126, 37.4023, 64.8591, 0, 0.00200746, 0.000696739, 0.00123491, 3.36767, 39.6549, 0, 0.00200828, 0.000398045, 0.000701489, 2.17996, 22.2881, 0, 0.00200884, 0.611256, -11.9621, -107.614, 0.217632, -6.25955, -60.8222, 0.000642858, 0.000371518, -0.00165774, 0.000361815, 0.000361815, 0.000361815
7947, 1,0.000862353, -0.000424272, 0.000327038, 10.8708, -27.6158, 0.0032501, 84.5271, 92.9321, 0, 0.00126638, 0.00109216, 0.00156953, 14.1902, 50.2865, 0, 0.00126726, 0.000632552, 0.000915743, 7.55335, 29.9894, 0, 0.00126767, 13.4773, -97.6251, -66.7118, 7.06929, -58.3924, -38.6451, 0.00108051, -0.00127344, -0.000623108, 0.000625941, 0.000625941, 0.000625941
7948, 1,0.00100103, -0.000772416, 0.00052371, -9.74675, -51.4053, 0.00420569, 52.0137, 197.246, 0, 0.00111926, 0.00127563, 0.0024618, -11.6198, 96.0752, 0, 0.0011211, 0.000726752, 0.00141526, -7.85308, 56.1143, 0, 0.00112183, -12.6758, -110.302, -165.248, -8.54777, -65.4291, -94.366, 0.00125865, -0.000818904, -0.00199871, 0.000717841, 0.000717841, 0.000717841
7949, 1,0.00137007, -0.00114461, 0.0007472, -22.001, -76.8614, 0.0073893, -102.778, 383.389, 0.131918, 0.000851473, 0.00169516, 0.00361068, -29.4572, 146.669, 0, 0.000855173, 0.00105394, 0.00215365, -14.0422, 85.6373, 0, 0.00085602, -34.3526, -105.143, -300.513, -21.2856, -63.4211, -172.205, 0.00160756, 9.31519E-05, -0.00408055, 0.000924847, 0.000924847, 0.000924847
7950, 1,0.00166383, -0.00129538, 0.000846625, -19.5796, -86.2595, 0.0177879, -105.269, 458.685, 0.395583, 0.000788031, 0.00201935, 0.00419983, -27.7171, 165.288, 0, 0.000793464, 0.00130912, 0.00256132, -11.3835, 98.2165, 0, 0.000794328, -47.8245, -52.8549, -395.186, -34.6822, -27.4832, -232.484, 0.00162346, 0.00150622, -0.00581156, 0.000847856, 0.000847856, 0.000847856
7951, 1,0.000766672, -0.000496222, 0.000346163, -1.03775, -34.4714, 0.00160849, 26.4799, 66.5537, 0, 0.000972595, 0.000960422, 0.00158238, -2.88186, 64.3546, 0, 0.000972629, 0.000574317, 0.000896428, 0.868772, 34.7687, 0, 0.000973096, -2.89957, -48.4358, -141.728, 0.814308, -28.757, -76.3635, 0.000960155, -1.02341E-05, -0.00199416, 0.000573085, 0.000573085, 0.000573085
7952, 1,0.000949302, 0.000174585, 0.000147676, 50.3792, 9.51351, 0.0346237, 494.691, -192.982, 0.532829, 0.00112005, 0.00111412, 0.000919972, 59.1189, -8.52227, 0, 0.00111522, 0.000788497, 0.000639873, 41.9431, -5.29645, 0, 0.00111516, -3.22685, -25.212, 54.0057, -2.55666, -16.7063, 35.1523, -0.0002274, -0.000679589, 0.00104518, -0.0001647, -0.0001647, -0.0001647
7953, 1,0.00395173, 0.000908094, 0.000613877, 247.083, 57.5825, 0.0684336, 643.142, -228.069, 1, 0.00118672, 0.00485653, 0.00326056, 304.281, -103.742, 0, 0.00117881, 0.00304884, 0.00204502, 190.116, -64.7399, 0, 0.00117807, 10.3127, 0.853689, 300.06, 7.2678, 1.41193, 185.54, -0.00148591, -0.00163635, 0.00480539, -0.000941521, -0.000941521, -0.000941521
7954, 1,0.000636264, -0.000442731, 0.000314914, -14.6846, -31.5238, 0.000977993, -22.3922, 91.946, 0, 0.00106522, 0.000822782, 0.00146967, -16.4619, 73.6176, 0, 0.00106554, 0.000450188, 0.000841049, -12.8764, 45.1645, 0, 0.00106603, -17.7935, -52.9409, -150.118, -13.8858, -32.8371, -88.7706, 0.0007964, 3.86229E-05, -0.00202957, 0.000431387, 0.000431387, 0.000431387
7955, 1,0.00105202, 0.000157276, 0.000146167, 65.9961, 7.80271, 0.0193161, 503.213, -210.48, 0.23719, 0.00125436, 0.0012064, 0.000946673, 73.5788, -22.7919, 8.67362E-19, 0.0012499, 0.000898684, 0.000659171, 58.49, -21.8963, 8.67362E-19, 0.00124988, 10.0327, -3.69766, 62.0408, 10.7543, 4.1007, 50.834, -0.000160756, -0.000441448, 0.000971944, -0.000133023, -0.000133023, -0.000133023
7956, 1,0.0037332, 0.000781208, 0.000530989, 229.661, 49.1713, 0.0514022, 539.672, -250.901, 0.823427, 0.00132249, 0.00450415, 0.00311633, 278.061, -88.6486, -2.1684E-19, 0.00131445, 0.00296771, 0.00207529, 181.672, -56.0085, -2.1684E-19, 0.00131375, 8.73594, -9.23553, 266.445, 7.02305, -8.32382, 169.326, -0.00126644, -0.00159764, 0.00430225, -0.000792651, -0.000792651, -0.000792651
7957, 1,0.000535709, -0.000414936, 0.000288143, -1.30389, -27.4975, 0.0014629, 12.3004, 76.1778, 0, 0.00150071, 0.000695125, 0.0012698, -1.65806, 45.6997, 0, 0.00150145, 0.000378174, 0.000699288, -0.838579, 24.5397, 0, 0.00150197, -6.12622, -13.8837, -117.089, -4.12088, -5.63868, -63.8595, 0.000602808, 0.000425859, -0.00177015, 0.000312497, 0.000312497, 0.000312497
7958, 1,0.000716903, 0.000160161, 0.00014128, 36.8931, 8.56195, 0.00621649, 340.021, -61.7396, 0, 0.00148831, 0.000869101, 0.000740392, 44.9826, -5.45587, 0, 0.00148696, 0.000568584, 0.00047765, 29.0266, -2.84334, 0, 0.00148689, -3.74883, -4.26132, 24.3778, -4.31521, -5.12763, 17.9729, -0.000170654, -0.000177762, 0.00043685, -0.000142614, -0.000142614, -0.000142614
7959, 1,0.00293413, 0.000616017, 0.000418739, 184.532, 38.5541, 0.0205619, 458.857, -135.304, 0.25557, 0.0014867, 0.00354134, 0.00240804, 222.471, -74.1652, 0, 0.00148469, 0.00233143, 0.00159553, 146.907, -48.9896, 0, 0.00148408, 4.26241, 6.4075, 211.826, 4.59586, 6.13513, 136.238, -0.00111161, -0.0010331, 0.00334783, -0.000710968, -0.000710968, -0.000710968
7960, 1,0.00225525, 0.000338883, 0.000231178, 144.211, 21.3206, 0.0106065, 459.78, -145.836, 0.0633328, 0.00159589, 0.0025935, 0.00176561, 165.43, -57.8419, 0, 0.00159348, 0.00191722, 0.00131101, 123.028, -43.7983, 0, 0.00159312, 2.87489, 14.1207, 156.53, 3.32254, 12.6461, 115.426, -0.000884499, -0.000612734, 0.00243538, -0.000657071, -0.000657071, -0.000657071
7961, 1,0.00181244, 0.000274578, 0.000193772, 116.946, 17.4812, 0.00711053, 443.845, -144.495, 0, 0.00167777, 0.00208616, 0.00140095, 134.313, -47.8052, 0, 0.00167514, 0.00153905, 0.00101816, 99.6221, -35.8863, 0, 0.00167482, 7.2417, 7.04278, 129.131, 8.15625, 4.75283, 94.7499, -0.000628059, -0.000604046, 0.00200742, -0.000423805, -0.000423805, -0.000423805
7962, 1,0.00187437, 0.000305593, 0.000215466, 119.111, 19.3366, 0.00706073, 445.43, -149.768, 0, 0.00171144, 0.00217444, 0.00150624, 138.116, -46.8865, 0, 0.00170859, 0.00157642, 0.00108485, 100.234, -33.909, 0, 0.00170823, 2.5769, 6.35833, 131.724, 3.36436, 3.74436, 94.6181, -0.000709368, -0.000603951, 0.00207372, -0.000491032, -0.000491032, -0.000491032
7963, 1,0.000701379, -0.000154925, 0.000132862, 40.9812, -8.42553, 0.00519438, 313.576, -91.2352, 0, 0.00166419, 0.000761225, 0.000627845, 42.5854, -9.81324, 0, 0.001662, 0.000664751, 0.000488536, 40.5139, -12.8793, 0, 0.00166208, 3.02487, 16.8023, 9.61256, 3.56432, 11.4539, 23.6196, -0.000104436, 0.000200024, 6.34474E-05, -0.000143096, -0.000143096, -0.000143096
7964, 1,0.00048758, -0.000107248, 0.000107055, 35.9452, 5.07746, 0.00387644, 255.936, -97.5294, 0, 0.00171235, 0.000482871, 0.000362381, 35.6157, -17.9001, 0, 0.00171013, 0.000537686, 0.000389816, 38.4666, -17.8197, 0, 0.00171013, 3.46474, 27.7048, 22.5306, 3.2043, 18.383, 31.872, -0.000222965, 0.000304047, 0.000209184, -0.000228889, -0.000228889, -0.000228889
7965, 1,0.000591306, 0.000166544, 0.000159202, 42.2196, 8.26715, 0.00385122, 257.652, -101.277, 0, 0.0017269, 0.0007053, 0.000513194, 48.0263, -19.0977, 0, 0.0017246, 0.000538262, 0.000407111, 39.2121, -18.0502, 0, 0.00172457, 3.21063, 27.5905, 26.4921, 3.0032, 16.9017, 34.2457, -0.000248449, 0.000282932, 0.000275219, -0.00023795, -0.00023795, -0.00023795
7966, 1,0.000615402, -0.000444871, 0.000311066, 18.2356, -27.063, 0.00221884, 123.008, -24.642, 0, 0.00195125, 0.000774587, 0.0011809, 19.6595, 22.2801, 0, 0.00194976, 0.000470125, 0.000602659, 17.4756, 6.0172, 0, 0.00195028, 3.00745, 18.4165, -88.2643, 1.90224, 16.3598, -36.3136, 0.000413328, 0.000740094, -0.00151495, 0.000133347, 0.000133347, 0.000133347
7967, 1,0.000805808, -0.000424157, 0.00032765, 32.2301, -24.4535, 0.00155979, 104.286, -41.159, 0, 0.00180816, 0.00103282, 0.0012555, 38.5344, 13.6818, 0, 0.00180656, 0.000583054, 0.000612994, 26.1252, 1.79441, 0, 0.0018069, -1.15696, 37.5877, -77.4763, -0.742688, 25.5165, -30.1571, 0.000186155, 0.00101068, -0.00141883, 7.13603E-06, 7.13603E-06, 7.13603E-06
7968, 1,0.00101501, -0.000469874, 0.000383745, 45.3113, -26.0658, 0.00199525, 136.362, -56.4045, 0, 0.00175876, 0.00131245, 0.00147767, 55.4953, 8.83135, 0, 0.00175689, 0.000717735, 0.000711785, 35.1342, -1.58053, 0, 0.00175719, 0.226024, 51.9623, -78.6824, 0.740721, 33.5404, -29.5395, 0.00013783, 0.00123851, -0.0015196, -1.58005E-05, -1.58005E-05, -1.58005E-05
7969, 1,0.00138111, -0.000649041, 0.000508548, 52.5913, -37.0749, 0.00317802, 167.116, -22.7266, 0, 0.0017466, 0.00174913, 0.00217672, 63.5805, 25.6413, 0, 0.00174523, 0.00101313, 0.0011605, 41.6037, 8.43609, 0, 0.00174571, -3.28206, 63.121, -136.763, -1.81242, 41.3879, -64.8837, 0.000333685, 0.00173943, -0.00248902, 9.38782E-05, 9.38782E-05, 9.38782E-05
7970, 1,0.00109635, -0.000572308, 0.000424323, 37.2447, -33.8549, 0.0025743, 128.578, -9.29352, 0, 0.00181204, 0.00137204, 0.00184889, 43.4641, 28.7026, 0, 0.00181092, 0.000821172, 0.00100243, 31.0502, 10.4078, 0, 0.00181146, -1.7529, 43.2492, -127.604, -0.704295, 30.9501, -61.4693, 0.000414522, 0.00136717, -0.0022473, 0.000148658, 0.000148658, 0.000148658
7971, 1,0.000584457, -0.000475155, 0.000339252, -1.76593, -32.668, 0.00119944, 22.372, 46.0021, 0, 0.0019293, 0.000786733, 0.0013776, -2.40749, 53.0683, 0, 0.00192908, 0.000384109, 0.00070334, -1.04532, 25.6364, 0, 0.00192993, -5.67554, -27.8646, -125.665, -3.28069, -9.49859, -64.1299, 0.000717472, 0.000246216, -0.00182474, 0.000336332, 0.000336332, 0.000336332
7972, 1,0.00093412, -0.000549578, 0.000418121, 7.71119, -37.045, 0.00218108, 39.201, 85.8623, 0, 0.00120792, 0.00122068, 0.00177986, 10.1879, 63.7298, 0, 0.00120835, 0.000647658, 0.000943916, 5.242, 33.99, 0, 0.00120893, 7.4375, -121.171, -77.4565, 3.52435, -64.7212, -40.7733, 0.00116473, -0.00156004, -0.000638849, 0.000613858, 0.000613858, 0.000613858
7973, 1,0.00118189, -0.000935704, 0.00064797, -1.09485, -61.6916, 0.00306998, 39.8625, 141.386, 0, 0.00107713, 0.00154129, 0.0027443, -1.57395, 99.5267, 0, 0.00107786, 0.000823207, 0.00145023, -0.5721, 52.6076, 0, 0.00107869, -6.90967, -118.098, -173.572, -4.25579, -63.2777, -90.2894, 0.00143167, -0.000930547, -0.00211615, 0.000749322, 0.000749322, 0.000749322
7974, 1,0.00129705, -0.00133804, 0.00089623, -22.066, -88.063, 0.00401808, -11.9482, 254.085, 0.0104875, 0.000826975, 0.00174952, 0.0036648, -25.5451, 144.805, -1.35525E-20, 0.000828463, 0.000851164, 0.00187825, -18.0403, 78.1422, -1.35525E-20, 0.000829359, -31.2537, -101.766, -301.394, -22.4337, -55.3399, -156.653, 0.0016366, 0.00013065, -0.00411699, 0.000774113, 0.000774113, 0.000774113
7975, 1,0.00205344, -0.00150055, 0.000997085, 1.06543, -98.1015, 0.0103099, -71.6569, 373.737, 0.204038, 0.000768746, 0.00254664, 0.00474313, -2.76549, 164.465, 0, 0.000771962, 0.00156046, 0.00275145, 4.91514, 91.5021, 0, 0.000772877, -8.01942, -64.4439, -420.93, 0.747296, -37.1016, -238.152, 0.00244226, 0.00123631, -0.00634728, 0.00147966, 0.00147966, 0.00147966
7976, 1,0.000894215, -0.000697783, 0.000484984, 13.2964, -46.8374, 0.00878504, 358.306, -102.885, 0.0590958, 0.000945443, 0.00116273, 0.00186547, 12.1262, 57.3981, 0, 0.000942934, 0.000629692, 0.000907372, 14.5787, 20.0612, 0, 0.000943505, 8.92328, -36.6618, -144.456, 11.8893, -12.7604, -59.3125, 0.00108403, 0.000121128, -0.00213666, 0.000557509, 0.000557509, 0.000557509
7977, 1,0.000601391, -0.000122464, 8.50145E-05, 30.364, -7.82144, 0.0412492, 468.692, -142.796, 0.644421, 0.00108345, 0.000550931, 0.000563684, 25.6467, 0.749308, 0, 0.00107952, 0.000662933, 0.000589826, 35.5581, -4.81823, 0, 0.00107962, 1.64112, -22.9345, 19.0454, 2.27525, -11.2908, 23.4702, 1.11636E-05, -0.000504942, 0.000481369, -6.68252E-05, -6.68252E-05, -6.68252E-05
7978, 1,0.00371858, 0.000694513, 0.000472322, 229.56, 43.8186, 0.0717387, 703.018, -220.965, 1, 0.00114931, 0.00441024, 0.00298607, 272.933, -89.5627, 0, 0.00114168, 0.00302819, 0.00204615, 186.391, -60.5401, 0, 0.00114115, 7.19505, -4.39817, 265.891, 5.44452, -2.48714, 178.663, -0.0013393, -0.00153562, 0.00432781, -0.000926299, -0.000926299, -0.000926299
7979, 1,0.000689416, -0.000593454, 0.00042425, -15.2133, -41.2934, 0.00564402, 309.885, -57.6953, 0, 0.00103497, 0.00093969, 0.00166782, -16.7776, 82.1818, 0, 0.00103263, 0.000444391, 0.000839994, -13.288, 46.523, 0, 0.00103322, -21.3568, -55.9938, -169.195, -17.444, -30.7836, -91.3413, 0.000841683, 0.000106129, -0.00228148, 0.000362047, 0.000362047, 0.000362047
7980, 1,0.00086532, -0.000109444, 8.40069E-05, 48.6211, -7.69971, 0.0299554, 515.123, -222.653, 0.440139, 0.00121789, 0.000867519, 0.000747451, 46.0668, -7.37247, 0, 0.00121221, 0.000864252, 0.000651883, 51.2102, -14.2275, 0, 0.00121235, -1.98741, 1.53297, 22.5719, -1.03629, 12.2384, 31.4805, -0.000185248, -9.4891E-05, 0.000399524, -0.000276066, -0.000276066, -0.000276066
7981, 1,0.00344875, 0.000594178, 0.000406812, 209.396, 37.3462, 0.0632874, 534.757, -226.769, 0.997302, 0.00128357, 0.0040419, 0.00276711, 246.564, -76.6358, 0, 0.00127454, 0.00285602, 0.0019591, 172.303, -52.1169, 0, 0.00127404, -0.492151, -7.27185, 237.671, -2.18407, -5.68382, 164.219, -0.00128331, -0.00137606, 0.00390246, -0.000938313, -0.000938313, -0.000938313
7982, 1,0.000573854, -0.000549916, 0.000380614, -5.14042, -36.9669, 0.00326255, 144.144, 13.2837, 0, 0.00144839, 0.000781738, 0.00147466, -6.25478, 57.1429, 0, 0.00144736, 0.000372647, 0.000731685, -3.86908, 27.6036, 0, 0.00144805, -11.3067, -22.204, -137.918, -7.55314, -7.23921, -68.0185, 0.000663325, 0.000428994, -0.00201962, 0.000277015, 0.000277015, 0.000277015
7983, 1,0.00101761, -0.000167568, 0.000132627, 56.4554, -9.59089, 0.0119964, 445.224, -119.258, 0.0885652, 0.00143943, 0.00108232, 0.000940255, 57.7198, -9.62581, 0, 0.00143673, 0.000962028, 0.000744042, 55.631, -14.2062, 0, 0.00143683, 0.853751, 7.86957, 20.1541, 1.14789, 9.53667, 31.934, -0.000151484, 1.23914E-05, 0.000295059, -0.000219599, -0.000219599, -0.000219599
7984, 1,0.00278165, 0.000459039, 0.00031168, 175.188, 28.7118, 0.0316206, 471.359, -147.342, 0.463646, 0.00144045, 0.00323938, 0.00217847, 203.737, -68.6776, 0, 0.00143741, 0.00232444, 0.00156974, 146.702, -50.089, 0, 0.00143698, 5.13963, 9.13481, 191.758, 4.73993, 9.23711, 136.29, -0.00101941, -0.000890902, 0.00302425, -0.000739119, -0.000739119, -0.000739119
7985, 1,0.00038907, -0.000415138, 0.000283291, -0.563773, -29.4183, 0.0015033, -0.770397, 96.5009, 0, 0.00206285, 0.000501767, 0.00101938, -5.02443, 38.61, 0, 0.00206479, 0.000328721, 0.000519192, 6.37408, 12.3048, 0, 0.00206567, -5.34893, -10.7714, -99.7096, -0.0139867, 5.33801, -42.2384, 0.000494782, 0.000379963, -0.00150124, 0.000193675, 0.000193675, 0.000193675
7986, 1,0.00095654, -0.000477932, 0.00036145, 36.321, -28.6794, 0.00300207, 103.74, 51.2393, 0, 0.0019508, 0.00120133, 0.00149816, 41.8075, 20.1095, 0, 0.00195178, 0.000711834, 0.00077562, 30.8388, 3.76547, 0, 0.0019523, -0.584472, 40.0091, -99.7532, 1.39912, 29.7562, -42.4517, 0.000304069, 0.00116345, -0.00179378, 8.8958E-05, 8.8958E-05, 8.8958E-05
7987, 1,0.00115861, -0.000477755, 0.000391681, 49.8939, -26.8673, 0.00356007, 142.343, 34.8071, 0, 0.00191531, 0.00146385, 0.00165169, 60.04, 12.2825, 0, 0.00191601, 0.000853677, 0.000869397, 39.7619, 0.783337, 0, 0.00191637, 1.44753, 57.7732, -96.0683, 1.61052, 38.4142, -42.3747, 0.000223916, 0.00141614, -0.00183931, 4.65837E-05, 4.65837E-05, 4.65837E-05
7988, 1,0.000850189, -0.000330007, 0.000286282, 42.5372, -17.5915, 0.00264864, 121.058, 5.53248, 0, 0.00192197, 0.00108998, 0.00108821, 51.882, -0.499916, 0, 0.00192216, 0.000613386, 0.000524083, 33.3334, -5.8417, 0, 0.00192233, 2.13963, 50.0917, -50.7316, 1.26902, 32.4187, -16.1626, 3.69107E-05, 0.00105273, -0.00108148, -6.53873E-05, -6.53873E-05, -6.53873E-05
7989, 1,0.000427698, 0.000137969, 0.000106562, 34.4328, 8.06424, 0.00127646, 93.4153, -44.4484, 0, 0.00190053, 0.000526596, 0.00043126, 40.6441, -21.1584, 0, 0.00189981, 0.000401009, 0.000335164, 31.6314, -17.0123, 0, 0.00189969, 0.796355, 29.9771, 32.7017, 0.457524, 18.9919, 31.5874, -0.000316888, 0.000301921, 0.000358313, -0.000258638, -0.000258638, -0.000258638
7990, 1,0.00158343, 0.000328265, 0.000228337, 100.962, 20.8124, 0.00428334, 272.757, -94.4545, 0, 0.00187986, 0.00190679, 0.00131825, 121.541, -42.1817, 0, 0.00187826, 0.00126263, 0.00087072, 80.5057, -27.9519, 0, 0.00187783, -2.76757, 8.06197, 121.251, -1.60795, 5.03054, 80.433, -0.000722914, -0.000493296, 0.00190066, -0.000474294, -0.000474294, -0.000474294
7991, 1,0.000787024, -0.000360026, 0.000291845, 36.4984, -20.2889, 0.00249243, 104.406, 17.9855, 0, 0.00194767, 0.00101056, 0.00109666, 43.7971, 5.31973, 0, 0.00194807, 0.000563581, 0.00051323, 29.2042, -3.4562, 0, 0.00194834, 1.42781, 40.1102, -57.4972, 1.24128, 27.43, -18.3027, 0.000113544, 0.000932959, -0.00113279, -2.83596E-05, -2.83596E-05, -2.83596E-05
7992, 1,0.00077035, 0.00021221, 0.000181128, 50.3856, 11.6165, 0.00231321, 142.347, -44.3581, 0, 0.00187703, 0.000967244, 0.000643176, 61.2774, -20.8991, 0, 0.00187632, 0.000590243, 0.000426295, 40.2871, -16.6365, 0, 0.00187619, 1.1891, 29.6793, 31.829, 0.444504, 18.2945, 31.1707, -0.000304444, 0.000299401, 0.000344181, -0.000252984, -0.000252984, -0.000252984
7993, 1,0.0017977, 0.000421011, 0.000287039, 113.282, 26.3692, 0.00512744, 324.796, -110.763, 0, 0.00183525, 0.00221451, 0.00151642, 139.45, -46.7021, 0, 0.00183335, 0.00138347, 0.000951013, 87.239, -29.3257, 0, 0.00183283, -3.54405, 7.31707, 136.333, -2.42108, 4.221, 86.1771, -0.000810481, -0.00058038, 0.00214866, -0.000513181, -0.000513181, -0.000513181
7994, 1,0.000658862, -0.000400229, 0.000291962, 25.6727, -23.7342, 0.00246352, 94.3162, 29.7027, 0, 0.00204607, 0.000841219, 0.00108983, 29.4814, 13.8011, 0, 0.0020466, 0.000477938, 0.000509921, 21.9307, 0.87547, 0, 0.00204703, 3.28392, 27.3521, -72.0393, 2.09406, 20.2245, -24.945, 0.000286684, 0.000796095, -0.00130669, 5.82302E-05, 5.82302E-05, 5.82302E-05
7995, 1,0.00105892, 0.000271604, 0.000253098, 62.7402, 13.6711, 0.00356982, 194.64, -34.8226, 0, 0.00179995, 0.00131969, 0.00103854, 75.9009, -18.1596, 0, 0.00179946, 0.000807682, 0.000563769, 50.0272, -15.9186, 0, 0.0017994, 1.08187, 26.4773, 26.9195, 1.20546, 17.1476, 29.4029, -0.000263415, 0.000273971, 0.000284126, -0.000225448, -0.000225448, -0.000225448
7996, 1,0.00222646, 0.000570319, 0.000383182, 141.38, 35.5741, 0.00682029, 408.095, -115.171, 0, 0.00174101, 0.00279476, 0.00186209, 176.855, -60.1083, 0, 0.00173945, 0.00165957, 0.00110747, 105.975, -36.9664, 0, 0.0017388, 0.849966, 9.19835, 170.276, 1.44753, 6.43621, 103.015, -0.000928497, -0.000752152, 0.00265598, -0.000551626, -0.000551626, -0.000551626
7997, 1,0.00290169, 0.000760408, 0.000513785, 184.398, 47.5107, 0.0190439, 463.868, -143.469, 0.226099, 0.00158217, 0.00366063, 0.00244838, 231.831, -78.8996, 0, 0.00157998, 0.00214379, 0.00143532, 137.021, -47.8416, 0, 0.00157919, 3.95255, 9.34663, 223.4, 3.68417, 7.44405, 132.396, -0.00115807, -0.00104641, 0.00348473, -0.000675147, -0.000675147, -0.000675147
7998, 1,0.00365478, 0.000966457, 0.000654694, 225.485, 60.6718, 0.0476889, 509.999, -201.339, 0.7522, 0.00141001, 0.00461947, 0.00311428, 286.047, -90.8455, 0, 0.00140416, 0.00269131, 0.00181937, 164.999, -50.6358, 0, 0.00140324, -5.1697, -0.376529, 278.083, -6.65383, -1.39842, 159.96, -0.00153854, -0.00144805, 0.00446066, -0.000937954, -0.000937954, -0.000937954
7999, 1,0.0040335, 0.00112343, 0.000757093, 252.748, 70.8934, 0.067184, 601.725, -211.571, 1, 0.00125743, 0.00515593, 0.00346824, 323.563, -107.753, 0, 0.00124988, 0.00291184, 0.00196132, 181.992, -60.0065, 0, 0.00124891, 1.07403, 4.27065, 317.913, -1.28059, 3.14499, 178.155, -0.0016742, -0.00163389, 0.00505641, -0.000973066, -0.000973066, -0.000973066
8000, 1,0.00119552, 0.000298277, 0.000280239, 66.3961, 15.0838, 0.00617527, 326.689, -46.7768, 0, 0.00158364, 0.00148393, 0.00123096, 81.0199, -14.5824, 0, 0.00158281, 0.000914955, 0.000699494, 52.1375, -11.9335, 0, 0.00158275, -2.82225, 11.6027, 34.9668, -3.11764, 7.03472, 31.8835, -0.000289517, 1.40488E-05, 0.000512089, -0.000254031, -0.000254031, -0.000254031
8001, 1,0.0013852, 0.00027384, 0.000251344, 82.7708, 14.0635, 0.017316, 458.144, -138.446, 0.194417, 0.0013425, 0.0016513, 0.00135244, 96.4895, -24.6766, 0, 0.00133966, 0.00112345, 0.000868616, 69.2458, -21.6673, 0, 0.0013396, 6.66108, 0.889113, 66.4795, 6.98202, 4.14066, 53.8792, -0.000247711, -0.000376975, 0.00102508, -0.000193583, -0.000193583, -0.000193583
8002, 1,0.00142989, 0.000227506, 0.000189319, 86.5453, 12.758, 0.0318917, 484.995, -174.657, 0.475967, 0.00119478, 0.00165726, 0.00126518, 99.3021, -27.9086, 0, 0.00119072, 0.00120256, 0.00088828, 73.7889, -22.534, 0, 0.00119061, 4.08771, -6.95614, 86.5941, 4.04486, -1.26695, 64.824, -0.000350651, -0.000607289, 0.00141074, -0.000267076, -0.000267076, -0.000267076
8003, 1,0.000525873, -0.000516709, 0.000343489, 7.22332, -33.8276, 0.00261194, 50.1652, 98.4153, 0, 0.00166417, 0.000661648, 0.00119598, 4.24883, 36.2873, 0, 0.00166585, 0.000397042, 0.000556392, 10.5186, 11.0385, 0, 0.00166653, -4.47619, 3.20055, -107.586, -1.55129, 8.52955, -40.0937, 0.000476937, 0.000638565, -0.0017043, 0.000141522, 0.000141522, 0.000141522
8004, 1,0.000396442, -0.000539335, 0.000381339, -12.3671, -37.2417, 0.00314061, 41.533, 143.619, 0, 0.00116831, 0.000601186, 0.00120572, -14.4935, 57.7761, 0, 0.00116994, 0.000243397, 0.000498064, -7.82004, 26.231, 0, 0.00117054, -18.7061, -27.0618, -127.56, -15.3524, -10.1846, -53.156, 0.00051496, 0.000334866, -0.00178733, 8.95324E-05, 8.95324E-05, 8.95324E-05
8005, 1,0.000406025, -0.000577831, 0.000410214, -8.57263, -39.6352, 0.00262005, 8.08383, 155.665, 0, 0.00104165, 0.000637759, 0.00111984, -9.96234, 54.0036, 0, 0.00104337, 0.000187729, 0.000333678, -6.50252, 20.9198, 0, 0.00104393, -15.4398, -31.5462, -115.025, -12.6487, -12.8401, -37.2706, 0.000525857, 0.000180439, -0.00158258, 6.43864E-05, 6.43864E-05, 6.43864E-05
8006, 1,0.00159617, -0.00155765, 0.00104187, 8.19434, -102.042, 0.0185221, -72.0379, 361.495, 0.505052, 0.000841905, 0.00211694, 0.00388392, 4.40102, 128.284, 0, 0.000847045, 0.00107975, 0.00181276, 12.2169, 51.9715, 0, 0.000848095, 2.80659, -45.1474, -342.512, 10.7489, -16.7605, -149.903, 0.00208454, 0.00108172, -0.00524781, 0.00105168, 0.00105168, 0.00105168
8007, 1,0.00112144, -0.00130404, 0.000882722, -9.31633, -85.5736, 0.00808873, -24.6967, 292.452, 0.145744, 0.00092856, 0.00157942, 0.00307646, -11.5991, 115.814, 0, 0.000931617, 0.000668904, 0.00132212, -6.74426, 51.5289, 0, 0.000932589, -12.5845, -81.1903, -253.667, -7.73397, -38.6554, -108.197, 0.00156003, 0.000110431, -0.00354972, 0.000650947, 0.000650947, 0.000650947
8008, 1,0.000767391, -0.000846631, 0.000588057, -4.46272, -56.17, 0.00367131, 46.6863, 170.363, 0, 0.00132814, 0.00109686, 0.00200725, -5.02921, 76.3482, 0, 0.00133016, 0.000437945, 0.000831716, -3.89282, 32.9636, 0, 0.0013311, -5.34748, -81.5002, -142.197, -4.04185, -33.2692, -61.5798, 0.00109035, -0.000522529, -0.00180671, 0.00043513, 0.00043513, 0.00043513
8009, 1,0.000612414, -0.000492573, 0.000362242, 5.29742, -34.3912, 0.0024892, 38.8219, 105.897, 0, 0.00153613, 0.000844186, 0.00125407, 5.14593, 46.6876, 0, 0.0015376, 0.000380793, 0.00053416, 5.45894, 16.8415, 0, 0.00153835, 3.80571, -80.1115, -63.757, 4.94845, -28.2848, -27.188, 0.000816056, -0.000960659, -0.000613015, 0.000370395, 0.000370395, 0.000370395
8010, 1,0.000436458, -0.000343259, 0.000248712, 0.584015, -24.1454, 0.00181356, 19.3398, 89.1777, 0, 0.00200074, 0.000590261, 0.000998323, -0.0596221, 37.5741, 0, 0.00200242, 0.0002832, 0.000502053, 1.25641, 16.3051, 0, 0.00200311, -0.783215, -19.5718, -92.3673, 0.923943, -4.55221, -45.2871, 0.000574684, 0.00017756, -0.00136194, 0.000276056, 0.000276056, 0.000276056
8011, 1,0.000820764, -0.000388462, 0.000302334, 29.5131, -22.547, 0.00240599, 80.6754, 44.3786, 0, 0.0018901, 0.00103671, 0.00132846, 35.5376, 18.0808, 0, 0.0018909, 0.00060501, 0.000724545, 23.4978, 6.84557, 0, 0.00189125, 1.64971, 34.0964, -89.9884, 1.77076, 22.6795, -44.9869, 0.00031927, 0.00100641, -0.00161904, 0.000145105, 0.000145105, 0.000145105
8012, 1,0.00104617, -0.000386634, 0.000332843, 44.221, -20.8482, 0.00309823, 126.009, 27.4282, 0, 0.00185543, 0.0013248, 0.0014946, 54.819, 10.4683, 0, 0.00185594, 0.000767883, 0.000830168, 33.6386, 3.56282, 0, 0.00185615, 2.31443, 52.7208, -86.44, 1.64795, 32.457, -44.7934, 0.000213684, 0.00128065, -0.00166415, 9.10313E-05, 9.10313E-05, 9.10313E-05
8013, 1,0.000761106, -0.000245653, 0.000229525, 37.0648, -12.3376, 0.00225558, 105.247, 1.81902, 0, 0.00186205, 0.000970566, 0.000969705, 46.2407, -0.497374, 0, 0.00186212, 0.000555054, 0.000521654, 28.0497, -2.44266, 0, 0.00186218, 2.48292, 44.2057, -45.1965, 1.4111, 27.1317, -21.2148, 4.42299E-05, 0.000928176, -0.000964298, -8.95503E-06, -8.95503E-06, -8.95503E-06
8014, 1,0.000340927, 0.000131849, 9.69911E-05, 27.7226, 8.65311, 0.00106388, 81.0108, -41.2766, 0, 0.00184139, 0.000463824, 0.000385682, 35.9493, -18.8472, 0, 0.00184072, 0.000254627, 0.000226965, 21.2342, -12.3437, 0, 0.00184052, 0.893371, 25.4246, 30.2235, 0.36015, 15.4646, 21.2062, -0.000278489, 0.000241904, 0.000342423, -0.000187351, -0.000187351, -0.000187351
8015, 1,0.00139777, 0.000364848, 0.000255908, 88.1784, 22.9389, 0.00396259, 250.825, -85.3672, 0, 0.00182156, 0.00176015, 0.00123317, 110.997, -37.3511, 0, 0.00182014, 0.00103715, 0.00072705, 65.4464, -22.0603, 0, 0.00181969, -5.03457, 6.28544, 110.802, -3.04776, 3.8402, 65.3885, -0.000695091, -0.000454881, 0.00175604, -0.00041239, -0.00041239, -0.00041239
8016, 1,0.000661236, -0.000271484, 0.000229697, 28.9332, -14.8484, 0.00188227, 75.7102, 17.8006, 0, 0.00188708, 0.000847459, 0.00094454, 35.7214, 5.8178, 0, 0.00188744, 0.00047655, 0.000489833, 22.2176, 0.408393, 0, 0.00188761, 1.75922, 32.4686, -51.6812, 1.31903, 21.0732, -23.6174, 0.000128336, 0.000779159, -0.00100187, 3.39659E-05, 3.39659E-05, 3.39659E-05
8017, 1,0.000620537, 0.000199583, 0.000150854, 40.8436, 11.8322, 0.00170559, 107.73, -36.4235, 0, 0.00181854, 0.000818244, 0.000552117, 52.5862, -18.6905, 0, 0.00181802, 0.000425223, 0.000304402, 29.2151, -12.2474, 0, 0.00181783, 1.70837, 23.8685, 30.4947, 0.98719, 14.5803, 21.1746, -0.000258793, 0.000211267, 0.000350821, -0.000172625, -0.000172625, -0.000172625
8018, 1,0.00160005, 0.000455744, 0.000312489, 100.408, 28.5158, 0.00462964, 287.76, -92.6221, 0, 0.00177808, 0.00205419, 0.00141144, 128.844, -42.6656, 0, 0.00177664, 0.00114721, 0.000790553, 72.0377, -23.9391, 0, 0.0017761, -4.1385, 5.28646, 126.849, -2.44956, 2.92749, 71.3393, -0.000760005, -0.000559793, 0.0020121, -0.000429616, -0.000429616, -0.000429616
8019, 1,0.000455987, -0.000302681, 0.00021359, 13.1932, -18.1693, 0.00122956, 30.1642, 37.5566, 0, 0.00198139, 0.000578796, 0.000874466, 15.1396, 16.4097, 0, 0.00198207, 0.000333778, 0.000449523, 11.2748, 6.04207, 0, 0.0019824, 3.4349, 14.1691, -66.8331, 1.90339, 10.9387, -30.9683, 0.000330786, 0.000558457, -0.0011555, 0.000135279, 0.000135279, 0.000135279
8020, 1,0.000820409, 0.000245005, 0.000207802, 48.1928, 13.3406, 0.00222819, 115.619, -13.8404, 0, 0.00174284, 0.00106432, 0.000824425, 61.4809, -15.0039, 0, 0.00174287, 0.00057756, 0.000412869, 34.9555, -10.2764, 0, 0.00174274, 0.551748, 17.9293, 26.5305, 0.283627, 11.5726, 18.973, -0.000225092, 0.000143118, 0.000325445, -0.000156388, -0.000156388, -0.000156388
8021, 1,0.00201121, 0.000606364, 0.000405918, 127.138, 37.9579, 0.00616309, 358.116, -89.7636, 0, 0.00168593, 0.00261689, 0.00176736, 165.058, -55.5798, 0, 0.00168499, 0.00140611, 0.000959121, 89.25, -30.6176, 0, 0.00168431, -1.76856, 7.8124, 160.696, -1.15701, 5.85041, 87.1594, -0.000913273, -0.000710018, 0.00252514, -0.000507613, -0.000507613, -0.000507613
8022, 1,0.00270995, 0.000801211, 0.000540758, 172.416, 50.3747, 0.0156003, 449.878, -123.866, 0.158855, 0.00153157, 0.00351105, 0.0023405, 222.782, -76.3238, 0, 0.00153009, 0.00190894, 0.00126073, 122.057, -42.7506, 0, 0.00152925, 4.60411, 6.97713, 217.39, 3.21416, 5.8769, 119.161, -0.00110565, -0.00105475, 0.00339885, -0.000606879, -0.000606879, -0.000606879
8023, 1,0.00343945, 0.00101466, 0.000689329, 214.633, 64.1879, 0.0444056, 525.465, -233.855, 0.706546, 0.00136591, 0.00445396, 0.00308097, 278.801, -91.525, 0, 0.00135939, 0.00242507, 0.00170275, 150.479, -47.9628, 0, 0.00135843, 7.84077, -6.2211, 272.955, 3.8149, -6.63077, 146.704, -0.00127756, -0.00157627, 0.00433894, -0.000677608, -0.000677608, -0.000677608
8024, 1,0.00372004, 0.00118686, 0.000802174, 236.056, 75.4638, 0.0669303, 620.948, -236.814, 1, 0.00121867, 0.00490641, 0.00335399, 311.505, -107.114, 0, 0.00121022, 0.00253416, 0.00175237, 160.621, -55.1051, 0, 0.0012092, 13.2254, 0.0580734, 308.058, 7.59343, -0.971495, 158.693, -0.00140863, -0.00170348, 0.00485004, -0.000709162, -0.000709162, -0.000709162
8025, 1,0.000894898, 0.000276538, 0.000239821, 48.565, 15.0222, 0.00465206, 241.327, -28.8319, 0, 0.00153296, 0.00117053, 0.000967273, 63.5455, -11.0131, 0, 0.00153252, 0.00062015, 0.000491691, 33.6252, -5.7727, 0, 0.00153239, -3.05478, 2.52616, 33.5679, -3.89594, 1.27898, 19.935, -0.000238659, -0.000120811, 0.000538168, -0.000174024, -0.000174024, -0.000174024
8026, 1,0.00109909, 0.000279122, 0.000238294, 62.5653, 15.1373, 0.0143622, 457.387, -139.774, 0.137043, 0.00129995, 0.00137637, 0.00109969, 77.6222, -16.767, 0, 0.00129712, 0.000823058, 0.000626595, 47.5619, -11.5426, 0, 0.00129701, -1.25549, -9.969, 61.5254, -0.993738, -3.72923, 39.3508, -0.000291628, -0.00047831, 0.00104198, -0.000203874, -0.000203874, -0.000203874
8027, 1,0.00118891, 0.000290453, 0.00022585, 71.5262, 16.8793, 0.0315144, 516.357, -229.625, 0.47667, 0.00115837, 0.00147754, 0.00111912, 88.2871, -24.295, 0, 0.00115296, 0.000901515, 0.000672793, 54.8453, -15.8256, 0, 0.0011528, 2.55771, -11.5169, 81.8442, 2.63165, -4.83647, 49.6815, -0.000328593, -0.000635431, 0.00135817, -0.000193581, -0.000193581, -0.000193581
8028, 1,0.000397899, -0.0004009, 0.000278698, -1.52525, -27.2409, 0.0015873, 3.46047, 96.1395, 0, 0.00160908, 0.000551708, 0.00103895, -2.5463, 38.4454, 0, 0.00161059, 0.000257012, 0.000492441, 0.129185, 16.1813, 0, 0.00161117, -3.20029, -11.4286, -100.707, -1.1797, -0.971611, -46.3925, 0.000537899, 0.000363567, -0.0015253, 0.000230276, 0.000230276, 0.000230276
8029, 1,0.000527421, -0.000456471, 0.000327462, -7.57986, -32.943, 0.00213507, -12.8224, 152.849, 0, 0.00113749, 0.000723837, 0.00123671, -9.66326, 58.9594, 0, 0.00113923, 0.000333556, 0.000587684, -5.35777, 28.4372, 0, 0.00113979, -11.3116, -39.4692, -126.097, -6.8071, -17.8038, -60.7006, 0.000690077, 9.27613E-05, -0.00173956, 0.000305053, 0.000305053, 0.000305053
8030, 1,0.000570554, -0.000516479, 0.000362711, -2.12272, -35.9603, 0.00252438, -4.84801, 166.882, 0, 0.00101255, 0.00077805, 0.00130156, -3.85878, 54.6079, 0, 0.0010144, 0.00036461, 0.000583059, -0.298627, 23.6049, 0, 0.00101491, -6.07037, -37.1611, -120.592, -2.18543, -17.4891, -51.1401, 0.000733149, 7.53664E-05, -0.00169461, 0.000327564, 0.000327564, 0.000327564
8031, 1,0.00144877, -0.00144813, 0.000935694, -14.1895, -96.6412, 0.0211952, -92.8382, 447.508, 0.48986, 0.000818922, 0.00186223, 0.00380702, -22.844, 148.84, 0, 0.000825152, 0.0010357, 0.00194847, -5.50577, 73.1423, 0, 0.000826166, -37.7506, -51.2591, -357.512, -21.3661, -21.9224, -176.138, 0.00154758, 0.00128259, -0.00524528, 0.000703184, 0.000703184, 0.000703184
8032, 1,0.00111836, -0.00124911, 0.00081619, -21.3265, -83.8386, 0.00804025, -97.0452, 372.937, 0.159311, 0.000905501, 0.00148941, 0.00318523, -28.5777, 132.926, 0, 0.000909571, 0.000753135, 0.00156831, -13.7935, 66.3261, 0, 0.000910555, -32.241, -95.0385, -271.499, -18.6761, -47.3289, -132.973, 0.00141362, 8.89992E-05, -0.00365956, 0.000652499, 0.000652499, 0.000652499
8033, 1,0.00088794, -0.000823739, 0.000568821, -5.40662, -55.5823, 0.00448571, 66.6232, 195.311, 0, 0.00128715, 0.0012001, 0.00218898, -7.29737, 86.0038, 0, 0.00128943, 0.000577688, 0.00105645, -3.41484, 41.2875, 0, 0.00129037, -9.47632, -104.202, -144.333, -5.29989, -48.8402, -69.7223, 0.00115509, -0.000850136, -0.00170055, 0.00053963, 0.00053963, 0.00053963
8034, 1,0.000761149, -0.000503058, 0.000381276, 8.01793, -34.2508, 0.00330994, 70.8681, 114.959, 0, 0.00147869, 0.00102003, 0.00146664, 9.78017, 51.647, 0, 0.00148021, 0.00050288, 0.000706843, 6.28957, 23.5072, 0, 0.00148089, 6.45323, -99.2408, -62.1534, 4.46477, -44.5902, -30.3963, 0.000949955, -0.00128709, -0.00050097, 0.000464886, 0.000464886, 0.000464886
8035, 1,0.000485878, -0.000304259, 0.000222346, 1.46774, -20.7855, 0.00184176, 21.4933, 88.0768, 0, 0.0019387, 0.000626032, 0.00101995, 1.69382, 37.4892, 0, 0.00194029, 0.000345938, 0.000576426, 1.25401, 20.292, 0, 0.00194083, 0.685359, -19.9633, -93.1896, 0.675464, -9.47578, -52.0758, 0.000604652, 0.000168104, -0.00138108, 0.000333808, 0.000333808, 0.000333808
8036, 1,0.000812712, -0.000340314, 0.000281414, 28.2877, -18.6572, 0.00235889, 81.9182, 39.7169, 0, 0.00182933, 0.00103464, 0.0013275, 36.2072, 17.0486, 0, 0.00183, 0.000591201, 0.000766562, 20.3879, 10.1455, 0, 0.00183021, 3.03859, 35.0257, -89.2101, 1.82025, 19.8036, -52.0603, 0.000332411, 0.00100988, -0.0016189, 0.000198053, 0.000198053, 0.000198053
8037, 1,0.00104218, -0.000328612, 0.000304521, 43.4052, -16.4945, 0.00303317, 127.703, 21.0204, 0, 0.00179559, 0.00132211, 0.00148519, 55.6738, 9.14885, 0, 0.00179594, 0.000762605, 0.000877783, 31.1529, 6.56672, 0, 0.00179601, 3.53723, 53.7069, -84.6907, 1.95572, 30.1147, -51.7706, 0.000218745, 0.00128074, -0.00164789, 0.000144714, 0.000144714, 0.000144714
8038, 1,0.000765642, 0.000211455, 0.000200004, 36.116, 10.6733, 0.002186, 105.471, -2.90493, 0, 0.00180212, 0.000971596, 0.000974405, 46.5298, -0.822704, 0, 0.00180206, 0.000563394, 0.000588922, 25.877, 1.00303, 0, 0.00180201, 3.08026, 44.7118, -45.324, 1.59263, 25.1337, -29.7355, 5.17014E-05, 0.000933773, -0.00097209, 4.89935E-05, 4.89935E-05, 4.89935E-05
8039, 1,0.000285635, 0.000156718, 0.000116303, 23.1126, 10.8615, 0.00109605, 83.9135, -43.1403, 0, 0.00178218, 0.000434043, 0.000354073, 33.5805, -17.5621, 0, 0.00178144, 0.000182379, 0.000154867, 14.7848, -8.28779, 0, 0.00178117, 1.28024, 25.5097, 25.8963, 0.560912, 14.3751, 9.92734, -0.00025019, 0.000263946, 0.000271228, -0.000119476, -0.000119476, -0.000119476
8040, 1,0.00121216, 0.000398433, 0.000278496, 76.4831, 25.0944, 0.00389519, 246.336, -83.6321, 0, 0.00176303, 0.00160921, 0.00113112, 101.508, -34.2156, 0, 0.00176162, 0.000816499, 0.000577517, 51.5284, -17.4049, 0, 0.00176114, -4.93964, 6.3092, 101.277, -2.85114, 3.60202, 51.4639, -0.00064424, -0.000405003, 0.00160443, -0.000335588, -0.000335588, -0.000335588
8041, 1,0.000656331, -0.000221933, 0.000207564, 27.4404, -11.0583, 0.00182776, 75.9016, 14.0712, 0, 0.00182649, 0.000844122, 0.000947653, 35.7488, 5.56638, 0, 0.00182674, 0.000472606, 0.000547255, 19.324, 4.04222, 0, 0.00182679, 2.43127, 32.6264, -51.7568, 1.42067, 18.5382, -32.0855, 0.000138484, 0.000778642, -0.00100742, 9.31339E-05, 9.31339E-05, 9.31339E-05
8042, 1,0.000547065, 0.000231383, 0.000162134, 35.0352, 14.3705, 0.00174797, 110.385, -37.3132, 0, 0.00176014, 0.000775658, 0.000523058, 49.2716, -16.9496, 0, 0.00175956, 0.000322794, 0.000217194, 21.0053, -7.72931, 0, 0.0017593, 1.83012, 23.0433, 25.9755, 0.961842, 12.8641, 9.36195, -0.000229136, 0.000221306, 0.000282875, -0.000102464, -0.000102464, -0.000102464
8043, 1,0.0014087, 0.000491238, 0.000336587, 88.0727, 30.7726, 0.00459722, 284.189, -89.9112, 0, 0.00172104, 0.00189949, 0.00131019, 118.82, -39.054, 0, 0.00171962, 0.000918403, 0.00063883, 57.3525, -18.7775, 0, 0.00171906, -4.44851, 5.06661, 116.544, -2.66706, 2.54891, 56.4506, -0.00071064, -0.000507537, 0.00185188, -0.000354045, -0.000354045, -0.000354045
8044, 1,0.000439427, -0.000253175, 0.00018964, 10.8236, -14.4641, 0.00123167, 31.3123, 36.1041, 0, 0.00191714, 0.000560748, 0.00087113, 14.0632, 16.7085, 0, 0.00191774, 0.000321652, 0.00050457, 7.75045, 10.004, 0, 0.00191795, 4.33965, 13.0232, -67.4883, 2.23558, 7.64578, -39.8934, 0.000354526, 0.000539101, -0.00116473, 0.000204532, 0.000204532, 0.000204532
8045, 1,0.000730856, 0.000282567, 0.000221771, 41.8157, 16.2507, 0.0023056, 121.508, -16.8618, 0, 0.00168634, 0.00101087, 0.000800939, 57.9432, -13.6651, 0, 0.00168626, 0.000453922, 0.000366601, 25.8361, -5.89316, 0, 0.00168604, 1.45047, 16.9043, 22.6406, 0.870366, 9.86498, 6.94412, -0.000185588, 0.000142656, 0.000264676, -7.5654E-05, -7.5654E-05, -7.5654E-05
8046, 1,0.00180055, 0.000642572, 0.00043063, 114.012, 40.2397, 0.00616587, 360.938, -93.427, 0, 0.00163141, 0.00244309, 0.00164161, 154.248, -52.1437, 0, 0.00163032, 0.00115805, 0.000782451, 73.7807, -25.655, 0, 0.00162962, -0.255144, 6.97101, 149.715, 0.348645, 4.97521, 71.6411, -0.00082863, -0.000673644, 0.00234837, -0.000399278, -0.000399278, -0.000399278
8047, 1,0.00248433, 0.000841999, 0.000566286, 156.511, 52.8923, 0.0139593, 450.047, -125.019, 0.12679, 0.00148172, 0.00332505, 0.00222473, 209.328, -70.0303, 0, 0.00148017, 0.00164489, 0.00109425, 103.77, -34.8788, 0, 0.00147933, 3.25691, 3.73965, 203.094, 2.01692, 2.66004, 99.9594, -0.00103592, -0.00102402, 0.00319627, -0.000509317, -0.000509317, -0.000509317
8048, 1,0.00313067, 0.00105453, 0.000714266, 194.472, 66.6707, 0.0409759, 513.542, -217.184, 0.64612, 0.00132064, 0.00418501, 0.0029143, 261.124, -84.6973, 0, 0.00131519, 0.00207654, 0.00148654, 127.841, -39.5193, 0, 0.00131423, 8.65399, -10.1634, 255.601, 4.47956, -10.5213, 124.6, -0.00115266, -0.00154999, 0.00407697, -0.000530364, -0.000530364, -0.000530364
8049, 1,0.00342076, 0.00122291, 0.000825519, 218.109, 77.7794, 0.0657249, 599.273, -240.202, 1, 0.00117968, 0.00464301, 0.00314212, 295.887, -102.557, 0, 0.00117127, 0.00219926, 0.00149346, 140.334, -48.8902, 0, 0.00117025, 13.2767, 1.68349, 292.71, 7.10307, 0.604073, 138.964, -0.00133313, -0.00159405, 0.00459115, -0.000618853, -0.000618853, -0.000618853
8050, 1,0.000768454, 0.000324534, 0.000263977, 40.1283, 18.3731, 0.00445531, 234.371, -32.0017, 0, 0.00148294, 0.00109097, 0.000922407, 58.3991, -9.15238, 0, 0.00148239, 0.000448546, 0.000401516, 21.9902, -1.00857, 0, 0.0014822, -1.5201, 1.08368, 27.8936, -2.60368, -0.54593, 6.17532, -0.000177267, -0.000121783, 0.000447554, -7.21391E-05, -7.21391E-05, -7.21391E-05
8051, 1,0.00091032, 0.000335742, 0.000271344, 50.5289, 18.9185, 0.0128325, 443.856, -118.638, 0.105738, 0.00125672, 0.00124539, 0.00102526, 69.4149, -14.0115, 0, 0.00125444, 0.000576104, 0.000488108, 31.6841, -5.82078, 0, 0.00125427, -0.121934, -11.204, 53.3603, -0.479833, -5.4512, 23.3934, -0.000223526, -0.000460197, 0.00091105, -0.000102213, -0.000102213, -0.000102213
8052, 1,0.000922542, 0.000351349, 0.000262648, 52.9013, 20.8703, 0.0308371, 524.987, -243.796, 0.464469, 0.00112077, 0.00127271, 0.000999389, 73.6686, -17.4449, 0, 0.00111511, 0.000574023, 0.000486301, 32.2679, -5.98318, 0, 0.00111491, -0.634739, -15.1873, 68.1567, -1.30953, -9.1748, 28.4339, -0.000286981, -0.000602436, 0.0011724, -0.000120651, -0.000120651, -0.000120651
8053, 1,0.000452922, -0.000325729, 0.000226566, -1.84479, -22.1457, 0.00161668, 5.83977, 94.8331, 0, 0.00155423, 0.000579699, 0.00106107, -2.59116, 40.2748, 0, 0.00155561, 0.000326999, 0.000610715, -1.06103, 22.1491, 0, 0.00155606, -2.85409, -15.1182, -102.852, -1.36486, -6.44695, -58.6355, 0.000574104, 0.000314465, -0.00154209, 0.00032039, 0.00032039, 0.00032039
8054, 1,0.000568607, -0.00036835, 0.000264184, -8.12337, -27.1433, 0.00212549, -13.3692, 152.902, 0, 0.001106, 0.000725933, 0.00125627, -10.4065, 60.0199, 0, 0.00110767, 0.000414005, 0.000733931, -5.71046, 33.8843, 0, 0.00110814, -10.7294, -41.0386, -128.292, -6.37867, -21.1497, -74.1244, 0.000719335, 7.62522E-05, -0.00176952, 0.000400116, 0.000400116, 0.000400116
8055, 1,0.000627723, -0.000427006, 0.000299048, -2.6628, -30.2232, 0.00242693, -11.9478, 170.091, 0, 0.00098195, 0.000793382, 0.00137853, -4.85797, 56.8247, 0, 0.000983757, 0.000467142, 0.00079258, -0.224815, 29.8708, 0, 0.000984187, -5.17959, -37.6609, -127.634, -1.25487, -19.5019, -68.8556, 0.000786806, 9.95686E-05, -0.00180845, 0.000445776, 0.000445776, 0.000445776
8056, 1,0.00155043, -0.00132286, 0.000862419, -12.0147, -88.2189, 0.0206679, -90.4683, 448.174, 0.468513, 0.000795732, 0.00194028, 0.00386681, -19.2633, 148.804, 0, 0.000801668, 0.00116216, 0.00216095, -4.67552, 79.8128, 0, 0.000802566, -37.5887, -47.9513, -360.872, -23.4154, -21.5988, -194.424, 0.00155062, 0.00134948, -0.00531463, 0.000764823, 0.000764823, 0.000764823
8057, 1,0.00116946, -0.00113047, 0.000742226, -20.6003, -75.8303, 0.00796011, -97.1882, 373.975, 0.1553, 0.000882872, 0.00151539, 0.00323278, -26.6443, 132.012, 0, 0.000886856, 0.00083046, 0.00176522, -14.211, 71.8547, 0, 0.000887722, -31.6806, -93.9077, -270.449, -19.6492, -51.5728, -144.342, 0.00141053, 9.84499E-05, -0.0036511, 0.000718363, 0.000718363, 0.000718363
8058, 1,0.000934323, -0.000738936, 0.00051123, -6.03272, -50.0886, 0.00449268, 63.2075, 200.381, 0, 0.00124645, 0.00121677, 0.00220956, -7.83525, 87.7948, 0, 0.00124873, 0.000652874, 0.00118886, -4.18216, 47.0666, 0, 0.00124955, -11.2712, -105.498, -146.616, -6.58224, -55.4361, -79.1814, 0.00114547, -0.000848972, -0.00172115, 0.000603713, 0.000603713, 0.000603713
8059, 1,0.000817744, -0.000471073, 0.00036087, 7.96599, -32.1381, 0.00339447, 68.0594, 124.109, 0, 0.00142151, 0.00106814, 0.00152577, 9.9293, 54.5038, 0, 0.00142311, 0.000567573, 0.000805722, 6.01567, 27.9777, 0, 0.00142372, 5.3868, -103.851, -65.0475, 3.41127, -52.4616, -34.8827, 0.000972804, -0.00133941, -0.000517861, 0.000513481, 0.000513481, 0.000513481
8060, 1,0.000466399, -0.000299481, 0.00020203, -0.943621, -19.0011, 0.00152632, 3.33779, 92.4266, 0, 0.0018767, 0.000565289, 0.00106095, -1.11365, 37.3695, 0, 0.00187838, 0.000368389, 0.00066654, -0.730147, 24.3567, 0, 0.00187877, -2.73753, -8.76918, -100.602, -1.83523, -8.59866, -62.6362, 0.000530449, 0.000403248, -0.00154007, 0.000344754, 0.000344754, 0.000344754
8061, 1,0.000960223, -0.000325357, 0.000302343, 34.5676, -16.2412, 0.00291507, 111.296, 35.5627, 0, 0.00176862, 0.00123847, 0.00150446, 46.8557, 15.683, 0, 0.00176919, 0.000682699, 0.000903453, 22.3135, 13.3671, 0, 0.00176926, 2.79657, 45.3704, -95.2161, 1.25209, 21.68, -63.0336, 0.00030582, 0.00120734, -0.00176761, 0.000236726, 0.000236726, 0.000236726
8062, 1,0.00117947, 0.000324396, 0.000312743, 49.5015, 16.0729, 0.0034352, 151.923, 14.0075, 0, 0.00173574, 0.00150322, 0.00163735, 65.5436, 7.38748, 0, 0.00173592, 0.00085613, 0.00101445, 33.4783, 9.38011, 0, 0.00173587, 3.61525, 63.4207, -89.1984, 1.77986, 32.4293, -62.3495, 0.000192571, 0.00145856, -0.00177096, 0.000185107, 0.000185107, 0.000185107
8063, 1,0.000884703, 0.000245147, 0.00020116, 41.0019, 13.8116, 0.00251906, 126.741, -10.3372, 0, 0.00174176, 0.00112184, 0.00110673, 54.4351, -1.91114, 0, 0.00174152, 0.000651917, 0.000725238, 27.7746, 4.06797, 0, 0.00174135, 2.78154, 52.7933, -49.8414, 1.35421, 27.1483, -40.7064, 2.81455E-05, 0.00108772, -0.00108481, 9.20061E-05, 9.20061E-05, 9.20061E-05
8064, 1,0.000348794, 0.000204064, 0.000151062, 24.8267, 14.3532, 0.00142894, 105.436, -50.919, 0, 0.00172282, 0.000493185, 0.00038085, 36.3573, -17.5527, 0, 0.00172188, 0.000260969, 0.000185194, 15.9762, -4.91488, 0, 0.00172153, 1.02792, 30.3125, 21.3176, 0.479509, 15.7317, -1.46658, -0.00025538, 0.000365848, 0.000174365, -6.82027E-05, -6.82027E-05, -6.82027E-05
8065, 1,0.00105463, 0.000443215, 0.000305738, 67.388, 28.1982, 0.00414004, 263.39, -90.9871, 0, 0.00170435, 0.00149683, 0.00104439, 95.5333, -33.3125, 0, 0.00170275, 0.000613944, 0.000435019, 39.3218, -13.856, 0, 0.00170221, -3.01981, 7.79847, 95.1588, -1.68146, 3.98563, 39.264, -0.000589336, -0.000359177, 0.00148905, -0.000255004, -0.000255004, -0.000255004
8066, 1,0.000795488, 0.000248238, 0.000228996, 33.3159, 12.7815, 0.00242105, 109.974, 5.96453, 0, 0.00176592, 0.00103243, 0.00111589, 45.563, 4.33063, 0, 0.00176597, 0.000565889, 0.000688166, 21.4168, 7.14833, 0, 0.00176589, 2.29599, 41.6654, -56.9532, 1.1725, 20.6013, -43.2188, 0.000116024, 0.000950601, -0.00113686, 0.000136566, 0.000136566, 0.000136566
8067, 1,0.00060048, 0.000300111, 0.000202171, 36.0058, 18.9054, 0.00248321, 153.928, -49.1287, 0, 0.00170212, 0.000880821, 0.000625058, 53.9743, -16.5971, 0, 0.00170122, 0.00034759, 0.000289183, 19.339, -3.92441, 0, 0.00170087, 1.50979, 27.9492, 20.3323, 0.745928, 13.8418, -2.81453, -0.000230393, 0.000330835, 0.000168884, -4.72433E-05, -4.72433E-05, -4.72433E-05
8068, 1,0.00124801, 0.000536183, 0.000364499, 79.0583, 33.7851, 0.0049631, 313.23, -105.69, 0, 0.00166419, 0.00178406, 0.00122142, 112.832, -38.3186, 0, 0.00166238, 0.000712154, 0.000493119, 45.3024, -15.6607, 0, 0.00166176, -2.23809, 7.96493, 109.229, -0.983466, 4.23148, 43.7339, -0.000652164, -0.000434501, 0.00170843, -0.000269301, -0.000269301, -0.000269301
8069, 1,0.000611832, -0.000255344, 0.000229495, 18.6338, -12.874, 0.00226782, 87.8353, 25.975, 0, 0.00185321, 0.000800683, 0.00108087, 26.7545, 14.8852, 0, 0.00185355, 0.000432921, 0.000661762, 10.9839, 12.725, 0, 0.00185361, 4.31423, 24.2836, -73.2536, 2.40483, 10.7953, -51.375, 0.000325081, 0.000748792, -0.00131539, 0.000250694, 0.000250694, 0.000250694
8070, 1,0.000848379, 0.000375784, 0.000286152, 45.8707, 21.936, 0.00360521, 198.19, -37.3607, 0, 0.00163018, 0.00120777, 0.000999069, 67.0222, -13.353, 0, 0.00162955, 0.000508528, 0.000478619, 25.6559, -2.14657, 0, 0.00162925, 1.30222, 23.6259, 15.1308, 1.02506, 12.1823, -6.76771, -0.000183947, 0.000289812, 0.000110816, -1.35929E-05, -1.35929E-05, -1.35929E-05
8071, 1,0.00166246, 0.000684391, 0.000458244, 102.586, 42.8692, 0.0065624, 394.695, -113.603, 0, 0.0015773, 0.00234651, 0.00157955, 145.431, -46.4064, 0, 0.00157558, 0.000978877, 0.000665401, 59.7738, -18.1664, 0, 0.00157486, -2.88279, 3.57865, 138.523, -2.18199, 0.330544, 56.3506, -0.000793745, -0.000655002, 0.00220175, -0.000334813, -0.000334813, -0.000334813
8072, 1,0.00209188, 0.000872549, 0.000585858, 136.246, 54.6502, 0.013556, 461.337, -144.044, 0.120102, 0.00143251, 0.00296318, 0.00196147, 190.828, -68.2151, 0, 0.0014305, 0.00122244, 0.000803289, 81.7653, -32.2212, 0, 0.00142967, 7.68887, 15.0459, 181.911, 7.23799, 12.7635, 76.662, -0.000913657, -0.000756724, 0.00277726, -0.000357111, -0.000357111, -0.000357111
8073, 1,0.00277012, 0.00107621, 0.000725915, 170.292, 67.6215, 0.0381479, 486.628, -169.3, 0.584565, 0.0012754, 0.00384607, 0.00260295, 237.89, -74.9685, 0, 0.00127175, 0.00169447, 0.00116805, 102.724, -29.9675, 0, 0.00127082, -4.22047, -1.18673, 230.313, -6.20878, -2.49843, 98.6097, -0.00126717, -0.00121051, 0.00369413, -0.000601043, -0.000601043, -0.000601043
8074, 1,0.003007, 0.00123132, 0.000827142, 187.622, 77.7372, 0.0628043, 520.816, -205.843, 0.990144, 0.00114017, 0.00423771, 0.00287581, 265.357, -87.0974, 0, 0.00113329, 0.00177712, 0.00122696, 109.891, -34.5649, 0, 0.00113233, 2.93774, -2.4927, 260.847, -0.0732049, -4.20221, 107.97, -0.00130073, -0.00144514, 0.004159, -0.000536647, -0.000536647, -0.000536647
8075, 1,0.000845043, 0.00043103, 0.000342696, 42.1964, 24.6595, 0.00552036, 295.382, -46.3488, 0, 0.00143308, 0.00126511, 0.00113389, 66.3275, -8.77453, 0, 0.0014322, 0.000440514, 0.000486145, 18.8178, 2.73363, 0, 0.00143194, 1.31384, 6.28154, 18.7282, 0.35294, -0.0678583, -8.48597, -0.000111609, -6.40698E-06, 0.000260388, 4.90511E-05, 4.90511E-05, 4.90511E-05
8076, 1,0.000712829, 0.00044625, 0.000352574, 36.9766, 25.5491, 0.0130384, 429.577, -96.1049, 0.108939, 0.00121354, 0.00114783, 0.00102435, 61.956, -10.1511, 0, 0.00121172, 0.000311462, 0.000361, 13.6528, 1.8225, 0, 0.00121149, 4.94923, -7.40627, 32.9103, 4.27205, -6.37482, -3.36473, -5.45635E-05, -0.000321633, 0.00054088, 0.000119595, 0.000119595, 0.000119595
8077, 1,0.000718945, 0.000425184, 0.000314957, 41.6603, 25.3135, 0.0292836, 502.293, -204.255, 0.428725, 0.00108167, 0.00113152, 0.000897397, 66.513, -17.329, 0, 0.00107727, 0.00034105, 0.000309266, 18.1703, -3.29768, 0, 0.00107702, 5.3561, -12.8662, 59.497, 4.94997, -9.7371, 14.6802, -0.000156119, -0.000560451, 0.00099768, 5.65716E-05, 5.65716E-05, 5.65716E-05
8078, 1,0.000467251, -0.000315171, 0.000220482, -2.054, -19.6104, 0.00226937, 40.1606, 90.1637, 0, 0.00149933, 0.000565041, 0.00113755, -2.15085, 38.6967, 0, 0.00150058, 0.000375621, 0.00074679, -1.65884, 26.038, 0, 0.00150089, -3.72787, -3.93672, -108.426, -2.52392, -3.94253, -71.6475, 0.000530502, 0.000525941, -0.00168435, 0.000356794, 0.000356794, 0.000356794
8079, 1,0.000538015, -0.000331833, 0.000231044, -11.4827, -22.8063, 0.00254075, 15.8643, 140.013, 0, 0.00107366, 0.000665156, 0.00125719, -12.5941, 59.1403, 0, 0.00107507, 0.000412514, 0.000822262, -10.2892, 40.0145, 0, 0.00107541, -13.455, -33.5865, -130.379, -11.4984, -21.7405, -86.8045, 0.000647608, 0.000218335, -0.0018256, 0.000388073, 0.000388073, 0.000388073
8080, 1,0.000577032, -0.000345064, 0.000248608, -15.813, -24.0314, 0.00260273, -2.48307, 168.386, 0, 0.00095068, 0.000722312, 0.00141911, -16.6706, 68.2055, 0, 0.000952227, 0.000437662, 0.000949345, -14.6568, 47.478, 0, 0.000952547, -17.8862, -39.1313, -147.599, -16.652, -26.2381, -99.5438, 0.000697345, 0.000242991, -0.00204709, 0.000397372, 0.000397372, 0.000397372
8081, 1,0.00181482, -0.00115795, 0.000770393, 11.678, -76.1093, 0.0170706, -65.8288, 354.258, 0.453389, 0.000773076, 0.0021934, 0.00397606, 8.22027, 128.036, 2.01828E-07, 0.000777431, 0.00143726, 0.00244052, 15.1895, 70.65, 2.01828E-07, 0.000778156, 7.87468, -43.5162, -348.466, 14.5974, -23.732, -202.815, 0.00218743, 0.00110753, -0.0053725, 0.0014269, 0.0014269, 0.0014269
8082, 1,0.00127263, -0.000947199, 0.000638761, -11.7232, -62.3721, 0.00737689, -21.9886, 287.974, 0.120735, 0.000859805, 0.00160011, 0.00315737, -13.833, 120.186, -8.47033E-22, 0.000862441, 0.000947204, 0.00188569, -9.51302, 72.9149, -8.47033E-22, 0.000863103, -16.2712, -80.1179, -264.168, -11.5853, -51.0231, -156.136, 0.00155038, 0.00020151, -0.00370211, 0.000905789, 0.000905789, 0.000905789
8083, 1,0.000920678, -0.000598615, 0.000424641, -4.48305, -39.968, 0.00371603, 43.228, 177.927, 0, 0.00120578, 0.0011707, 0.00209294, -4.33362, 80.1773, 0, 0.00120769, 0.000671104, 0.00124537, -4.60868, 48.8213, 0, 0.00120831, -9.43119, -84.7472, -146.353, -8.3186, -50.618, -87.5274, 0.00106436, -0.000529937, -0.00183546, 0.00059454, 0.00059454, 0.00059454
8084, 1,0.000795529, -0.000360023, 0.000281431, 7.33803, -25.1443, 0.00274269, 36.5314, 125.077, 0, 0.00136436, 0.000998112, 0.00139186, 8.78733, 51.5718, 0, 0.00136599, 0.000593118, 0.000830044, 5.89827, 29.7358, 0, 0.00136647, 3.26274, -88.0707, -69.9075, 2.3141, -50.4168, -41.1047, 0.000881964, -0.00105149, -0.000667356, 0.000518244, 0.000518244, 0.000518244
8085, 1,0.00254389, 0.000463121, 0.000311719, 160.606, 28.9599, 0.00673672, 403.787, -114.776, 0, 0.00174444, 0.00300343, 0.0020002, 189.399, -63.7446, 0, 0.001743, 0.00208597, 0.00138698, 131.888, -44.7359, 0, 0.00174246, 0.329828, 8.96205, 181.942, 1.00171, 6.97295, 126.233, -0.000996885, -0.000814672, 0.00284589, -0.000683078, -0.000683078, -0.000683078
8086, 1,0.00199299, 0.000353082, 0.000243327, 125.248, 22.2715, 0.0050762, 321.3, -109.347, 0, 0.00183828, 0.00234321, 0.00159918, 147.385, -49.2102, 0, 0.00183649, 0.00164402, 0.00111941, 103.169, -34.2021, 0, 0.00183604, -3.43624, 7.73631, 143.33, -2.34285, 5.11598, 99.8333, -0.000847718, -0.000611192, 0.0022574, -0.000588081, -0.000588081, -0.000588081
8087, 1,0.00165271, 0.000304409, 0.000213238, 105.159, 19.3918, 0.00426484, 271.688, -94.1981, 0, 0.00188048, 0.00195347, 0.00134813, 124.378, -43.0337, 0, 0.00187892, 0.0013536, 0.000929144, 86.0175, -29.5863, 0, 0.00187851, -2.76339, 8.17192, 123.693, -1.61056, 5.33403, 85.0354, -0.00073622, -0.000504452, 0.00193895, -0.000499981, -0.000499981, -0.000499981
8088, 1,0.00127968, 0.000189165, 0.000170106, 73.7893, 9.73664, 0.00356072, 191.986, -31.8766, 0, 0.00180528, 0.00145678, 0.0011563, 82.9619, -19.0084, 0, 0.0018049, 0.00110713, 0.000843382, 64.8298, -16.8617, 0, 0.00180484, 0.30433, 26.7561, 29.9648, 0.209996, 19.097, 31.2782, -0.000293596, 0.000266388, 0.000335666, -0.000261494, -0.000261494, -0.000261494
8089, 1,0.0009925, 0.000133481, 0.000102292, 61.6963, 7.80927, 0.0023522, 143.974, -44.0788, 0, 0.00186556, 0.00110591, 0.000762127, 68.5606, -21.9093, 0, 0.00186489, 0.000885221, 0.000602301, 55.121, -17.8722, 0, 0.00186477, 1.14992, 30.2559, 34.322, 0.351316, 20.0736, 33.1918, -0.000321287, 0.000295543, 0.000381274, -0.000274383, -0.000274383, -0.000274383
8090, 1,0.000627539, 8.61848E-05, 6.3055E-05, 44.1359, 5.6074, 0.0013172, 95.1837, -44.2409, 0, 0.0018928, 0.000656163, 0.000498998, 47.0237, -21.5096, 0, 0.0018921, 0.000607692, 0.000441602, 41.6628, -17.3871, 0, 0.00189197, 0.730483, 30.0745, 33.7237, 0.313543, 19.4746, 32.3731, -0.000323812, 0.000298376, 0.00037448, -0.000267538, -0.000267538, -0.000267538
8091, 1,0.000709434, -0.000336043, 0.000250344, 26.6416, -19.4447, 0.00252592, 96.759, 30.3805, 0, 0.00204237, 0.000862518, 0.00112834, 30.3257, 13.9966, 0, 0.00204292, 0.000564721, 0.00066002, 23.3515, 4.44133, 0, 0.00204323, 4.16505, 27.6209, -73.7758, 2.09646, 19.4828, -34.9032, 0.00030782, 0.000805537, -0.00134044, 0.000113831, 0.000113831, 0.000113831
8092, 1,0.000861876, -0.000309471, 0.000254782, 39.3232, -17.0939, 0.00253368, 106.255, 18.1206, 0, 0.00195229, 0.00105052, 0.00114177, 45.78, 5.18628, 0, 0.0019527, 0.000681689, 0.000663492, 33.2647, -1.42853, 0, 0.00195291, 1.81933, 40.8211, -58.1993, 0.851923, 27.6227, -24.189, 0.000119656, 0.00094602, -0.00114979, -4.72925E-06, -4.72925E-06, -4.72925E-06
8093, 1,0.000885523, -0.000309625, 0.000270205, 44.0705, -16.3904, 0.00266291, 121.856, 5.36529, 0, 0.0019244, 0.00110817, 0.00110632, 52.8438, -0.638037, 0, 0.00192459, 0.000670171, 0.000589321, 35.6414, -5.34214, 0, 0.00192473, 2.24829, 50.4497, -50.7839, 1.19102, 32.8459, -18.0105, 3.70539E-05, 0.00105813, -0.00108478, -5.91468E-05, -5.91468E-05, -5.91468E-05
8094, 1,0.00117139, -0.000461158, 0.00038074, 50.2399, -25.5311, 0.00357042, 142.89, 34.7296, 0, 0.00191592, 0.001471, 0.00166453, 60.6716, 11.8877, 0, 0.00191663, 0.00087235, 0.000905347, 39.8354, 1.8696, 0, 0.00191694, 2.43145, 58.4949, -96.5894, 1.52542, 38.3988, -45.533, 0.000238578, 0.00142522, -0.00185663, 6.19298E-05, 6.19298E-05, 6.19298E-05
8095, 1,0.000977171, -0.00043389, 0.000335731, 36.2918, -25.0016, 0.00303429, 105.605, 50.7799, 0, 0.00195348, 0.00121369, 0.00152942, 42.982, 19.315, 0, 0.00195448, 0.000741451, 0.000861551, 29.6394, 7.25531, 0, 0.00195486, 2.03149, 41.3999, -101.377, 1.16343, 28.4451, -51.3745, 0.000347087, 0.0011805, -0.00184095, 0.000139066, 0.000139066, 0.000139066
8096, 1,0.00043202, -0.000366604, 0.000253094, -1.37122, -24.3484, 0.00148127, -0.889569, 95.2598, 0, 0.00206196, 0.000570173, 0.00108071, -1.8612, 38.7328, 0, 0.00206385, 0.000296513, 0.000580781, -0.742154, 19.8812, 0, 0.00206449, -1.96414, -11.6955, -102.539, -1.03916, -3.54212, -55.0622, 0.00056812, 0.000363106, -0.00155971, 0.000291006, 0.000291006, 0.000291006
8097, 1,0.000775576, -0.000383972, 0.000296049, 8.73871, -25.7154, 0.00243606, 39.1213, 102.121, 0, 0.00152685, 0.000982926, 0.00137682, 10.9728, 47.6909, 0, 0.0015282, 0.000568828, 0.000787304, 6.53589, 27.3629, 0, 0.0015287, 9.08192, -86.4761, -65.6785, 5.32884, -50.9928, -36.4246, 0.000942818, -0.00107787, -0.000638846, 0.000543368, 0.000543368, 0.000543368
8098, 1,0.000909772, -0.00068622, 0.000480884, -3.99507, -44.9712, 0.00367435, 48.2809, 168.431, 0, 0.00133129, 0.00118338, 0.0021108, -3.59623, 80.0319, 0, 0.0013332, 0.000637801, 0.00115431, -4.30949, 46.3602, 0, 0.00133393, -4.40895, -88.0804, -147.606, -4.97554, -52.1817, -81.9233, 0.00116601, -0.000600582, -0.0018641, 0.000623934, 0.000623934, 0.000623934
8099, 1,0.00134688, -0.00104052, 0.000703082, -7.22722, -68.355, 0.00825628, -23.5298, 292.823, 0.149865, 0.000928706, 0.00171157, 0.00326309, -9.14977, 121.024, 0, 0.000931702, 0.0009828, 0.00185985, -5.27039, 69.5339, 0, 0.000932481, -10.4099, -85.7244, -266.937, -5.75363, -52.5871, -150.261, 0.00168374, 0.000100528, -0.00374805, 0.000971658, 0.000971658, 0.000971658
8100, 1,0.00174874, -0.00121506, 0.000813201, 4.45734, -79.7429, 0.0184844, -71.162, 360.611, 0.503107, 0.000834814, 0.00215841, 0.0039964, 1.53477, 134.96, 0, 0.000839792, 0.00134011, 0.00237409, 7.44018, 75.0784, 0, 0.000840609, 0.0736667, -48.4283, -356.526, 6.89962, -26.3761, -205.759, 0.00212503, 0.00111922, -0.00543412, 0.00132663, 0.00132663, 0.00132663
8101, 1,0.000447657, -0.000434696, 0.000312279, -12.0413, -30.1401, 0.00276766, 8.4626, 164.171, 0, 0.00104048, 0.000629736, 0.00110499, -12.9954, 57.3027, 0, 0.00104228, 0.000271681, 0.000509097, -10.8086, 31.5591, 0, 0.00104272, -17.5199, -37.5354, -116.853, -15.5513, -21.1704, -57.9557, 0.000530833, 0.000108848, -0.0015695, 0.000167417, 0.000167417, 0.000167417
8102, 1,0.00171657, 0.000209251, 0.000167911, 105.491, 11.7548, 0.0302842, 487.102, -178.945, 0.44607, 0.00119797, 0.00191793, 0.00144575, 116.881, -35.1474, 0, 0.00119403, 0.00151732, 0.0011199, 94.1991, -30.1047, 0, 0.00119393, 7.11499, -7.15367, 105.481, 7.51794, -0.831191, 83.6272, -0.00039844, -0.000722339, 0.00169105, -0.000309376, -0.000309376, -0.000309376
8103, 1,0.0048779, 0.000926412, 0.000625003, 285.506, 56.4127, 0.0663481, 584.25, -211.273, 1, 0.00126669, 0.00579396, 0.00393136, 341.499, -111.18, 0.006534, 0.00125918, 0.00396654, 0.00269833, 229.711, -73.273, 0.00542346, 0.0012584, -2.68613, -0.748311, 336.975, -4.69398, -0.845719, 225.359, -0.00195087, -0.0019439, 0.00570532, -0.00136724, -0.00136724, -0.00136724
8104, 1,0.000456501, -0.000418507, 0.000298514, -12.195, -29.0042, 0.00320935, 40.2053, 149.662, 0, 0.00116218, 0.000622954, 0.00122121, -13.4865, 57.5609, 0, 0.00116391, 0.000312933, 0.000666421, -9.87512, 32.805, 0, 0.00116438, -17.1538, -28.7167, -126.812, -15.1052, -14.4987, -68.8111, 0.000542495, 0.000299027, -0.00177553, 0.000196341, 0.000196341, 0.000196341
8105, 1,0.0015923, 0.000210517, 0.000190809, 93.024, 10.9074, 0.0158911, 445.023, -118.418, 0.165681, 0.00134267, 0.00179764, 0.00147143, 103.705, -25.1761, 0, 0.00134038, 0.00138853, 0.00110058, 82.4131, -22.5825, 0, 0.00134032, 4.43724, -4.05745, 75.1484, 4.40658, 0.211318, 63.1296, -0.000301743, -0.000488424, 0.00119867, -0.000260973, -0.000260973, -0.000260973
8106, 1,0.00410944, 0.000774835, 0.000524896, 255.998, 48.3728, 0.0441171, 503.828, -193.42, 0.690564, 0.00140759, 0.00487861, 0.00327454, 304.113, -98.4432, 0, 0.00140266, 0.00334282, 0.00224658, 208, -66.8328, 0, 0.00140194, -3.14982, 1.71493, 296.765, -3.86803, 2.38091, 201.986, -0.00161068, -0.00152266, 0.00473067, -0.00112694, -0.00112694, -0.00112694
8107, 1,0.000531566, -0.000418865, 0.000279055, 3.58706, -27.0997, 0.00267698, 51.2206, 101.144, 0, 0.00166371, 0.000642415, 0.00121273, 1.53476, 38.6884, 0, 0.0016654, 0.000428438, 0.000702948, 6.003, 19.0875, 0, 0.00166593, -5.16337, 0.524742, -111.426, -3.72851, 3.73746, -57.2714, 0.000499121, 0.000621176, -0.00174804, 0.000221113, 0.000221113, 0.000221113
8108, 1,0.00141395, 0.00021745, 0.000200112, 78.6022, 11.1766, 0.00595999, 314.513, -44.2307, 0, 0.00159824, 0.00162345, 0.00134171, 89.4131, -17.1226, 0, 0.00159754, 0.00120746, 0.000959407, 67.9308, -14.6949, 0, 0.00159748, -1.93472, 11.9453, 41.3574, -2.49096, 9.00994, 37.5657, -0.000311232, -1.87582E-05, 0.000607833, -0.000284394, -0.000284394, -0.000284394
8109, 1,0.00329357, 0.000610695, 0.00041026, 208.714, 38.1674, 0.0172319, 461.518, -140.982, 0.190987, 0.00158154, 0.00389984, 0.002601, 246.677, -83.6865, 0, 0.00157964, 0.00268929, 0.00178831, 170.843, -58.6715, 0, 0.001579, 3.63608, 9.42795, 237.995, 3.45551, 8.39383, 164.165, -0.00123985, -0.0011202, 0.00371795, -0.000849284, -0.000849284, -0.000849284
8110, 1,0.00228703, 0.000494019, 0.000333802, 144.152, 30.9171, 0.00612275, 356.969, -90.8842, 0, 0.00169148, 0.00277716, 0.00187395, 174.882, -58.5751, 0, 0.00169059, 0.00179904, 0.0012167, 113.524, -38.244, 0, 0.00169004, -2.20387, 7.93079, 169.998, -1.50729, 6.34287, 109.896, -0.000968801, -0.000755166, 0.00267441, -0.000633797, -0.000633797, -0.000633797
8111, 1,0.00177132, 0.000387426, 0.000269066, 110.967, 24.2952, 0.00461491, 286.991, -92.5633, 0, 0.0017818, 0.0021556, 0.00147676, 135.11, -44.6146, 0, 0.00178041, 0.00138882, 0.000946837, 86.9092, -28.5403, 0, 0.00177995, -4.21198, 5.56483, 132.491, -2.54448, 3.42934, 84.736, -0.000791594, -0.000584869, 0.00210039, -0.000503145, -0.000503145, -0.000503145
8112, 1,0.00145803, 0.00034173, 0.00024135, 91.8774, 21.5226, 0.00395905, 250.671, -85.3942, 0, 0.00182205, 0.00179676, 0.00125677, 113.254, -38.0469, 0, 0.00182066, 0.00112116, 0.000781223, 70.5904, -23.6218, 0, 0.00182023, -5.06923, 6.4128, 112.797, -3.09081, 4.06456, 69.8916, -0.000706539, -0.000463232, 0.00178713, -0.000437555, -0.000437555, -0.000437555
8113, 1,0.000989711, 0.000175656, 0.000140068, 56.573, 9.95343, 0.00221081, 114.524, -13.5318, 0, 0.0017491, 0.00116261, 0.00091695, 66.398, -15.3904, 0, 0.00174916, 0.000817957, 0.000642176, 46.8012, -10.9508, 0, 0.00174903, 0.11749, 18.0811, 27.9727, -0.510061, 11.954, 21.4084, -0.00024033, 0.000139679, 0.000350392, -0.000183569, -0.000183569, -0.000183569
8114, 1,0.000798599, 0.000128212, 8.84444E-05, 49.8396, 8.3454, 0.00170657, 107.816, -36.5019, 0, 0.00180715, 0.000923074, 0.000623556, 58.0102, -19.3153, 0, 0.00180664, 0.00067547, 0.000472459, 41.7321, -13.1713, 0, 0.00180646, 1.62235, 24.4825, 31.841, 0.707452, 15.5111, 23.2954, -0.000270303, 0.000214049, 0.000369686, -0.000192818, -0.000192818, -0.000192818
8115, 1,0.000510512, 6.56818E-05, 6.0941E-05, 35.9446, 5.49366, 0.00106584, 81.149, -41.3499, 0, 0.00183271, 0.000565999, 0.000437895, 40.9582, -19.0661, 0, 0.00183205, 0.000456408, 0.000330061, 30.9958, -12.6449, 0, 0.00183186, 0.81913, 25.5086, 30.8706, 0.214656, 15.6811, 22.0389, -0.000283423, 0.000240096, 0.000352717, -0.000195043, -0.000195043, -0.000195043
8116, 1,0.000466964, -0.0002569, 0.000188119, 11.7763, -14.8244, 0.00124852, 31.0351, 37.5766, 0, 0.0019762, 0.000581615, 0.00090861, 14.5201, 17.4029, 0, 0.00197685, 0.00035491, 0.000544491, 9.15318, 10.2022, 0, 0.00197708, 4.31904, 13.5278, -70.0556, 1.93765, 7.88722, -40.4315, 0.00036504, 0.000560653, -0.00120806, 0.000201371, 0.000201371, 0.000201371
8117, 1,0.000705847, -0.00023128, 0.000200462, 30.0483, -12.233, 0.00189281, 76.2855, 17.6927, 0, 0.0018882, 0.000869594, 0.000982012, 36.4895, 6.19026, 0, 0.00188855, 0.000545874, 0.000596593, 23.7845, 2.69816, 0, 0.00188866, 2.17728, 32.5131, -53.2612, 0.889531, 20.034, -29.018, 0.000143191, 0.000785844, -0.00102945, 6.10777E-05, 6.10777E-05, 6.10777E-05
8118, 1,0.00078554, -0.000228814, 0.000215983, 38.0172, -11.3193, 0.00225655, 105.407, 1.66554, 0, 0.00186221, 0.000982651, 0.000985151, 46.8319, -0.523382, 0, 0.00186228, 0.000592894, 0.000569374, 29.4128, -1.87261, 0, 0.00186232, 2.67182, 44.4142, -45.5159, 1.3137, 27.1952, -22.891, 4.79E-05, 0.00093211, -0.00097148, -1.95405E-06, -1.95405E-06, -1.95405E-06
8119, 1,0.00105101, -0.00037384, 0.000324127, 43.9479, -19.8983, 0.00309995, 126.12, 27.3882, 0, 0.00185512, 0.00132486, 0.00150509, 54.6647, 10.6795, 0, 0.00185562, 0.00077758, 0.000858653, 33.2507, 4.69934, 0, 0.0018558, 2.83113, 52.6298, -87.4995, 1.57284, 32.037, -47.7078, 0.000228097, 0.00128204, -0.00168338, 0.000107474, 0.000107474, 0.000107474
8120, 1,0.00081837, -0.000354255, 0.000282688, 27.7256, -19.8357, 0.00241678, 81.3795, 44.1177, 0, 0.00189047, 0.00102891, 0.00135304, 34.5867, 18.8617, 0, 0.00189125, 0.00060824, 0.000789893, 20.8835, 10.5613, 0, 0.0018915, 3.0959, 33.3652, -93.0463, 1.58776, 20.1062, -53.3779, 0.000362621, 0.00100327, -0.00167191, 0.000200148, 0.000200148, 0.000200148
8121, 1,0.00054671, -0.000304859, 0.000219647, 1.90786, -20.1434, 0.00179069, 18.7899, 88.4485, 0, 0.00199062, 0.000680484, 0.00107596, 2.49895, 39.8459, 0, 0.00199219, 0.000413378, 0.000638806, 1.33938, 24.4444, 0, 0.00199269, 1.08991, -23.6449, -96.9827, 0.220244, -15.7886, -57.765, 0.000650623, 0.000127584, -0.00142477, 0.000389782, 0.000389782, 0.000389782
8122, 1,0.00093799, -0.000385098, 0.000302269, 10.3615, -25.49, 0.00327506, 71.3971, 112.02, 0, 0.00146693, 0.00115696, 0.00162321, 13.4224, 55.4285, 0, 0.00146827, 0.000719327, 0.00102136, 7.3162, 35.8449, 0, 0.00146874, 9.27905, -110.276, -65.2888, 4.56592, -72.2002, -39.9003, 0.00106924, -0.0014599, -0.000508822, 0.000661118, 0.000661118, 0.000661118
8123, 1,0.00107239, -0.000658573, 0.000456959, -4.2175, -43.9813, 0.00448495, 67.6862, 193.799, 0, 0.00128633, 0.00132633, 0.0023525, -5.06729, 91.048, 0, 0.00128848, 0.000819327, 0.00144202, -3.32464, 56.5143, 0, 0.0012892, -7.95085, -113.093, -152.1, -5.42319, -72.3706, -91.749, 0.00126504, -0.00095669, -0.00178579, 0.000774642, 0.000774642, 0.000774642
8124, 1,0.00131961, -0.00100664, 0.000662272, -22.6669, -67.2854, 0.00803993, -96.732, 371.993, 0.159727, 0.00090306, 0.00161796, 0.00340862, -28.2649, 140.72, 0, 0.000906991, 0.00102852, 0.00211686, -16.7171, 87.7794, 0, 0.000907771, -33.7066, -100.143, -288.312, -23.3327, -64.0407, -175.965, 0.00150102, 0.00010642, -0.00389084, 0.000886621, 0.000886621, 0.000886621
8125, 1,0.00162913, -0.00115862, 0.000756803, -17.6856, -77.0753, 0.0208703, -94.0706, 444.553, 0.487212, 0.000815501, 0.00195458, 0.00402049, -24.6099, 156.938, 0, 0.000821526, 0.00130689, 0.002555, -10.5836, 97.0167, 0, 0.000822325, -37.5593, -53.6777, -379.578, -25.5907, -31.2625, -234.197, 0.00167346, 0.00136038, -0.00558035, 0.000982598, 0.000982598, 0.000982598
8126, 1,0.000648619, -0.000395167, 0.000278766, -5.38689, -27.8316, 0.00268034, 4.67675, 163.782, 0, 0.00101327, 0.000810624, 0.00136761, -6.86924, 60.6552, 0, 0.00101497, 0.00048686, 0.000812179, -3.89243, 36.0801, 0, 0.00101537, -8.86002, -43.6753, -129.43, -5.31457, -27.2634, -75.6624, 0.000767186, 3.46074E-05, -0.00178602, 0.000455338, 0.000455338, 0.000455338
8127, 1,0.00141915, 0.000244349, 0.000189968, 85.5283, 14.0857, 0.0306171, 521.336, -237.849, 0.459788, 0.00116521, 0.00165805, 0.00123968, 99.3232, -27.3751, 0, 0.00115969, 0.00118246, 0.000869713, 71.8517, -20.5518, 0, 0.00115956, 1.32147, -11.1464, 91.9503, 1.13909, -4.44986, 64.9663, -0.000399814, -0.000675067, 0.00151902, -0.000295382, -0.000295382, -0.000295382
8128, 1,0.00448274, 0.000952635, 0.000644434, 281.235, 59.703, 0.0663004, 609.472, -238.446, 1, 0.00122962, 0.00542765, 0.00373998, 340.586, -114.838, 0.000686301, 0.00122117, 0.00354205, 0.00246153, 222.075, -74.0722, 0.000260176, 0.00122037, 12.9188, -5.79481, 337.39, 8.46575, -5.67032, 219.421, -0.00154221, -0.00196755, 0.00537377, -0.00098358, -0.00098358, -0.00098358
8129, 1,0.000625607, -0.000359713, 0.000258062, -6.81052, -25.9322, 0.00228188, -7.59041, 155.006, 0, 0.00113016, 0.000780655, 0.00130075, -8.40112, 60.8398, 0, 0.00113189, 0.000471409, 0.000788152, -5.1811, 36.8574, 0, 0.00113233, -10.4878, -40.9582, -131.073, -6.98721, -23.9996, -79.5856, 0.00073554, 9.24461E-05, -0.00181521, 0.000432053, 0.000432053, 0.000432053
8130, 1,0.00123754, 0.000219954, 0.000186937, 68.5042, 11.891, 0.0130601, 445.096, -120.416, 0.110262, 0.00130597, 0.00145421, 0.00118389, 80.2483, -15.3068, 0, 0.00130357, 0.00102222, 0.0008151, 56.8198, -11.2835, 0, 0.00130349, -3.58836, -15.3503, 64.8592, -3.52535, -9.60137, 46.9772, -0.000315631, -0.000569579, 0.00113356, -0.000250616, -0.000250616, -0.000250616
8131, 1,0.00389145, 0.000813071, 0.000550693, 243.974, 51.1098, 0.0416927, 519.02, -224.793, 0.657941, 0.00136815, 0.00469385, 0.00322612, 294.57, -97.1735, 0, 0.00136244, 0.00309469, 0.00213894, 193.65, -63.1098, 0, 0.00136168, 6.52737, -3.4937, 288.487, 4.07865, -2.87494, 188.126, -0.00138813, -0.00160853, 0.0045734, -0.00090295, -0.00090295, -0.00090295
8132, 1,0.000495539, -0.00033133, 0.000228747, -1.24361, -21.969, 0.00164711, 5.5053, 97.1662, 0, 0.00160975, 0.000619701, 0.00111529, -1.67525, 41.5956, 0, 0.0016112, 0.000372401, 0.000663443, -0.764892, 24.6527, 0, 0.00161164, -3.26375, -14.5446, -106.979, -2.42145, -8.34008, -63.1967, 0.000585467, 0.000347875, -0.00160829, 0.00033658, 0.00033658, 0.00033658
8133, 1,0.00106494, 0.000209364, 0.000177145, 58.2362, 11.5606, 0.00444643, 232.116, -29.6116, 0, 0.00154908, 0.00127227, 0.00105471, 69.7028, -12.8608, 0, 0.00154866, 0.000858525, 0.000704328, 46.8118, -8.3831, 0, 0.00154854, -2.08002, 4.17626, 36.4861, -3.07049, 2.94341, 25.2764, -0.000246642, -0.000115866, 0.000571186, -0.000196913, -0.000196913, -0.000196913
8134, 1,0.00311354, 0.000645012, 0.000432484, 196.973, 40.4173, 0.0145159, 447.621, -120.702, 0.137392, 0.00153422, 0.00375127, 0.00252458, 237.041, -80.1396, 0, 0.00153297, 0.00247964, 0.00166998, 157.086, -53.4585, 0, 0.0015323, 3.93968, 5.33436, 231.145, 3.25007, 4.73105, 152.394, -0.00117765, -0.00115038, 0.00362839, -0.000771886, -0.000771886, -0.000771886
8135, 1,0.00205833, 0.000522829, 0.000354491, 130.276, 32.7118, 0.00615547, 361.519, -94.858, 0, 0.00163903, 0.00257737, 0.00172997, 162.799, -55.0121, 0, 0.00163797, 0.00154192, 0.00103497, 97.8825, -33.5277, 0, 0.0016374, -0.0914507, 7.51217, 157.616, 0.535947, 5.71358, 94.3336, -0.000867553, -0.000708026, 0.00246821, -0.000515958, -0.000515958, -0.000515958
8136, 1,0.00156853, 0.000417655, 0.000289855, 97.8242, 26.2191, 0.00460757, 285.275, -90.7147, 0, 0.0017254, 0.00198367, 0.00136619, 123.917, -40.4991, 0, 0.00172399, 0.00115525, 0.00079376, 71.8232, -23.1024, 0, 0.00172351, -4.81188, 5.30639, 121.003, -3.19021, 2.92305, 69.5744, -0.000739332, -0.000525596, 0.00192207, -0.000431127, -0.000431127, -0.000431127
8137, 1,0.00126834, 0.000373385, 0.000262692, 79.8969, 23.5578, 0.00390333, 246.893, -83.8666, 0, 0.00176344, 0.0016394, 0.00115077, 103.34, -34.7403, 0, 0.00176203, 0.000899216, 0.000630732, 56.5508, -18.8739, 0, 0.00176158, -5.02212, 6.41203, 102.831, -2.9967, 3.77376, 55.8448, -0.000653665, -0.000411213, 0.00162858, -0.000361103, -0.000361103, -0.000361103
8138, 1,0.000884533, 0.000208371, 0.000154045, 49.2477, 12.4431, 0.00228841, 121.185, -17.511, 0, 0.00169363, 0.0010901, 0.000885819, 61.5539, -13.4486, 0, 0.00169352, 0.000680709, 0.000585526, 37.0265, -6.48075, 0, 0.00169333, 1.21604, 17.2537, 21.8761, 0.326387, 10.2746, 8.84129, -0.000185976, 0.00015247, 0.000251735, -9.50994E-05, -9.50994E-05, -9.50994E-05
8139, 1,0.000711413, 0.000157256, 0.000111777, 43.1566, 10.6551, 0.00174025, 110.319, -37.722, 0, 0.0017489, 0.000865186, 0.000602257, 53.6443, -17.1126, 0, 0.00174832, 0.00055937, 0.000431259, 32.7519, -8.45687, 0, 0.00174807, 1.7562, 23.408, 26.1738, 0.664698, 13.4873, 11.2186, -0.000232504, 0.000225817, 0.000284375, -0.000119332, -0.000119332, -0.000119332
8140, 1,0.000446298, 9.44979E-05, 8.37301E-05, 30.8364, 7.85767, 0.00108409, 83.4771, -43.3233, 0, 0.00177263, 0.000525884, 0.000400017, 37.9864, -17.6247, 0, 0.0017719, 0.00036919, 0.00025098, 23.8037, -8.51846, 0, 0.00177163, 1.19975, 25.5259, 26.1486, 0.382636, 14.524, 10.6488, -0.000252621, 0.000263081, 0.00027554, -0.00012658, -0.00012658, -0.00012658
8141, 1,0.000441691, -0.000209176, 0.000163764, 8.4686, -11.4528, 0.00124478, 31.9157, 36.1339, 0, 0.00191091, 0.00055848, 0.000910304, 12.4225, 18.7712, 0, 0.00191145, 0.000329051, 0.000588006, 4.70803, 14.561, 0, 0.00191158, 4.82833, 11.3682, -72.5101, 2.43035, 3.85495, -49.9683, 0.000397789, 0.000536126, -0.00123849, 0.000280714, 0.000280714, 0.000280714
8142, 1,0.000695586, -0.000180651, 0.000175324, 28.0059, -8.58253, 0.00180962, 75.2269, 13.8243, 0, 0.00182442, 0.000863762, 0.000988749, 35.9098, 6.60001, 0, 0.00182464, 0.000528433, 0.0006428, 20.1496, 6.47903, 0, 0.00182464, 2.5934, 32.0658, -54.4593, 1.08955, 17.2808, -37.8074, 0.000158636, 0.000782642, -0.00104835, 0.000124911, 0.000124911, 0.000124911
8143, 1,0.000787031, 0.000199123, 0.000185261, 36.7989, 10.2317, 0.00217468, 105.011, -3.00781, 0, 0.00180015, 0.000982111, 0.000990982, 46.8403, -0.571122, 0, 0.00180008, 0.000594318, 0.000630708, 26.8688, 1.63464, 0, 0.00180002, 3.15156, 44.6346, -46.0728, 1.50741, 25.1027, -31.5141, 5.73424E-05, 0.00093594, -0.00098398, 5.73004E-05, 5.73004E-05, 5.73004E-05
8144, 1,0.00104719, -0.000315862, 0.000296072, 43.0161, -15.6308, 0.003027, 127.414, 21.0172, 0, 0.00179437, 0.00132306, 0.00149708, 55.3532, 9.63993, 0, 0.00179471, 0.00077158, 0.000906429, 30.6915, 7.75627, 0, 0.00179476, 3.72892, 53.4112, -86.0599, 1.89769, 29.6346, -54.8011, 0.000230682, 0.00128217, -0.00166923, 0.000162336, 0.000162336, 0.000162336
8145, 1,0.000809818, -0.000305659, 0.000261948, 26.0954, -16.1513, 0.0023457, 81.2876, 39.7268, 0, 0.00182762, 0.00102782, 0.00135497, 34.694, 18.648, 0, 0.00182824, 0.000591979, 0.000832366, 17.5041, 14.0686, 0, 0.00182838, 3.57123, 33.6359, -93.151, 1.66059, 16.9945, -60.8609, 0.00036934, 0.00100554, -0.00167744, 0.000256834, 0.000256834, 0.000256834
8146, 1,0.000592186, -0.000266789, 0.000189484, 2.00916, -17.1228, 0.00183584, 21.1621, 88.1151, 0, 0.00191977, 0.000703436, 0.00109513, 2.75393, 40.9433, 0, 0.00192124, 0.000481394, 0.000718411, 1.28644, 28.817, 0, 0.00192162, 1.35508, -25.0643, -99.1206, 0.218826, -21.2345, -65.4354, 0.00067374, 0.000114638, -0.00145275, 0.000458707, 0.000458707, 0.000458707
8147, 1,0.000988951, -0.00034901, 0.000273911, 9.25502, -23.3076, 0.00338403, 67.691, 123.911, 0, 0.0014073, 0.00118692, 0.00167934, 11.7985, 59.4935, 0, 0.00140878, 0.000791435, 0.0011351, 6.7332, 41.1885, 0, 0.00140919, 6.78134, -116.301, -68.9607, 3.61347, -81.6202, -45.5588, 0.00108082, -0.00152362, -0.000522656, 0.000725409, 0.000725409, 0.000725409
8148, 1,0.00111862, -0.000587795, 0.00040869, -5.77061, -39.3965, 0.00449033, 62.2543, 201.44, 0, 0.00124179, 0.00134322, 0.00239818, -6.77151, 94.3674, 0, 0.00124395, 0.00089666, 0.00159173, -4.6446, 63.1564, 0, 0.00124458, -10.669, -116.138, -156.295, -7.08422, -80.0259, -102.359, 0.00126092, -0.000969409, -0.00182282, 0.000844991, 0.000844991, 0.000844991
8149, 1,0.00133155, -0.000896657, 0.000587134, -25.1648, -60.1061, 0.00782083, -100.476, 375.213, 0.153377, 0.000877566, 0.00160793, 0.00346721, -29.8326, 142.239, 0, 0.000881392, 0.00105575, 0.00229711, -20.4695, 94.6081, 0, 0.000882074, -33.6185, -100.41, -292.688, -22.4897, -68.6885, -192.646, 0.00152905, 0.000123501, -0.00396061, 0.001014, 0.001014, 0.001014
8150, 1,0.00168842, -0.00103974, 0.000677242, -18.3144, -69.4443, 0.0201222, -93.7002, 448.075, 0.458895, 0.000796176, 0.00199479, 0.00406673, -24.1263, 158.973, 0, 0.000801925, 0.00138303, 0.00272377, -12.4602, 104.445, 0, 0.000802635, -38.785, -54.1687, -383.965, -26.2233, -34.1659, -252.945, 0.00168275, 0.00137905, -0.00564132, 0.00108924, 0.00108924, 0.00108924
8151, 1,0.000713025, -0.000338136, 0.000239304, -6.65773, -23.9775, 0.00245077, -0.312428, 156.064, 0, 0.000985161, 0.000846546, 0.00149429, -8.33816, 64.9486, 0, 0.000986618, 0.000583867, 0.00103298, -4.77155, 43.4707, 0, 0.000986962, -8.63658, -43.7072, -142.502, -5.63825, -29.0914, -95.6826, 0.000840012, 0.000100852, -0.00199476, 0.000565138, 0.000565138, 0.000565138
8152, 1,0.00102741, 0.000285378, 0.000214947, 60.8222, 16.7496, 0.0304594, 529.632, -251.586, 0.457818, 0.00113098, 0.00130728, 0.00101745, 77.3025, -20.1458, 0, 0.00112517, 0.000752217, 0.000605817, 44.5707, -11.3835, 0, 0.00112501, 1.60836, -12.846, 71.6749, 1.21754, -7.16431, 40.0973, -0.000282437, -0.000594774, 0.00120402, -0.000152037, -0.000152037, -0.000152037
8153, 1,0.00400491, 0.000969756, 0.000653829, 254.851, 61.4337, 0.0652921, 590.998, -240.946, 1, 0.00119186, 0.00496794, 0.00339201, 315.991, -109.022, 0, 0.00118345, 0.00304624, 0.00209385, 193.902, -67.1246, 0, 0.00118265, 15.7812, -1.27478, 312.56, 10.9445, -1.34582, 191.775, -0.00138185, -0.00176058, 0.00491133, -0.000822971, -0.000822971, -0.000822971
8154, 1,0.000665017, -0.000305054, 0.000219845, -8.49023, -22.1029, 0.00214244, -11.075, 150.89, 0, 0.00109785, 0.000791645, 0.00135859, -10.1886, 63.9423, 0, 0.0010994, 0.000542529, 0.000937631, -6.59677, 43.2945, 0, 0.00109977, -10.6814, -43.2593, -137.886, -7.63225, -28.1565, -94.0947, 0.000780957, 9.2112E-05, -0.00191064, 0.000520189, 0.000520189, 0.000520189
8155, 1,0.00101092, 0.000265177, 0.000214183, 54.2471, 14.8346, 0.0120636, 437.754, -109.116, 0.0900216, 0.00126875, 0.0012723, 0.00107471, 68.9004, -11.5953, 0, 0.00126663, 0.00075236, 0.000655343, 39.7285, -5.41359, 0, 0.0012665, -1.93902, -15.1897, 51.9145, -2.15334, -10.4002, 28.7943, -0.000222994, -0.00050755, 0.000918658, -0.000130008, -0.000130008, -0.000130008
8156, 1,0.00356441, 0.000834676, 0.000564102, 223.162, 52.5816, 0.0393976, 509.284, -211.066, 0.617248, 0.001327, 0.00439471, 0.00303486, 275.523, -90.7141, 0, 0.00132203, 0.00273683, 0.00191296, 170.939, -55.4581, 0, 0.00132128, 9.34949, -6.74586, 269.539, 5.95068, -6.53632, 166.96, -0.00122975, -0.00157441, 0.00427609, -0.000746168, -0.000746168, -0.000746168
8157, 1,0.000546567, -0.000275599, 0.000190023, -2.29806, -18.1002, 0.00167167, 7.59037, 95.9024, 0, 0.00155658, 0.000646945, 0.00115427, -2.62878, 44.6034, 0, 0.00155787, 0.000448126, 0.00078391, -1.87557, 30.9682, 0, 0.00155822, -3.39228, -18.7276, -111.69, -2.80765, -14.3508, -75.7462, 0.000630776, 0.000306211, -0.00166075, 0.000428322, 0.000428322, 0.000428322
8158, 1,0.000918782, 0.000248988, 0.000198632, 47.6472, 14.2878, 0.00433436, 229.381, -32.9738, 0, 0.00150055, 0.00116527, 0.00100142, 61.8104, -8.99894, 0, 0.00149996, 0.000674091, 0.000611119, 33.5735, -2.2344, 0, 0.0014998, -1.67393, 1.30553, 27.3652, -2.8906, -0.737413, 10.3312, -0.000176803, -0.000116148, 0.00043896, -9.60161E-05, -9.60161E-05, -9.60161E-05
8159, 1,0.0028306, 0.000669239, 0.000447921, 177.675, 41.9581, 0.013316, 449.482, -124.625, 0.114222, 0.00148756, 0.00349689, 0.002348, 219.485, -72.7645, 0, 0.0014861, 0.00216615, 0.00145834, 135.957, -45.0331, 0, 0.00148543, 1.85796, 3.2156, 213.22, 0.630452, 2.4437, 132.025, -0.00110596, -0.00107926, 0.00336591, -0.000695188, -0.000695188, -0.000695188
8160, 1,0.0018898, 0.000552215, 0.000372198, 116.314, 34.6679, 0.00657194, 395.99, -114.684, 0, 0.0015867, 0.00244004, 0.0016467, 150.879, -47.7314, 0, 0.00158498, 0.00134116, 0.000918855, 81.8324, -24.7312, 0, 0.00158438, -3.32973, 3.49517, 143.029, -2.84391, 0.595163, 76.4424, -0.000821401, -0.000678596, 0.00227448, -0.000449096, -0.000449096, -0.000449096
8161, 1,0.00139252, 0.00045426, 0.000311602, 87.7628, 28.7705, 0.00498029, 314.474, -106.258, 0, 0.00166901, 0.00184329, 0.00125976, 116.361, -39.2715, 0, 0.0016672, 0.000945068, 0.000644451, 59.3295, -19.6759, 0, 0.00166667, -2.36791, 8.36416, 111.818, -1.31042, 4.89442, 55.4436, -0.000668406, -0.000441651, 0.00174728, -0.000337659, -0.000337659, -0.000337659
8162, 1,0.00110755, 0.000415042, 0.000287697, 70.4973, 26.4918, 0.00414928, 264.091, -91.3409, 0, 0.0017047, 0.00151925, 0.0010588, 96.8251, -33.618, 0, 0.0017031, 0.000699829, 0.000489441, 44.365, -15.1657, 0, 0.00170259, -3.11754, 7.89272, 96.0788, -1.85494, 4.18907, 43.1629, -0.000595734, -0.000362191, 0.00150342, -0.000278723, -0.000278723, -0.000278723
8163, 1,0.00101039, 0.000282737, 0.000206005, 53.1359, 17.0133, 0.00352571, 194.513, -37.4375, 0, 0.00163844, 0.00128184, 0.00109159, 69.6104, -12.0786, 0, 0.00163776, 0.000745294, 0.000711581, 36.9652, -2.28095, 0, 0.0016375, 1.01921, 23.8545, 11.3621, 0.489726, 13.0511, -6.69799, -0.000168326, 0.000313222, 5.11045E-05, -2.54124E-05, -2.54124E-05, -2.54124E-05
8164, 1,0.000768803, 0.000212664, 0.000150806, 44.0606, 14.4261, 0.00242339, 151.415, -49.546, 0, 0.00169076, 0.000966537, 0.000717906, 57.7765, -16.2197, 0, 0.00168985, 0.000577884, 0.000512613, 30.6693, -4.47398, 0, 0.00168952, 1.53615, 28.2809, 18.8419, 0.62105, 14.8754, -2.0745, -0.000223029, 0.000342804, 0.000143425, -5.76064E-05, -5.76064E-05, -5.76064E-05
8165, 1,0.000483532, 0.000139571, 0.000117538, 31.2601, 11.195, 0.00137595, 103.087, -51.1282, 0, 0.00171266, 0.000578683, 0.000422542, 40.3516, -17.451, 0, 0.00171172, 0.000394205, 0.0003152, 22.4445, -5.10944, 0, 0.00171138, 0.990687, 30.3294, 21.0331, 0.365272, 16.0647, -1.1017, -0.000254284, 0.000367461, 0.000170007, -7.33721E-05, -7.33721E-05, -7.33721E-05
8166, 1,0.000632798, -0.000202593, 0.000190067, 16.7822, -9.73594, 0.00214917, 81.9218, 26.3942, 0, 0.00184608, 0.000808124, 0.00113998, 24.9029, 17.8741, 0, 0.00184634, 0.000459156, 0.000767602, 8.74489, 17.4348, 0, 0.00184635, 4.55442, 22.3384, -80.5151, 2.73263, 7.82707, -62.864, 0.000378025, 0.000753697, -0.00142174, 0.000332404, 0.000332404, 0.000332404
8167, 1,0.00084898, 0.000211443, 0.000186232, 34.3056, 11.366, 0.0023501, 106.692, 5.87052, 0, 0.00176069, 0.00106033, 0.00117126, 45.6671, 5.97429, 0, 0.00176068, 0.000637717, 0.000800522, 22.9483, 9.66315, 0, 0.00176058, 2.25314, 40.9267, -61.1027, 0.935563, 19.9848, -49.9098, 0.000141618, 0.000960114, -0.00119864, 0.000171706, 0.000171706, 0.000171706
8168, 1,0.000910469, 0.000227286, 0.000182003, 41.7754, 13.0397, 0.0024895, 125.36, -10.3591, 0, 0.00173822, 0.00113518, 0.00112852, 54.6935, -1.40826, 0, 0.00173797, 0.000686978, 0.000771737, 28.9144, 4.76618, 0, 0.0017378, 2.75616, 52.5957, -51.1271, 1.27326, 27.2888, -42.8606, 3.57448E-05, 0.0010912, -0.00110405, 0.000101489, 0.000101489, 0.000101489
8169, 1,0.00118833, 0.000318071, 0.00030291, 49.1691, 15.9547, 0.00341619, 150.955, 14.1006, 0, 0.00173394, 0.00150609, 0.00165307, 65.1091, 8.15362, 0, 0.0017341, 0.000870752, 0.00104913, 33.2376, 10.632, 0, 0.00173403, 3.61918, 62.9881, -91.0681, 1.71086, 32.1489, -65.7556, 0.000204826, 0.00146139, -0.00179847, 0.000203422, 0.000203422, 0.000203422
8170, 1,0.000968192, -0.000288396, 0.000278287, 32.5132, -13.8594, 0.00286173, 108.447, 36.0036, 0, 0.00176502, 0.00123632, 0.00154214, 44.9544, 18.1028, 0, 0.00176553, 0.000700099, 0.000987054, 20.0737, 17.4824, 0, 0.00176555, 2.75782, 43.5179, -100.584, 1.07567, 19.4461, -72.9689, 0.000343404, 0.00120599, -0.0018431, 0.000297954, 0.000297954, 0.000297954
8171, 1,0.000562092, -0.000259266, 0.00019024, -1.44444, -15.5211, 0.00153121, 2.68489, 93.5989, 0, 0.00184937, 0.000632308, 0.00114102, -1.39536, 42.0192, 0, 0.00185092, 0.00049366, 0.000814848, -1.4096, 33.235, 0, 0.00185119, -3.08081, -14.5197, -108.457, -2.7082, -19.3646, -77.6321, 0.000596728, 0.000354516, -0.00163307, 0.000466144, 0.000466144, 0.000466144
8172, 1,0.000960123, -0.000263149, 0.000206563, 8.03628, -17.9579, 0.00276741, 35.6953, 127.752, 0, 0.00134782, 0.0011087, 0.00154207, 9.53609, 57.5825, 0, 0.00134935, 0.000812126, 0.00113671, 6.5634, 42.7459, 0, 0.00134968, 3.65446, -101.319, -75.0831, 2.68728, -77.9189, -53.006, 0.000984777, -0.00123705, -0.000682164, 0.00073047, 0.00073047, 0.00073047
8173, 1,0.00109794, -0.000474777, 0.000334584, -4.52173, -31.2422, 0.00371812, 41.5025, 180.3, 0, 0.00119758, 0.00128912, 0.00228979, -4.29222, 87.6152, 0, 0.00119938, 0.000908168, 0.00163047, -4.6863, 63.9551, 0, 0.00119984, -9.33328, -95.4755, -158.037, -7.46757, -72.762, -111.636, 0.00118353, -0.000639514, -0.00196576, 0.00085002, 0.00085002, 0.00085002
8174, 1,0.0015059, -0.000759737, 0.000514531, -10.9438, -49.6724, 0.00728485, -22.082, 288.136, 0.117288, 0.000852017, 0.00176513, 0.00344401, -12.459, 128.757, 0, 0.000854503, 0.00125161, 0.00244121, -9.1984, 91.7573, 0, 0.000855016, -14.5245, -85.7187, -286.028, -10.1132, -65.0866, -200.072, 0.0017226, 0.000218787, -0.00403067, 0.00123259, 0.00123259, 0.00123259
8175, 1,0.00197273, -0.00092361, 0.000619889, 4.50038, -60.4686, 0.0165759, -66.5473, 356.683, 0.433865, 0.000776522, 0.00227413, 0.00421113, 1.92535, 141.637, 0, 0.000780678, 0.00167757, 0.00300638, 7.36683, 96.4439, 0, 0.000781251, 1.65819, -50.2889, -376.28, 6.73986, -35.595, -260.477, 0.00226916, 0.00117893, -0.00574631, 0.00166399, 0.00166399, 0.00166399
8176, 1,0.000703113, -0.000276977, 0.000195916, -17.9983, -19.3012, 0.00232723, 0.813285, 146.819, 0, 0.000955703, 0.00081629, 0.00159168, -18.8724, 77.2443, 0, 0.000956783, 0.000590852, 0.00121931, -17.0767, 60.5494, 0, 0.000957042, -19.9948, -44.5236, -167.214, -18.1599, -34.4099, -129.079, 0.000793724, 0.000272652, -0.00231979, 0.000569342, 0.000569342, 0.000569342
8177, 1,0.000775904, 0.000333468, 0.000251119, 46.5469, 19.6859, 0.0293775, 505.484, -209.376, 0.430796, 0.0010949, 0.00110592, 0.000876325, 66.0977, -18.1197, 0, 0.00109033, 0.000451521, 0.000382545, 27.2271, -7.59475, 0, 0.00109015, 6.91125, -9.45597, 56.9037, 6.3298, -6.45246, 22.9069, -0.000137961, -0.0004998, 0.000931703, 1.57455E-05, 1.57455E-05, 1.57455E-05
8178, 1,0.00351891, 0.000969792, 0.000651357, 219.2, 61.0619, 0.0629796, 522.362, -208.033, 0.992752, 0.00115336, 0.00448288, 0.00305544, 279.996, -91.6996, 0, 0.00114637, 0.00255938, 0.00176106, 158.605, -50.8344, 0, 0.00114561, 3.50374, -3.50488, 275.1, 1.22522, -4.25233, 155.53, -0.00136909, -0.00154028, 0.00439719, -0.000772998, -0.000772998, -0.000772998
8179, 1,0.00065603, -0.000279934, 0.000190896, -12.1393, -18.9004, 0.0023462, 9.17795, 136.612, 0, 0.00106507, 0.000756509, 0.00141968, -13.0658, 65.6208, 0, 0.0010663, 0.000555808, 0.00106051, -11.2012, 50.378, 0, 0.00106657, -13.6379, -36.6285, -146.596, -11.4637, -28.4412, -111.229, 0.00074509, 0.0002571, -0.002067, 0.000550765, 0.000550765, 0.000550765
8180, 1,0.000816614, 0.000348003, 0.000278962, 41.1054, 19.78, 0.0126019, 428.278, -94.0892, 0.100172, 0.00123121, 0.00115749, 0.00106928, 60.5335, -7.64543, 0, 0.00122937, 0.000484359, 0.000532557, 22.09, 1.2972, 0, 0.0012292, 4.39242, -8.82599, 27.3699, 3.68644, -8.20517, 0.62713, -2.7343E-05, -0.000313033, 0.000464395, 9.85389E-05, 9.85389E-05, 9.85389E-05
8181, 1,0.00315803, 0.000847544, 0.000571364, 194.726, 53.1275, 0.0378698, 485.037, -166.868, 0.57938, 0.00128514, 0.00400105, 0.00271208, 247.609, -78.4134, 0, 0.00128164, 0.00231827, 0.00158171, 142.021, -43.3488, 0, 0.00128091, -3.29147, -0.206011, 238.738, -4.9215, -0.976405, 135.944, -0.00130348, -0.00124637, 0.00382218, -0.000785988, -0.000785988, -0.000785988
8182, 1,0.000560577, -0.000265212, 0.000194237, -2.87393, -16.0151, 0.00215342, 34.0504, 90.9497, 0, 0.00150397, 0.000633048, 0.00126007, -2.91793, 44.168, 0, 0.00150512, 0.000493655, 0.000937066, -2.5622, 34.8099, 0, 0.00150534, -4.2786, -6.94899, -121.276, -3.18154, -10.1067, -91.1414, 0.000605472, 0.000547812, -0.00186998, 0.000481079, 0.000481079, 0.000481079
8183, 1,0.00099391, 0.000335424, 0.000264094, 48.3008, 19.3248, 0.00541769, 291.785, -47.9542, 0, 0.00145228, 0.00132119, 0.00121945, 67.2304, -6.33343, 0, 0.0014513, 0.000672586, 0.00071487, 29.661, 2.98127, 0, 0.00145108, 0.46054, 4.95015, 13.5896, -0.377748, -1.18039, -7.38566, -8.92851E-05, 2.02445E-06, 0.000190016, 3.95083E-05, 3.95083E-05, 3.95083E-05
8184, 1,0.00240993, 0.000691315, 0.000462648, 156.161, 43.252, 0.013409, 462.011, -145.314, 0.117359, 0.00144139, 0.00309812, 0.00206132, 199.247, -70.8757, 0, 0.00143941, 0.00172435, 0.00114352, 113.212, -42.4852, 0, 0.00143875, 8.23119, 14.9138, 189.482, 7.83154, 13.0487, 106.576, -0.000940657, -0.000802828, 0.00289352, -0.000502261, -0.000502261, -0.000502261
8185, 1,0.00145282, -0.00157013, 0.00104569, 6.43012, -99.1384, 0.0241926, -25.0693, 300.545, 0.695248, 0.000981136, 0.00196637, 0.00380508, 5.82426, 116.805, 0, 0.000987113, 0.000939884, 0.00172299, 7.05676, 49.9282, 0, 0.000988185, 5.52485, -10.9511, -344.988, 6.93111, -5.04415, -151.672, 0.00196067, 0.00163686, -0.00549274, 0.000938346, 0.000938346, 0.000938346
8186, 1,0.00150521, -0.00144717, 0.000964597, 1.48922, -91.9277, 0.0269151, -23.3648, 352.283, 0.660462, 0.0009506, 0.00198299, 0.00381622, 0.588946, 124.578, 0, 0.000957308, 0.00102893, 0.00189409, 2.43178, 61.4662, 0, 0.000958289, -13.9614, -9.92531, -349.848, -9.79798, -4.17113, -170.429, 0.00166857, 0.00179001, -0.00547994, 0.00076392, 0.00076392, 0.00076392
8187, 1,0.00155673, -0.00132036, 0.000883137, 2.07703, -84.029, 0.0263053, -23.8353, 354.972, 0.639011, 0.000920298, 0.00199966, 0.00384834, 1.5145, 124.298, 0, 0.000926704, 0.0011149, 0.00208642, 2.67462, 66.3092, 0, 0.000927576, -9.90805, -10.9834, -352.003, -5.20648, -6.03206, -187.689, 0.00175081, 0.00175976, -0.0055274, 0.000938263, 0.000938263, 0.000938263
8188, 1,0.00157958, -0.00122037, 0.000815084, 4.86251, -76.9203, 0.0229143, -21.2863, 298.951, 0.645114, 0.000889874, 0.0019716, 0.00388129, 4.16764, 119.517, 0, 0.000894908, 0.00118899, 0.00227222, 5.62, 67.924, 0, 0.000895657, 3.73339, -8.48724, -353.797, 4.66331, -5.61516, -202.82, 0.00196512, 0.00172593, -0.0056303, 0.0011734, 0.0011734, 0.0011734
8189, 1,0.00128479, -0.00148502, 0.000993518, -0.304828, -92.9989, 0.0205094, -2.17611, 258.336, 0.600614, 0.000983352, 0.00178373, 0.00350903, 0.677302, 112.151, 0, 0.000987773, 0.000787213, 0.0015283, -1.27099, 51.0499, 0, 0.000988752, -5.70713, -8.65942, -322.088, -6.2549, -5.968, -140.927, 0.00164808, 0.00162945, -0.00509722, 0.000675739, 0.000675739, 0.000675739
8190, 1,0.00139863, -0.00134899, 0.000904086, 6.96608, -84.4106, 0.0212222, 1.83645, 269.882, 0.58651, 0.000952573, 0.00185513, 0.00355408, 7.91654, 106.979, 0, 0.000957131, 0.000942883, 0.0017503, 6.04128, 51.6667, 0, 0.000957991, 1.62677, -3.07476, -319.49, 1.01309, -1.29386, -154.719, 0.00172125, 0.00166714, -0.00512415, 0.000838507, 0.000838507, 0.000838507
8191, 1,0.00143034, -0.00124536, 0.000833427, 5.41814, -77.9931, 0.0205824, -1.54322, 274.282, 0.565142, 0.000921967, 0.00184631, 0.00355789, 6.12319, 108.715, 0, 0.000926344, 0.00101494, 0.00189798, 4.74196, 57.4851, 0, 0.000927115, 0.39896, -4.71904, -321.825, -0.111898, -2.97284, -169.371, 0.00172235, 0.00165821, -0.0051445, 0.000906107, 0.000906107, 0.000906107
8192, 1,0.00145054, -0.0011713, 0.000784482, 1.73753, -73.4561, 0.0190148, -2.25938, 257.486, 0.550065, 0.000891468, 0.00184646, 0.00361473, 2.38248, 114.005, 0, 0.000895202, 0.00105509, 0.00204817, 1.1287, 65.5389, 0, 0.000895906, -4.75006, -7.31669, -329.948, -4.68423, -5.70579, -186.227, 0.00169692, 0.00168411, -0.00523081, 0.000936111, 0.000936111, 0.000936111
8193, 1,0.00136598, -0.00143937, 0.000965437, 10.9547, -90.1483, 0.0184759, -4.69598, 250.833, 0.553249, 0.000984826, 0.00183718, 0.00353148, 11.2434, 101.43, 0, 0.000989013, 0.000896006, 0.00162358, 10.7671, 42.2764, 0, 0.000989962, 10.4377, -6.10508, -308.623, 10.2126, -1.72914, -135.313, 0.00182076, 0.0015383, -0.00500475, 0.000886166, 0.000886166, 0.000886166
8194, 1,0.00132736, -0.00129847, 0.000871121, 4.80757, -81.2538, 0.0181301, 0.0494976, 254.631, 0.518241, 0.000954254, 0.0017706, 0.0033939, 5.99165, 104.421, 0, 0.000958193, 0.000884562, 0.00165332, 3.64369, 51.2464, 0, 0.00095902, -4.18299, -6.99229, -302.088, -4.63062, -3.59804, -145.51, 0.00155743, 0.00155842, -0.0048101, 0.000712027, 0.000712027, 0.000712027
8195, 1,0.00137577, -0.00120162, 0.000805804, 5.88259, -75.1754, 0.0176327, -0.716845, 254.072, 0.503774, 0.000923632, 0.0017794, 0.00341566, 6.77314, 103.923, 0, 0.00092738, 0.000972917, 0.00181206, 5.04554, 54.7687, 0, 0.00092812, -0.853143, -7.24488, -303.672, -1.47829, -4.23733, -158.59, 0.0016201, 0.00154459, -0.00485087, 0.000834126, 0.000834126, 0.000834126
8196, 1,0.00144688, -0.00113779, 0.000764446, 7.28788, -71.2532, 0.0170827, -4.82016, 250.341, 0.503338, 0.000892918, 0.0018195, 0.00354914, 7.44329, 105.297, 0, 0.000896443, 0.00107676, 0.00204076, 7.21528, 58.5624, 0, 0.000897123, 6.74705, -8.45387, -314.183, 6.72286, -5.79297, -176.617, 0.00180241, 0.00154693, -0.0050578, 0.0010671, 0.0010671, 0.0010671
8197, 1,0.00123401, -0.00139161, 0.000932468, 1.87745, -87.2748, 0.017761, -3.24395, 250.34, 0.523731, 0.000986126, 0.00170363, 0.00334897, 2.89576, 103.796, 0, 0.000990133, 0.000766451, 0.00149043, 0.955273, 46.368, 0, 0.000991057, -0.872698, -15.7943, -294.72, -0.883521, -8.63607, -129.584, 0.00161947, 0.00138949, -0.00469304, 0.000716612, 0.000716612, 0.000716612
8198, 1,0.00124971, -0.00126131, 0.000844907, 3.21061, -79.0237, 0.0176437, 1.78345, 256.193, 0.49282, 0.000955446, 0.00167723, 0.00328011, 4.19349, 100.998, 0, 0.000959367, 0.000823199, 0.00159345, 2.24952, 49.1668, 0, 0.000960174, -1.43614, -13.1266, -288.431, -1.84121, -7.21122, -138.448, 0.00156243, 0.0013912, -0.00459233, 0.000739139, 0.000739139, 0.000739139
8199, 1,0.00132275, -0.00116108, 0.000778471, 4.83683, -72.8086, 0.017349, 0.393331, 257.989, 0.482372, 0.000924681, 0.00171113, 0.00331301, 5.54666, 101.267, 0, 0.000928467, 0.000936, 0.0017653, 4.18031, 53.3938, 0, 0.000929188, -0.471529, -12.4729, -290.857, -0.554122, -7.13553, -152.492, 0.00158602, 0.00140913, -0.00463822, 0.000831832, 0.000831832, 0.000831832
8200, 1,0.00136087, -0.00109929, 0.000737207, 3.8565, -68.8949, 0.0167517, -0.932707, 247.882, 0.485446, 0.000893977, 0.00173524, 0.00338688, 4.77401, 103.123, 0, 0.00089742, 0.000987182, 0.00191571, 2.96307, 57.9007, 0, 0.000898079, 0.121397, -13.4471, -296.043, -0.0575168, -8.53813, -165.106, 0.00162836, 0.00142607, -0.00472762, 0.000913674, 0.000913674, 0.000913674
8201, 1,0.0012002, -0.00134622, 0.000900719, 2.49857, -84.4655, 0.0169372, -2.63259, 252.072, 0.487929, 0.00098732, 0.00165127, 0.00322547, 3.26706, 99.9466, 0, 0.000991276, 0.000749959, 0.00143099, 1.85828, 44.3537, 0, 0.000992171, -0.928726, -20.7352, -278.176, -1.11541, -11.1141, -120.832, 0.00155836, 0.00123811, -0.0044181, 0.000680574, 0.000680574, 0.000680574
8202, 1,0.001245, -0.00121977, 0.000816589, 5.23957, -76.5368, 0.0170459, 1.22423, 262.948, 0.45971, 0.000956418, 0.00165667, 0.00320785, 5.94943, 97.5756, 0, 0.000960401, 0.000834012, 0.00157743, 4.57474, 47.2067, 0, 0.000961187, -0.0657465, -17.0172, -275.644, -0.188755, -8.83857, -132.593, 0.00153814, 0.00126721, -0.00438852, 0.000743817, 0.000743817, 0.000743817
8203, 1,0.00129611, -0.00112692, 0.000753689, 5.94596, -70.6971, 0.0167252, 2.17559, 263.773, 0.444581, 0.00092567, 0.00167056, 0.00320339, 6.47341, 97.7169, 0, 0.000929479, 0.000921983, 0.00170505, 5.48015, 51.2341, 0, 0.000930181, -0.994885, -16.4048, -275.751, -1.42288, -8.90098, -143.378, 0.00151964, 0.00128219, -0.0043873, 0.000780071, 0.000780071, 0.000780071
8204, 1,0.00135361, -0.00105576, 0.000707445, 4.9419, -66.268, 0.0159794, -2.15027, 250.968, 0.453777, 0.000895096, 0.00170904, 0.00330462, 5.4858, 100.394, 0, 0.000898526, 0.000999333, 0.00189495, 4.44902, 56.7564, 0, 0.000899163, 0.795405, -18.8633, -283.115, 0.810168, -11.9256, -159.154, 0.00159957, 0.00128237, -0.00451086, 0.000913975, 0.000913975, 0.000913975
8205, 1,0.00122308, -0.00129809, 0.000867611, 8.74742, -81.5346, 0.0153666, -1.86133, 250.066, 0.432229, 0.00098872, 0.00164748, 0.00317352, 8.79726, 92.7235, 0, 0.000992527, 0.000798868, 0.00145271, 8.71663, 38.9371, 0, 0.000993394, 8.28611, -22.0833, -264.373, 8.22603, -10.3357, -114.702, 0.00164018, 0.00110525, -0.00424987, 0.000793409, 0.000793409, 0.000793409
8206, 1,0.00117008, -0.0011833, 0.00079025, 2.2686, -74.2808, 0.0154659, 2.93572, 265.878, 0.39527, 0.000957801, 0.00156625, 0.00306125, 2.93878, 95.7547, 0, 0.000961622, 0.000774526, 0.00148457, 1.62392, 46.8589, 0, 0.000962385, -4.04914, -21.5092, -261.706, -4.4696, -11.33, -124.777, 0.00142586, 0.00115027, -0.00412976, 0.000648359, 0.000648359, 0.000648359
8207, 1,0.00122292, -0.00108745, 0.000727121, 3.45577, -68.3216, 0.015081, 2.47207, 265.751, 0.383126, 0.000927035, 0.0015859, 0.00310712, 3.99111, 95.5024, 0, 0.00093069, 0.00086093, 0.00165834, 2.95854, 50.4343, 0, 0.000931371, -0.561076, -20.4783, -265.468, -0.726908, -11.2359, -139.34, 0.00149378, 0.00116877, -0.00421209, 0.000782037, 0.000782037, 0.000782037
8208, 1,0.00129849, -0.00101662, 0.000679701, 6.55942, -63.8416, 0.0142588, -1.40502, 249.72, 0.390665, 0.000896375, 0.00163071, 0.00318026, 6.59105, 94.5744, 0, 0.00089965, 0.000967804, 0.00183479, 6.60303, 52.5281, 0, 0.000900264, 6.12511, -22.488, -267.36, 5.87113, -13.8742, -149.581, 0.00162079, 0.00112248, -0.00427777, 0.00095457, 0.00095457, 0.00095457
8209, 1,0.00113381, -0.00125248, 0.000835858, 3.04984, -78.7306, 0.012263, 0.723283, 245.029, 0.31925, 0.000990464, 0.00154995, 0.0029946, 3.55071, 92.5862, 0, 0.000993773, 0.000718297, 0.00132832, 2.59401, 40.5536, 0, 0.000994613, -1.26089, -26.1983, -250.299, -1.32979, -12.6914, -107.64, 0.00143624, 0.00101591, -0.00395436, 0.000616747, 0.000616747, 0.000616747
8210, 1,0.00116399, -0.00114435, 0.000763706, 5.04724, -71.869, 0.0122943, 2.21744, 255.268, 0.301244, 0.00095949, 0.00154464, 0.00300005, 5.47653, 91.1003, 0, 0.000962855, 0.000785128, 0.00147861, 4.63886, 43.7495, 0, 0.000963596, 0.926834, -23.5152, -250.713, 0.502644, -11.8385, -119.913, 0.00145809, 0.00103348, -0.00396967, 0.000704662, 0.000704662, 0.000704662
8211, 1,0.00119832, -0.00105071, 0.000701673, 5.00788, -66.0273, 0.0119638, 4.22135, 254.335, 0.286766, 0.0009286, 0.00154492, 0.00298718, 5.32845, 91.3106, 0, 0.000931792, 0.000851918, 0.00159124, 4.72983, 47.7477, 0, 0.000932451, 0.118024, -23.5255, -250.524, -0.213891, -12.9015, -130.128, 0.00144192, 0.00103577, -0.00395922, 0.00075028, 0.00075028, 0.00075028
8212, 1,0.00126528, -0.000976239, 0.000652152, 4.11114, -61.34, 0.0112258, -2.28459, 244.965, 0.286172, 0.00089782, 0.00159086, 0.00306949, 4.47841, 93.9411, 0, 0.000900703, 0.000940868, 0.0017707, 3.77003, 53.488, 0, 0.000901295, -0.246147, -25.3839, -256.193, -0.469326, -15.5165, -144.478, 0.00147529, 0.00104744, -0.00404696, 0.000834702, 0.000834702, 0.000834702
8213, 1,0.00104127, -0.00120868, 0.00080633, 2.92552, -75.9722, 0.00870339, 3.54663, 234.868, 0.192246, 0.000992304, 0.00143919, 0.00286078, 2.98844, 87.2139, 0, 0.00099514, 0.000644154, 0.001256, 2.88786, 36.9846, 0, 0.000995951, 2.38234, -27.1982, -236.826, 2.29989, -12.4352, -100.818, 0.00142826, 0.000894739, -0.00373803, 0.000636623, 0.000636623, 0.000636623
8214, 1,0.00106963, -0.00110508, 0.000736739, 1.61941, -69.4163, 0.00864857, 2.76759, 235.506, 0.190562, 0.000961243, 0.00143645, 0.00284557, 2.05972, 88.5157, 0, 0.000963977, 0.000702912, 0.00137611, 1.22637, 42.7271, 0, 0.000964693, -0.963366, -26.6516, -237.932, -1.41772, -13.7339, -113.03, 0.00137703, 0.000912607, -0.00372581, 0.00064738, 0.00064738, 0.00064738
8215, 1,0.00111595, -0.00101488, 0.000677387, 1.94519, -63.7704, 0.00844958, 1.9506, 234.668, 0.185141, 0.000930277, 0.00145506, 0.00288406, 2.37104, 88.9341, 0, 0.000932889, 0.000777596, 0.00153195, 1.53495, 46.8451, 0, 0.000933526, 0.764421, -26.6399, -240.927, 0.412953, -14.964, -125.984, 0.00141774, 0.000920424, -0.00378114, 0.000748655, 0.000748655, 0.000748655
8216, 1,0.00114968, -0.000938979, 0.000626385, 0.824976, -59.0102, 0.00816858, 1.94898, 235.378, 0.173274, 0.000899287, 0.00146303, 0.00291502, 1.21474, 90.4327, 0, 0.000901774, 0.000836782, 0.00166545, 0.713212, 51.4706, 0, 0.000902344, 0.210972, -28.1538, -243.355, -0.0851584, -17.2841, -137.043, 0.00142934, 0.000918102, -0.00381474, 0.000810521, 0.000810521, 0.000810521
8217, 1,0.00101017, -0.00116613, 0.000777607, 1.84152, -73.3029, 0.00648001, 14.2259, 227.502, 0.0991172, 0.000993835, 0.00139581, 0.00274651, 2.07439, 85.3211, 0, 0.000996346, 0.000624771, 0.00119553, 1.67941, 36.8109, 0, 0.00099713, 0.638244, -31.4361, -225.166, 0.577764, -15.6609, -95.3496, 0.00136055, 0.000758005, -0.00350288, 0.000596284, 0.000596284, 0.000596284
8218, 1,0.00101932, -0.00106795, 0.000711414, 1.38543, -67.0815, 0.00683341, 27.0974, 218.233, 0.105256, 0.000962829, 0.00137303, 0.00273242, 1.70299, 85.2474, 2.82921E-07, 0.000965122, 0.000667143, 0.00131526, 1.09143, 40.9733, 2.82921E-07, 0.000965815, -0.969063, -28.5316, -226.242, -1.44801, -14.6435, -106.828, 0.00132486, 0.00080842, -0.00351641, 0.000618384, 0.000618384, 0.000618384
8219, 1,0.00105905, -0.000978557, 0.000652751, 0.953458, -61.5035, 0.00679762, 25.6182, 219.347, 0.104711, 0.000931731, 0.00138343, 0.00276177, 1.24038, 86.4032, 0, 0.000933949, 0.000735135, 0.00146003, 0.726987, 45.7529, 0, 0.000934566, -0.487854, -29.2963, -229.425, -0.780856, -16.7804, -119.697, 0.00135118, 0.000811604, -0.00356468, 0.000705779, 0.000705779, 0.000705779
8220, 1,0.00115901, -0.000904429, 0.000603041, 4.1558, -56.8258, 0.00637146, 13.8124, 226.871, 0.0960615, 0.000900592, 0.00145791, 0.00285154, 4.3196, 86.2898, 0, 0.000902837, 0.000861519, 0.0016522, 4.04888, 48.7793, 0, 0.000903387, 2.59449, -29.1528, -232.311, 2.25778, -17.6455, -130.95, 0.00141436, 0.000818517, -0.00363296, 0.000817395, 0.000817395, 0.000817395
8221, 1,0.000953688, -0.00112515, 0.000750175, 1.23647, -70.7368, 0.00504573, 12.9044, 225.684, 0.0470179, 0.000995272, 0.00132879, 0.00262773, 1.63162, 81.9427, 0, 0.000997694, 0.00057861, 0.00112824, 0.902659, 35.1097, 0, 0.000998453, -1.34705, -31.4659, -213.015, -1.39003, -14.948, -88.9909, 0.00126465, 0.000697119, -0.00329126, 0.000527085, 0.000527085, 0.000527085
8222, 1,0.000991706, -0.00102995, 0.000685819, 2.13547, -64.7055, 0.00541404, 34.3062, 210.659, 0.0507548, 0.000964322, 0.00133337, 0.0026445, 2.46574, 81.5077, 0, 0.000966442, 0.000650081, 0.00127643, 1.86066, 38.7732, 0, 0.000967112, -0.0260546, -29.0004, -215.497, -0.476113, -14.4574, -101.386, 0.0012853, 0.000733904, -0.00334165, 0.000603624, 0.000603624, 0.000603624
8223, 1,0.00103262, -0.000944105, 0.000629274, 2.06371, -59.3301, 0.005362, 34.9869, 210.36, 0.0483825, 0.000933147, 0.00134671, 0.002666, 2.38314, 82.3935, 1.3877E-07, 0.000935175, 0.000718582, 0.0014095, 1.7633, 43.1852, 1.3877E-07, 0.00093577, -0.185199, -29.4895, -217.506, -0.52299, -16.3868, -112.646, 0.00129438, 0.000736934, -0.00336815, 0.000670619, 0.000670619, 0.000670619
8224, 1,0.00109211, -0.000869433, 0.000579374, 1.17946, -54.6431, 0.00492433, 15.2354, 224.371, 0.0409952, 0.000901824, 0.00138126, 0.00273544, 1.47421, 85.3111, 0, 0.000903939, 0.000803113, 0.00157975, 0.890506, 49.2007, 0, 0.000904469, -1.30724, -31.1894, -223.437, -1.60479, -19.141, -126.856, 0.00131638, 0.000750455, -0.00345103, 0.000742192, 0.000742192, 0.000742192
8225, 1,0.000911953, -0.00108449, 0.000723095, 1.22126, -68.1769, 0.00415227, 16.097, 219.409, 0.0138258, 0.00099662, 0.00127348, 0.00252651, 1.58449, 78.574, 0, 0.000998928, 0.00055067, 0.0010818, 0.96611, 33.4483, 0, 0.00099966, -0.702101, -32.9822, -202.038, -0.774367, -15.9498, -83.6207, 0.00122476, 0.000608789, -0.00310838, 0.000513395, 0.000513395, 0.000513395
8226, 1,0.000939604, -0.000991948, 0.000660698, 0.805036, -62.3286, 0.00432193, 38.8809, 202.382, 0.0116089, 0.000965617, 0.00126885, 0.00252435, 1.10167, 79.1231, 0, 0.000967571, 0.000610601, 0.0012061, 0.596915, 37.9361, 0, 0.000968218, -1.47638, -31.9148, -203.978, -1.84923, -16.8583, -95.1007, 0.00121653, 0.000632542, -0.00313283, 0.000560805, 0.000560805, 0.000560805
8227, 1,0.000977692, -0.00091011, 0.000606286, 0.350539, -57.1776, 0.00431766, 43.6235, 199.023, 0.00959897, 0.000934468, 0.0012798, 0.00256189, 0.622171, 80.3029, 0, 0.000936287, 0.000676168, 0.00135289, 0.10948, 42.5452, 0, 0.000936861, -0.551939, -32.8311, -207.526, -0.955195, -19.2989, -107.382, 0.00125372, 0.000629783, -0.00318642, 0.000651333, 0.000651333, 0.000651333
8228, 1,0.00103404, -0.000836042, 0.000557102, -0.319727, -52.5467, 0.00393206, 21.3052, 214.209, 0.00416482, 0.00090295, 0.00131217, 0.00262063, -0.0408941, 83.0518, -4.23516E-22, 0.000904881, 0.000755912, 0.00150908, -0.576516, 48.3195, -4.23516E-22, 0.000905391, -2.32176, -34.063, -212.771, -2.59389, -21.6175, -120.747, 0.00125949, 0.000648539, -0.00325556, 0.000707456, 0.000707456, 0.000707456
8229, 1,0.000864097, -0.0010434, 0.000695785, 0.360889, -65.5947, 0.00358149, 11.9046, 211.44, 0, 0.000997978, 0.00121199, 0.00241284, 0.703914, 75.879, 0, 0.00100018, 0.000516561, 0.00102346, 0.152605, 32.4757, 0, 0.00100088, -1.73621, -34.7531, -191.148, -1.8281, -17.3328, -78.2661, 0.00116012, 0.000528466, -0.00291968, 0.000475403, 0.000475403, 0.000475403
8230, 1,0.00089718, -0.000954215, 0.000635678, 0.636452, -59.9645, 0.00366952, 25.9966, 198.072, 0, 0.000966905, 0.00121398, 0.00242597, 0.919274, 75.7861, 0, 0.000968826, 0.000580624, 0.001158, 0.466559, 36.1626, 0, 0.000969449, -0.692923, -33.073, -193.593, -1.04423, -17.6568, -89.7867, 0.00118032, 0.000556277, -0.0029662, 0.000549622, 0.000549622, 0.000549622
8231, 1,0.000942425, -0.000875263, 0.000582904, 0.404499, -54.9935, 0.00363716, 25.2592, 197.012, 0, 0.000935572, 0.00123266, 0.00246344, 0.658017, 77.283, 0, 0.000937392, 0.000652373, 0.00130171, 0.241233, 40.9724, 0, 0.000937944, -1.09032, -33.4662, -197.292, -1.52616, -19.5909, -101.8, 0.00119484, 0.000569087, -0.00301784, 0.000614501, 0.000614501, 0.000614501
8232, 1,0.00100826, -0.000802972, 0.000535044, 0.955373, -50.4742, 0.0034827, 10.7637, 206.696, 0, 0.000904108, 0.00127524, 0.00253778, 1.21644, 79.0075, 0, 0.000905984, 0.000741309, 0.00147051, 0.72236, 45.649, 0, 0.000906474, -0.557323, -34.1062, -202.359, -0.826213, -21.3988, -114.722, 0.00123328, 0.0005833, -0.00309848, 0.000702901, 0.000702901, 0.000702901
8233, 1,0.000826303, -0.00100166, 0.000667909, 1.09523, -62.9793, 0.00327705, 5.54401, 200.652, 0, 0.00099929, 0.00116002, 0.00230723, 1.41663, 71.6108, 0, 0.00100138, 0.000492822, 0.000973929, 0.897169, 29.9424, 0, 0.00100206, -0.517731, -34.2862, -180.029, -0.612845, -16.5947, -72.6198, 0.00111855, 0.000471439, -0.00275182, 0.000461025, 0.000461025, 0.000461025
8234, 1,0.000864257, -0.000916481, 0.000610636, 0.860672, -57.6024, 0.0032754, 11.6813, 192.282, 0, 0.000968056, 0.00116827, 0.00232747, 1.12227, 72.573, 0, 0.000969939, 0.000560499, 0.00111062, 0.712274, 34.5133, 0, 0.000970538, -0.856717, -33.2854, -183.577, -1.22759, -17.5896, -84.7228, 0.00112618, 0.000502057, -0.0028057, 0.000519655, 0.000519655, 0.000519655
8235, 1,0.000910483, -0.000840395, 0.000559818, 0.904971, -52.8114, 0.00325192, 12.4189, 189.799, 0, 0.000936771, 0.00118896, 0.00237009, 1.14461, 73.8098, 0, 0.000938536, 0.000632154, 0.00125522, 0.752271, 38.9428, 0, 0.000939067, -0.549962, -33.5731, -187.306, -0.986916, -19.4651, -96.3764, 0.00115164, 0.000512567, -0.00286175, 0.000593973, 0.000593973, 0.000593973
8236, 1,0.000967196, -0.000770058, 0.00051301, 0.745807, -48.4142, 0.00318475, 6.33112, 193.727, 0, 0.000905224, 0.00122294, 0.00243766, 0.98511, 76.0153, 0, 0.000906955, 0.000711535, 0.0014147, 0.54721, 44.0185, 0, 0.000907426, -0.574695, -34.8797, -192.591, -0.85049, -21.9529, -109.252, 0.00118585, 0.000519157, -0.00293835, 0.000676741, 0.000676741, 0.000676741
8237, 1,0.000783079, -0.000960192, 0.00064024, 0.815743, -60.381, 0.00304282, 4.46928, 187.227, 0, 0.0010007, 0.00110285, 0.00219509, 1.11426, 68.4139, 0, 0.00100263, 0.000463679, 0.000917474, 0.667968, 28.4659, 0, 0.00100328, -0.868931, -34.7933, -169.579, -0.963533, -16.9161, -67.5181, 0.0010607, 0.000409924, -0.00258058, 0.000430226, 0.000430226, 0.000430226
8238, 1,0.000822602, -0.000878906, 0.000585724, 0.758398, -55.2484, 0.00302223, 7.85149, 181.352, 0, 0.000969394, 0.00111391, 0.0022227, 1.00191, 69.278, 0, 0.000971159, 0.000531507, 0.00105664, 0.647517, 32.7783, 0, 0.000971734, -0.719093, -33.5689, -173.546, -1.10054, -17.686, -79.5484, 0.00107719, 0.000444121, -0.0026453, 0.000494958, 0.000494958, 0.000494958
8239, 1,0.000869779, -0.000805662, 0.000536855, 0.670698, -50.6358, 0.00298586, 7.97052, 178.88, 0, 0.000938001, 0.00113647, 0.00226938, 0.888884, 70.8262, 0, 0.000939647, 0.000603272, 0.00120142, 0.562254, 37.4001, 0, 0.000940157, -0.620963, -34.1277, -177.73, -1.06793, -19.8602, -91.2721, 0.0011032, 0.000453479, -0.00270581, 0.000567983, 0.000567983, 0.000567983
8240, 1,0.000928978, -0.000737422, 0.000491231, 0.701783, -46.3694, 0.0029333, 4.19968, 180.622, 0, 0.000906433, 0.00117363, 0.00234003, 0.922713, 72.987, 0, 0.000908018, 0.000684402, 0.00136093, 0.51886, 42.3434, 0, 0.000908469, -0.582082, -35.2961, -183.083, -0.86477, -22.2316, -103.934, 0.00113804, 0.000461501, -0.00278375, 0.000650076, 0.000650076, 0.000650076
8241, 1,0.00074134, -0.000918902, 0.000612723, 0.814631, -57.7911, 0.00282839, 3.60718, 174.773, 0, 0.00100201, 0.00104721, 0.00208512, 1.09244, 64.9459, 0, 0.0010038, 0.000435929, 0.000862985, 0.705415, 26.7171, 0, 0.00100442, -0.791286, -34.7953, -159.251, -0.890126, -16.8411, -62.4202, 0.00100766, 0.000354393, -0.00241573, 0.000404117, 0.000404117, 0.000404117
8242, 1,0.000783008, -0.000841393, 0.000560886, 0.69958, -52.8964, 0.00281475, 6.49423, 170.003, 0, 0.000970649, 0.00106172, 0.00211912, 0.92581, 66.0869, 0, 0.000972287, 0.000504585, 0.00100368, 0.627237, 31.1471, 0, 0.000972838, -0.780472, -33.6651, -163.815, -1.17421, -17.6917, -74.5753, 0.00102562, 0.000391182, -0.00248901, 0.000467658, 0.000467658, 0.000467658
8243, 1,0.000831443, -0.000771126, 0.000514034, 0.654824, -48.4704, 0.00277644, 6.45262, 167.62, 0, 0.00093917, 0.00108645, 0.00217019, 0.856875, 67.706, 0, 0.000940694, 0.000576616, 0.0011489, 0.575019, 35.7162, 0, 0.000941182, -0.584003, -34.2359, -168.298, -1.04449, -19.8937, -86.2104, 0.00105489, 0.000401232, -0.00255462, 0.000541978, 0.000541978, 0.000541978
8244, 1,0.000890123, -0.000704997, 0.000469642, 0.609554, -44.3373, 0.00271935, 3.28548, 168.259, 0, 0.000907538, 0.00112376, 0.00224244, 0.812416, 69.9994, 0, 0.000908987, 0.00065656, 0.00130691, 0.44485, 40.7005, 0, 0.000909419, -0.590613, -35.5397, -173.868, -0.880206, -22.4127, -98.8086, 0.00109085, 0.000407906, -0.00263448, 0.000623893, 0.000623893, 0.000623893
8245, 1,0.000698937, -0.000877777, 0.000585323, 0.737351, -55.2112, 0.00263768, 2.89259, 163.621, 0, 0.0010034, 0.00099099, 0.00197463, 0.995302, 61.5583, 0, 0.00100507, 0.000407454, 0.000807752, 0.670582, 25.0422, 0, 0.00100566, -0.815756, -34.65, -149.209, -0.919144, -16.7112, -57.4964, 0.000953712, 0.000303057, -0.00225548, 0.000377, 0.000377, 0.000377
8246, 1,0.000742856, -0.000804023, 0.000536129, 0.63447, -50.5537, 0.00262826, 5.50076, 159.496, 0, 0.000971861, 0.00100898, 0.00201539, 0.842884, 62.8776, 0, 0.000973386, 0.000477031, 0.000950431, 0.606059, 29.4898, 0, 0.000973914, -0.788629, -33.5466, -154.298, -1.19097, -17.5646, -69.714, 0.000974877, 0.000342292, -0.0023373, 0.00044114, 0.00044114, 0.00044114
8247, 1,0.000792781, -0.000736748, 0.00049132, 0.576603, -46.3145, 0.00259395, 5.49585, 157.314, 0, 0.000940366, 0.00103617, 0.00207112, 0.763195, 64.6624, 0, 0.000941781, 0.00054957, 0.0010963, 0.528343, 34.1025, 0, 0.000942248, -0.622298, -34.2153, -159.15, -1.09516, -19.8771, -81.3353, 0.00100618, 0.000352776, -0.00240807, 0.000515497, 0.000515497, 0.000515497
8248, 1,0.000852164, -0.000672799, 0.000448245, 0.555131, -42.3195, 0.00253638, 2.74544, 157.359, 0, 0.000908732, 0.00107487, 0.00214609, 0.740163, 67.0229, 0, 0.000910065, 0.000629528, 0.00125381, 0.405939, 39.0587, 0, 0.000910479, -0.589058, -35.5436, -164.936, -0.884919, -22.4255, -93.8656, 0.00104404, 0.000359563, -0.00249103, 0.000597945, 0.000597945, 0.000597945
8249, 1,0.000657144, -0.00083691, 0.000558106, 0.690983, -52.648, 0.00247177, 2.07015, 154.186, 0, 0.00100467, 0.00093548, 0.00186524, 0.929417, 58.177, 0, 0.00100624, 0.000379475, 0.000753257, 0.667113, 23.3612, 0, 0.00100681, -0.812248, -34.2795, -139.439, -0.917451, -16.4419, -52.7242, 0.000900451, 0.000256648, -0.00210094, 0.00035044, 0.00035044, 0.00035044
8250, 1,0.000703202, -0.000766807, 0.000511475, 0.578233, -48.2199, 0.00245695, 4.19345, 150.371, 0, 0.00097307, 0.000956812, 0.00191237, 0.771599, 59.6891, 0, 0.000974503, 0.000449887, 0.000897664, 0.593938, 27.8484, 0, 0.000975006, -0.812372, -33.2201, -145.035, -1.2221, -17.3162, -65.007, 0.000924118, 0.000298133, -0.00219064, 0.00041456, 0.00041456, 0.00041456
8251, 1,0.000754796, -0.000702502, 0.000468671, 0.523866, -44.1667, 0.00242705, 4.23413, 148.407, 0, 0.000941464, 0.0009866, 0.00197282, 0.696968, 61.617, 0, 0.00094279, 0.000523137, 0.00104427, 0.500922, 32.4811, 0, 0.000943236, -0.651538, -33.976, -150.224, -1.13351, -19.7177, -76.5921, 0.000957618, 0.000308958, -0.00226627, 0.00048914, 0.00048914, 0.00048914
8252, 1,0.000814909, -0.000640839, 0.000427045, 0.509147, -40.3156, 0.00237741, 2.15907, 148.045, 0, 0.000909801, 0.0010268, 0.00205079, 0.679221, 64.0724, 0, 0.000911042, 0.000603083, 0.0012014, 0.374135, 37.4352, 0, 0.000911436, -0.601086, -35.3822, -156.234, -0.902642, -22.3449, -89.0582, 0.000997339, 0.000315321, -0.00235221, 0.000572001, 0.000572001, 0.000572001
8253, 1,0.000615972, -0.000796243, 0.000531029, 0.652893, -50.0965, 0.00232647, 1.30777, 145.986, 0, 0.00100599, 0.000880683, 0.00175685, 0.873083, 54.8164, 0, 0.00100748, 0.000352022, 0.000699475, 0.672991, 21.6938, 0, 0.00100802, -0.809642, -33.7142, -129.925, -0.916463, -16.064, -48.1011, 0.000847508, 0.000214788, -0.00195161, 0.000324094, 0.000324094, 0.000324094
8254, 1,0.000664035, -0.000729662, 0.000486859, 0.530917, -45.8902, 0.0023001, 2.68356, 142.435, 0, 0.000974285, 0.000905131, 0.00180998, 0.709207, 56.5117, 0, 0.000975644, 0.000423281, 0.000845504, 0.595845, 26.2151, 0, 0.000976124, -0.835115, -32.7086, -135.991, -1.25081, -16.9621, -60.4324, 0.000873557, 0.000258081, -0.00204847, 0.000388165, 0.000388165, 0.000388165
8255, 1,0.000717181, -0.00066836, 0.000446088, 0.474622, -42.0242, 0.0022726, 2.8384, 140.469, 0, 0.000942609, 0.000937459, 0.00187509, 0.635937, 58.5853, 0, 0.000943862, 0.00049706, 0.000992678, 0.480868, 30.8713, 0, 0.000944287, -0.68264, -33.5674, -141.506, -1.17381, -19.4633, -71.9769, 0.000909222, 0.000268924, -0.00212864, 0.000462924, 0.000462924, 0.000462924
8256, 1,0.000777718, -0.000609044, 0.000405955, 0.454865, -38.3214, 0.00223501, 1.67767, 139.645, 0, 0.000910926, 0.000978865, 0.00195573, 0.610665, 61.1242, 0, 0.000912087, 0.000576632, 0.00114899, 0.333132, 35.8074, 0, 0.000912462, -0.602429, -35.0556, -147.714, -0.908528, -22.1612, -84.3525, 0.000950889, 0.000274659, -0.00221726, 0.000546232, 0.000546232, 0.000546232
8257, 1,0.00057542, -0.000755674, 0.000504032, 0.623911, -47.5499, 0.00220015, 1.04884, 138.316, 0, 0.00100718, 0.000826565, 0.00164934, 0.826197, 51.4716, 0, 0.0010086, 0.000325167, 0.000646474, 0.691538, 20.04, 0, 0.00100911, -0.807086, -32.9746, -120.633, -0.916978, -15.5937, -43.6095, 0.00079483, 0.00017678, -0.00180665, 0.000297949, 0.000297949, 0.000297949
8258, 1,0.000625207, -0.000692607, 0.0004623, 0.490246, -43.5652, 0.00215674, 1.47673, 134.945, 0, 0.000975431, 0.000853826, 0.00170814, 0.652605, 53.3447, 0, 0.000976724, 0.000397248, 0.000793932, 0.614586, 24.5895, 0, 0.00097718, -0.853158, -32.0293, -127.152, -1.27475, -16.5143, -55.9795, 0.000823277, 0.000221596, -0.00191032, 0.000362013, 0.000362013, 0.000362013
8259, 1,0.000679617, -0.000634301, 0.000423548, 0.426841, -39.8864, 0.0021298, 1.76051, 132.846, 0, 0.000943707, 0.000888373, 0.0017775, 0.57553, 55.5513, 0, 0.000944892, 0.000471101, 0.00094119, 0.472534, 29.255, 0, 0.000945295, -0.699189, -32.9862, -132.968, -1.1977, -19.1, -67.4673, 0.000861099, 0.000232312, -0.00199468, 0.000436958, 0.000436958, 0.000436958
8260, 1,0.000740764, -0.000577401, 0.000384968, 0.404386, -36.3357, 0.00210192, 1.32053, 131.672, 0, 0.000911982, 0.000931238, 0.00186106, 0.547257, 58.181, 0, 0.00091307, 0.000550348, 0.00109674, 0.293744, 34.1795, 0, 0.000913426, -0.600818, -34.5495, -139.393, -0.911091, -21.8579, -79.7694, 0.000904577, 0.000237728, -0.00208626, 0.000520529, 0.000520529, 0.000520529
8261, 1,0.000535189, -0.00071523, 0.000477128, 0.604072, -45.0093, 0.00207838, 1.11001, 130.5, 0, 0.00100846, 0.000772839, 0.00154236, 0.788468, 48.1304, 0, 0.00100981, 0.000298637, 0.000593874, 0.72391, 18.3866, 0, 0.00101029, -0.795462, -32.0619, -111.534, -0.909252, -15.026, -39.2246, 0.000742415, 0.000142179, -0.00166542, 0.000271999, 0.000271999, 0.000271999
8262, 1,0.000586654, -0.000655648, 0.000437799, 0.46278, -41.2443, 0.00202625, 0.92893, 127.401, 0, 0.000976652, 0.000802832, 0.00160675, 0.608175, 50.1813, 0, 0.000977876, 0.00037221, 0.00074311, 0.65379, 22.966, 0, 0.000978308, -0.861045, -31.1777, -118.505, -1.28952, -15.9653, -51.6431, 0.000773285, 0.000188492, -0.00177589, 0.000336104, 0.000336104, 0.000336104
8263, 1,0.000642361, -0.000600343, 0.000401066, 0.386384, -37.7533, 0.00199724, 1.14751, 125.252, 0, 0.000944865, 0.00083963, 0.00168041, 0.524186, 52.5263, 0, 0.00094598, 0.000445561, 0.000890149, 0.474727, 27.6459, 0, 0.000946362, -0.712352, -32.2338, -124.633, -1.21846, -18.6306, -63.0885, 0.000813197, 0.000199184, -0.00186456, 0.000411176, 0.000411176, 0.000411176
8264, 1,0.000704031, -0.000545874, 0.000364056, 0.359289, -34.3564, 0.00197514, 1.11733, 123.894, 0, 0.000913089, 0.000883879, 0.00176678, 0.489708, 55.2449, 0, 0.000914106, 0.000524243, 0.00104472, 0.258951, 32.5542, 0, 0.000914443, -0.59478, -33.8778, -131.262, -0.909014, -21.4454, -75.3082, 0.000858467, 0.000204198, -0.00195897, 0.000494963, 0.000494963, 0.000494963
8265, 1,0.000495258, -0.000674909, 0.00045031, 0.589316, -42.4753, 0.00195103, 1.0552, 122.49, 0, 0.00100961, 0.000719465, 0.00143595, 0.754466, 44.806, 0, 0.00101089, 0.000272488, 0.00054179, 0.766744, 16.7451, 0, 0.00101135, -0.785535, -30.9887, -102.644, -0.902964, -14.3676, -34.9647, 0.000690237, 0.000110833, -0.00152795, 0.000246216, 0.000246216, 0.000246216
8266, 1,0.000548333, -0.00061877, 0.000413346, 0.44442, -38.9277, 0.00190202, 0.802383, 119.697, 0, 0.00097778, 0.00075207, 0.00150579, 0.568778, 47.0306, 0, 0.000978934, 0.000348102, 0.000693038, 0.707416, 21.3512, 0, 0.000979342, -0.868868, -30.1728, -110.05, -1.30281, -15.3273, -47.4236, 0.000723504, 0.000158474, -0.00164497, 0.000310377, 0.000310377, 0.000310377
8267, 1,0.000605315, -0.000566465, 0.000378629, 0.352509, -35.6246, 0.00187142, 0.882545, 117.624, 0, 0.000945941, 0.000791094, 0.00158367, 0.478127, 49.5095, 0, 0.000946987, 0.000420449, 0.00083952, 0.490561, 26.0411, 0, 0.000947348, -0.721766, -31.3312, -116.475, -1.23397, -18.0685, -58.8208, 0.000765506, 0.000169079, -0.00173782, 0.000385579, 0.000385579, 0.000385579
8268, 1,0.000667511, -0.000514473, 0.000343225, 0.316777, -32.384, 0.00185194, 1.00458, 116.222, 0, 0.000914128, 0.000836787, 0.00167295, 0.435424, 52.3207, 0, 0.000915077, 0.000498302, 0.000992962, 0.226057, 30.9362, 0, 0.000915394, -0.587643, -33.0553, -123.319, -0.905229, -20.9356, -70.9676, 0.000812566, 0.00017382, -0.00183525, 0.000469548, 0.000469548, 0.000469548
8269, 1,0.000455677, -0.000634718, 0.000423585, 0.589304, -39.9478, 0.00182186, 1.00021, 114.364, 0, 0.00101091, 0.0006665, 0.00133011, 0.734282, 41.4908, 0, 0.0010121, 0.000246884, 0.000490294, 0.830635, 15.1092, 0, 0.00101254, -0.771527, -29.7613, -93.9396, -0.893008, -13.6238, -30.8109, 0.000638295, 8.25313E-05, -0.00139392, 0.000220604, 0.000220604, 0.000220604
8270, 1,0.000510307, -0.000581989, 0.00038895, 0.441417, -36.6156, 0.0017774, 0.736849, 111.877, 0, 0.000978998, 0.000701598, 0.00140527, 0.541102, 43.8872, 0, 0.000980079, 0.000324499, 0.000643487, 0.778261, 19.7416, 0, 0.000980463, -0.872975, -29.0192, -101.769, -1.31227, -14.6047, -43.3078, 0.000673922, 0.000131393, -0.00151731, 0.000284817, 0.000284817, 0.000284817
8271, 1,0.000568463, -0.00053268, 0.000356248, 0.325443, -33.5004, 0.00174816, 0.762344, 109.961, 0, 0.000947113, 0.000742775, 0.00148731, 0.438187, 46.502, 0, 0.000948089, 0.000395746, 0.000789301, 0.518151, 24.4432, 0, 0.000948428, -0.728816, -30.2842, -108.493, -1.2467, -17.4196, -54.6633, 0.000718014, 0.0001419, -0.00161435, 0.000360153, 0.000360153, 0.000360153
8272, 1,0.000631179, -0.000483181, 0.00032246, 0.277678, -30.4173, 0.0017305, 0.931137, 108.609, 0, 0.000915223, 0.000789934, 0.00157951, 0.385337, 49.4057, 0, 0.000916102, 0.000472508, 0.000941445, 0.195507, 29.3239, 0, 0.000916401, -0.577927, -32.0885, -115.551, -0.8987, -20.3333, -66.7396, 0.000766863, 0.0001464, -0.00171483, 0.00044428, 0.00044428, 0.00044428
8273, 1,0.000416393, -0.000594644, 0.00039694, 0.599174, -37.4264, 0.00169221, 0.950928, 106.2, 0, 0.00101208, 0.000613863, 0.00122479, 0.721403, 38.1888, 0, 0.0010132, 0.000221947, 0.00043947, 0.914733, 13.4821, 0, 0.00101361, -0.756442, -28.395, -85.415, -0.88171, -12.8038, -26.7608, 0.000586583, 5.70542E-05, -0.00126316, 0.000195163, 0.000195163, 0.000195163
8274, 1,0.000472553, -0.000545283, 0.000364596, 0.451343, -34.3074, 0.00165222, 0.677362, 104.01, 0, 0.000980128, 0.000651295, 0.00130508, 0.519622, 40.7536, 0, 0.000981135, 0.000301278, 0.000594396, 0.865429, 18.1387, 0, 0.000981495, -0.875641, -27.7296, -93.6556, -1.31907, -13.805, -39.2919, 0.000624529, 0.000107041, -0.00139272, 0.000259423, 0.000259423, 0.000259423
8275, 1,0.000531808, -0.000498974, 0.00033391, 0.30712, -31.38, 0.00162567, 0.690154, 102.281, 0, 0.000948185, 0.000694651, 0.00139128, 0.404305, 43.5016, 0, 0.00094909, 0.000371433, 0.000739466, 0.557294, 22.8499, 0, 0.000949408, -0.733075, -29.1002, -100.672, -1.25571, -16.6874, -50.6065, 0.000670695, 0.000117466, -0.00149391, 0.000334878, 0.000334878, 0.000334878
8276, 1,0.000595017, -0.000451994, 0.000301763, 0.241454, -28.4561, 0.00160996, 0.877774, 101.026, 0, 0.000916253, 0.000743299, 0.00148644, 0.339025, 46.5002, 0, 0.000917064, 0.000446844, 0.00089016, 0.1672, 27.7176, 0, 0.000917344, -0.565698, -30.9865, -107.948, -0.889232, -19.6443, -62.6192, 0.000721362, 0.000121754, -0.00159754, 0.000419169, 0.000419169, 0.000419169
8277, 1,0.000377533, -0.000554698, 0.000370385, 0.625901, -34.9117, 0.00156273, 0.914779, 98.0296, 0, 0.00101336, 0.000561666, 0.00112007, 0.722846, 34.897, 0, 0.00101439, 0.000197834, 0.000389455, 1.02906, 11.8614, 0, 0.00101477, -0.738829, -26.8951, -77.0571, -0.867979, -11.911, -22.8053, 0.000535087, 3.42746E-05, -0.00113548, 0.000169876, 0.000169876, 0.000169876
8278, 1,0.000435315, -0.000508659, 0.000340289, 0.47968, -32.0028, 0.00152707, 0.635851, 96.1197, 0, 0.000981338, 0.000601271, 0.00120531, 0.511905, 37.6258, 0, 0.00098227, 0.000278469, 0.000545815, 0.973468, 16.5399, 0, 0.000982606, -0.874307, -26.3076, -85.6956, -1.32153, -12.9307, -35.3675, 0.000575313, 8.53088E-05, -0.00127103, 0.000234188, 0.000234188, 0.000234188
8279, 1,0.000495345, -0.000465341, 0.000311612, 0.300084, -29.2631, 0.00150354, 0.641083, 94.5918, 0, 0.000949355, 0.000646709, 0.00129556, 0.377493, 40.5078, 0, 0.000950189, 0.000347449, 0.00068999, 0.607961, 21.2612, 0, 0.000950486, -0.734206, -27.7872, -93.002, -1.26072, -15.8775, -46.6453, 0.000623545, 9.56119E-05, -0.00137634, 0.000309762, 0.000309762, 0.000309762
8280, 1,0.000559016, -0.00042091, 0.000281128, 0.2077, -26.5004, 0.00148996, 0.837687, 93.4587, 0, 0.000917385, 0.000696871, 0.00139373, 0.295798, 43.604, 0, 0.000918128, 0.000421307, 0.000839091, 0.140603, 26.1171, 0, 0.000918388, -0.552013, -29.7579, -100.502, -0.877712, -18.8741, -58.5996, 0.000676038, 9.97042E-05, -0.00148318, 0.000394193, 0.000394193, 0.000394193
8281, 1,0.000339145, -0.000514866, 0.000343911, 0.670973, -32.4029, 0.00143358, 0.891867, 89.8615, 0, 0.00101453, 0.0005099, 0.00101593, 0.738418, 31.6152, 0, 0.00101549, 0.000174606, 0.000340343, 1.18256, 10.2471, 0, 0.00101584, -0.719274, -25.2729, -68.8533, -0.852215, -10.952, -18.937, 0.000483789, 1.39684E-05, -0.00101063, 0.000144734, 0.000144734, 0.000144734
8282, 1,0.000398761, -0.000472098, 0.000316017, 0.524927, -29.7012, 0.00140191, 0.599577, 88.2221, 0, 0.000982497, 0.000551489, 0.00110589, 0.515544, 34.5046, 0, 0.000983353, 0.000256146, 0.000497803, 1.10521, 14.9457, 0, 0.000983665, -0.870071, -24.7669, -77.8768, -1.32024, -11.9897, -31.5273, 0.000526261, 6.5936E-05, -0.00115196, 0.000209107, 0.000209107, 0.000209107
8283, 1,0.000459083, -0.000431775, 0.00028935, 0.305881, -27.1492, 0.00138157, 0.60341, 86.897, 0, 0.000950452, 0.000598923, 0.00120012, 0.357434, 37.5197, 0, 0.000951214, 0.000323772, 0.000640864, 0.670478, 19.6764, 0, 0.000951489, -0.732001, -26.3548, -85.4724, -1.26152, -14.9953, -42.7724, 0.000576556, 7.61395E-05, -0.0012614, 0.000284797, 0.000284797, 0.000284797
8284, 1,0.000523172, -0.000389924, 0.000260553, 0.177473, -24.5496, 0.00137035, 0.811989, 85.897, 0, 0.000918429, 0.000650649, 0.00130136, 0.257352, 40.7155, 0, 0.000919102, 0.000395892, 0.000788234, 0.117104, 24.5217, 0, 0.000919344, -0.535737, -28.41, -93.2007, -0.863282, -18.0277, -54.6741, 0.000630888, 8.00855E-05, -0.00137154, 0.000369356, 0.000369356, 0.000369356
8285, 1,0.000301351, -0.000475149, 0.000317515, 0.739089, -29.9, 0.00130484, 0.883963, 81.6993, 0, 0.00101583, 0.000458623, 0.000912401, 0.771101, 28.3425, 0, 0.00101671, 0.00015245, 0.000292363, 1.39152, 8.63843, 0, 0.00101703, -0.698448, -23.5375, -60.7916, -0.834911, -9.93222, -15.1482, 0.000432663, -4.04404E-06, -0.000888394, 0.000119717, 0.000119717, 0.000119717
8286, 1,0.00036287, -0.00043562, 0.000291789, 0.588347, -27.4036, 0.00127695, 0.573975, 80.3233, 0, 0.000983692, 0.000502201, 0.001007, 0.532735, 31.3901, 0, 0.000984473, 0.000234425, 0.000450489, 1.26636, 13.3559, 0, 0.000984761, -0.863414, -23.1159, -70.191, -1.3155, -10.9872, -27.7651, 0.000477366, 4.87713E-05, -0.00103537, 0.000184168, 0.000184168, 0.000184168
8287, 1,0.00042305, -0.000398287, 0.000267131, 0.326621, -25.039, 0.00125982, 0.578371, 79.1987, 0, 0.000951604, 0.000551314, 0.00110498, 0.347297, 34.5372, 0, 0.000952294, 0.000300399, 0.000592108, 0.746487, 18.0954, 0, 0.000952548, -0.726413, -24.8115, -78.0736, -1.25804, -14.0466, -38.9815, 0.000529724, 5.88846E-05, -0.00114892, 0.000259981, 0.000259981, 0.000259981
8288, 1,0.000487473, -0.000359034, 0.000240035, 0.150293, -22.6037, 0.00125108, 0.800501, 78.338, 0, 0.000919522, 0.00060462, 0.0012093, 0.223184, 37.8344, 0, 0.000920126, 0.000370591, 0.000737572, 0.107625, 22.9311, 0, 0.000920349, -0.5178, -26.9524, -86.0332, -0.846623, -17.1111, -50.8355, 0.000585889, 6.2706E-05, -0.00126242, 0.000344641, 0.000344641, 0.000344641
8289, 1,0.000264327, -0.000435553, 0.000291206, 0.839337, -27.4033, 0.00117664, 0.897505, 73.5433, 0, 0.00101699, 0.000407951, 0.00080959, 0.827192, 25.078, 0, 0.00101779, 0.000131835, 0.000245996, 1.68501, 7.03479, 0, 0.00101809, -0.675653, -21.6986, -52.8599, -0.815457, -8.85752, -11.4314, 0.000381709, -1.99643E-05, -0.000768559, 9.48264E-05, 9.48264E-05, 9.48264E-05
8290, 1,0.000327526, -0.000399212, 0.000267597, 0.673209, -25.1091, 0.00115221, 0.560432, 72.4221, 0, 0.000984823, 0.000453739, 0.000908782, 0.56602, 28.2807, 0, 0.000985529, 0.000213488, 0.000404038, 1.46616, 11.7696, 0, 0.000985793, -0.8537, -21.363, -62.6254, -1.30685, -9.92836, -24.0735, 0.000428615, 3.36289E-05, -0.000921033, 0.000159366, 0.000159366, 0.000159366
8291, 1,0.000387277, -0.000364868, 0.000244947, 0.360161, -22.9319, 0.00113824, 0.564024, 71.4973, 0, 0.0009527, 0.000503848, 0.00101011, 0.345725, 31.5596, 0, 0.000953317, 0.000277353, 0.00054374, 0.837017, 16.5178, 0, 0.00095355, -0.71849, -23.1672, -70.7932, -1.25107, -13.0372, -35.2651, 0.000483019, 4.36469E-05, -0.00103867, 0.000235292, 0.000235292, 0.000235292
8292, 1,0.000451914, -0.000328241, 0.000219575, 0.12627, -20.6627, 0.00113218, 0.804755, 70.7806, 0, 0.00092056, 0.00055878, 0.00111756, 0.193649, 34.9605, 0, 0.000921095, 0.000345404, 0.000687106, 0.122097, 21.3451, 0, 0.000921299, -0.498283, -25.3948, -78.9886, -0.827806, -16.1306, -47.0769, 0.000541034, 4.7373E-05, -0.00115561, 0.000320043, 0.000320043, 0.000320043
8293, 1,0.000228257, -0.000396071, 0.000264979, 0.982836, -24.9124, 0.00104902, 0.933222, 65.394, 0, 0.00101827, 0.000357976, 0.000707577, 0.911982, 21.8214, 0, 0.00101899, 0.00011365, 0.000202139, 2.11123, 5.43583, 0, 0.00101926, -0.652197, -19.7672, -45.0447, -0.794858, -7.73419, -7.77843, 0.000330891, -3.40097E-05, -0.000650862, 7.00357E-05, 7.00357E-05, 7.00357E-05
8294, 1,0.000292756, -0.000362871, 0.00024344, 0.784665, -22.8176, 0.00102776, 0.564125, 64.5165, 0, 0.00098604, 0.000405969, 0.000811191, 0.618588, 25.1747, 0, 0.00098667, 0.0001936, 0.000358709, 1.71797, 10.1858, 0, 0.00098691, -0.840902, -19.5178, -55.1654, -1.29455, -8.81909, -20.4438, 0.000379983, 2.02988E-05, -0.000808682, 0.000134682, 0.000134682, 0.000134682
8295, 1,0.000351825, -0.000331519, 0.000222801, 0.407834, -20.8279, 0.00101691, 0.565427, 63.7901, 0, 0.000953865, 0.000456525, 0.000915504, 0.355339, 28.5853, 0, 0.00095441, 0.000254692, 0.000495814, 0.946026, 14.9426, 0, 0.000954621, -0.707191, -21.4301, -63.6186, -1.23999, -11.9726, -31.6153, 0.000436434, 3.02449E-05, -0.00093043, 0.000210727, 0.000210727, 0.000210727
8296, 1,0.000416479, -0.000297546, 0.000199174, 0.104495, -18.7267, 0.00101367, 0.825976, 63.2257, 0, 0.000921676, 0.000513112, 0.00102611, 0.16794, 32.094, 0, 0.000922142, 0.00032032, 0.000636825, 0.139628, 19.7639, 0, 0.000922327, -0.477999, -23.7471, -72.0568, -0.807353, -15.0926, -43.3919, 0.00049631, 3.38959E-05, -0.0010509, 0.000295555, 0.000295555, 0.000295555
8297, 1,0.000193539, -0.000356708, 0.000238841, 1.194, -22.4273, 0.000922174, 1.00318, 57.2484, 0, 0.00101945, 0.000308945, 0.000606584, 1.03989, 18.5704, 0, 0.00102009, 9.97699E-05, 0.000162658, 2.7616, 3.84052, 0, 0.00102033, -0.626977, -17.7527, -37.3317, -0.772484, -6.56792, -4.18117, 0.000280203, -4.63867E-05, -0.000535056, 4.5342E-05, 4.5342E-05, 4.5342E-05
8298, 1,0.000258717, -0.000326602, 0.000219319, 0.930851, -20.5292, 0.000903654, 0.58534, 56.6092, 0, 0.000987187, 0.00035875, 0.000714196, 0.693947, 22.0726, 0, 0.00098774, 0.000175187, 0.000314921, 2.04216, 8.60471, 0, 0.000987956, -0.825912, -17.5918, -47.8001, -1.27906, -7.666, -16.8691, 0.000331457, 8.56711E-06, -0.000698099, 0.000110108, 0.000110108, 0.000110108
8299, 1,0.00031677, -0.000298247, 0.000200696, 0.470645, -18.7274, 0.000895844, 0.582473, 56.0792, 0, 0.000954948, 0.000409333, 0.00082116, 0.37648, 25.6147, 0, 0.00095542, 0.000232509, 0.000448424, 1.07789, 13.37, 0, 0.00095561, -0.693283, -19.6116, -56.539, -1.22531, -10.8595, -28.0253, 0.000389961, 1.84608E-05, -0.000823979, 0.000186278, 0.000186278, 0.000186278
8300, 1,0.000381171, -0.000266952, 0.000178832, 0.087802, -16.7955, 0.000895712, 0.876008, 55.6672, 0, 0.000922717, 0.000467633, 0.000934934, 0.149966, 29.2314, 0, 0.000923113, 0.000295341, 0.000586716, 0.160457, 18.1856, 0, 0.000923278, -0.45541, -22.0161, -65.2228, -0.784402, -14.0014, -39.7708, 0.000451695, 2.21019E-05, -0.000948051, 0.000271162, 0.000271162, 0.000271162
8301, 1,0.000160918, -0.000317475, 0.000212803, 1.51432, -19.9489, 0.000796297, 1.11351, 49.1105, 0, 0.00102072, 0.000261221, 0.000506982, 1.23001, 15.326, 0, 0.00102128, 9.39881E-05, 0.000131346, 3.79677, 2.24887, 0, 0.0010215, -0.601544, -15.6673, -29.7091, -0.749166, -5.3655, -0.631956, 0.000229621, -5.73255E-05, -0.000420901, 2.07274E-05, 2.07274E-05, 2.07274E-05
8302, 1,0.000225714, -0.000290415, 0.000195237, 1.12773, -18.2445, 0.000780048, 0.632964, 48.6991, 0, 0.000988415, 0.000312197, 0.000617933, 0.801364, 18.9732, 0, 0.000988891, 0.000158936, 0.000273355, 2.4723, 7.02551, 0, 0.000989083, -0.808272, -15.5948, -40.5165, -1.26023, -6.475, -13.3413, 0.000283029, -1.77185E-06, -0.00058905, 8.56334E-05, 8.56334E-05, 8.56334E-05
8303, 1,0.000282209, -0.000265067, 0.00017864, 0.552215, -16.6309, 0.00077522, 0.624499, 48.3626, 0, 0.000956123, 0.000362496, 0.000727206, 0.411845, 22.6465, 0, 0.000956522, 0.000210941, 0.000401703, 1.23963, 11.7994, 0, 0.00095669, -0.676654, -17.7203, -49.5424, -1.20716, -9.70335, -24.4876, 0.000343583, 8.11754E-06, -0.000719103, 0.000161931, 0.000161931, 0.000161931
8304, 1,0.000345959, -0.000236464, 0.000158554, 0.0744867, -14.8695, 0.000778397, 0.956098, 48.1088, 0, 0.00092384, 0.000422303, 0.000844005, 0.136771, 26.3744, 0, 0.000924166, 0.000270454, 0.000536771, 0.184264, 16.6108, 0, 0.000924312, -0.432267, -20.215, -58.4759, -0.760122, -12.8652, -36.2072, 0.000407178, 1.17483E-05, -0.00084683, 0.000246853, 0.000246853, 0.000246853
8305, 1,0.000132126, -0.000278394, 0.000186889, 2.03556, -17.4779, 0.000671912, 1.28985, 40.9795, 0, 0.00102188, 0.000215611, 0.000409568, 1.52569, 12.0865, 0, 0.00102236, 0.000103006, 0.000114895, 5.46082, 0.660007, 0, 0.00102255, -0.575377, -13.5202, -22.1638, -0.724777, -4.13248, 2.87723, 0.000179132, -6.70182E-05, -0.000308166, -3.81908E-06, -3.81908E-06, -3.81908E-06
8306, 1,0.000194288, -0.000254323, 0.000171202, 1.40183, -15.9641, 0.000657158, 0.716581, 40.7869, 0, 0.000989535, 0.000266587, 0.000522675, 0.954876, 15.8761, 0, 0.000989935, 0.000145969, 0.000235121, 3.06168, 5.44789, 0, 0.000990103, -0.788668, -13.5372, -33.3024, -1.23855, -5.25216, -9.85295, 0.000234677, -1.09226E-05, -0.000481303, 6.12435E-05, 6.12435E-05, 6.12435E-05
8307, 1,0.000248263, -0.000231995, 0.000156646, 0.658778, -14.5392, 0.000655234, 0.700918, 40.6402, 0, 0.000957219, 0.000316875, 0.000634095, 0.46478, 19.6799, 0, 0.000957544, 0.000190205, 0.000355859, 1.4421, 10.23, 0, 0.000957691, -0.65763, -15.7665, -42.6156, -1.18577, -8.51036, -20.994, 0.000297279, -9.98632E-07, -0.000615557, 0.000137671, 0.000137671, 0.000137671
8308, 1,0.000310862, -0.000206113, 0.000138361, 0.0708467, -12.9502, 0.000662139, 1.08685, 40.5491, 0, 0.000924883, 0.000377167, 0.000753364, 0.131339, 23.5222, 0, 0.000925138, 0.000245675, 0.000487012, 0.211971, 15.0395, 0, 0.000925265, -0.408398, -18.3518, -51.8064, -0.734542, -11.6894, -32.6946, 0.000362751, 2.67745E-06, -0.000747059, 0.000222624, 0.000222624, 0.000222624
8309, 1,0.000111392, -0.000239493, 0.000161129, 2.96468, -15.0157, 0.000549875, 1.57384, 32.8546, 0, 0.00102314, 0.000173857, 0.000316067, 2.01674, 8.85077, 0, 0.00102354, 0.000132975, 0.000119444, 7.95956, -0.926743, 0, 0.00102371, -0.548616, -11.3223, -14.6814, -0.699348, -2.87515, 6.35473, 0.000128717, -7.56916E-05, -0.000196587, -2.83088E-05, -2.83088E-05, -2.83088E-05
8310, 1,0.000165487, -0.000218351, 0.000147224, 1.80446, -13.689, 0.000535421, 0.858432, 32.8702, 0, 0.000990773, 0.000222492, 0.000428984, 1.18313, 12.78, 0, 0.000991096, 0.00013814, 0.000202067, 3.89746, 3.87123, 0, 0.000991239, -0.766949, -11.429, -26.1441, -1.21421, -4.00361, -6.39587, 0.000186384, -1.90965E-05, -0.00037461, 3.69241E-05, 3.69241E-05, 3.69241E-05
8311, 1,0.000215142, -0.000199071, 0.00013474, 0.800865, -12.4542, 0.000536325, 0.831921, 32.9126, 0, 0.000958395, 0.00027187, 0.000541591, 0.541375, 16.7148, 0, 0.000958647, 0.000170648, 0.000311235, 1.70199, 8.66196, 0, 0.000958773, -0.636892, -13.7606, -35.7469, -1.1618, -7.28696, -17.5371, 0.000251032, -9.092E-06, -0.000513114, 0.000113484, 0.000113484, 0.000113484
8312, 1,0.000275862, -0.000175929, 0.000118275, 0.082571, -11.0389, 0.000547532, 1.29575, 32.9888, 0, 0.000925991, 0.000332224, 0.000662995, 0.133958, 20.6737, 0, 0.000926176, 0.000221003, 0.000437432, 0.24472, 13.4709, 0, 0.000926284, -0.384099, -16.4364, -45.2007, -0.707878, -10.4801, -29.2246, 0.000318391, -5.32194E-06, -0.000648489, 0.000198459, 0.000198459, 0.000198459
8313, 1,0.000109512, -0.000200831, 0.000135588, 4.77443, -12.565, 0.000432047, 2.05686, 24.7324, 0, 0.00102435, 0.000140444, 0.00023096, 2.92458, 5.6182, 0, 0.00102466, 0.000181813, 0.000142904, 11.2493, -2.51169, 0, 0.0010248, -0.521818, -9.08461, -7.24817, -0.673435, -1.59991, 9.80843, 7.83523E-05, -8.35684E-05, -8.59057E-05, -5.27587E-05, -5.27587E-05, -5.27587E-05
8314, 1,0.000141453, -0.000182552, 0.00012333, 2.43863, -11.4218, 0.000415718, 1.10163, 24.9477, 0, 0.000991895, 0.000181118, 0.000338053, 1.54446, 9.68454, 0, 0.000992141, 0.000138336, 0.000177071, 5.11179, 2.29509, 0, 0.00099226, -0.74363, -9.28086, -19.0291, -1.18747, -2.7354, -2.96239, 0.000138134, -2.6506E-05, -0.000268735, 1.26624E-05, 1.26624E-05, 1.26624E-05
8315, 1,0.000183249, -0.000166367, 0.000112973, 0.998735, -10.3793, 0.000419413, 1.05986, 25.1813, 0, 0.000959483, 0.000227646, 0.000449902, 0.654516, 13.7503, 0, 0.000959661, 0.000152855, 0.000268411, 2.04754, 7.09464, 0, 0.000959764, -0.614324, -11.7125, -28.9241, -1.13518, -6.0391, -14.1096, 0.000204832, -1.6364E-05, -0.000411551, 8.93631E-05, 8.93631E-05, 8.93631E-05
8316, 1,0.000240953, -0.000145981, 9.83556E-05, 0.105357, -9.13895, 0.000435892, 1.64006, 25.4341, 0, 0.000927063, 0.000287503, 0.000572923, 0.145701, 17.8286, 0, 0.000927177, 0.000196456, 0.000388052, 0.284488, 11.9046, 0, 0.000927267, -0.359525, -14.4792, -38.6472, -0.680205, -9.2437, -25.79, 0.000274088, -1.24556E-05, -0.000550897, 0.000174352, 0.000174352, 0.000174352
8317, 1,0.000144866, -0.000162542, 0.000110399, 8.18765, -10.1321, 0.00032337, 2.98007, 16.6059, 0, 0.00102559, 0.000128375, 0.000167234, 4.84992, 2.38775, 0, 0.00102582, 0.000242136, 0.000177879, 15.0884, -4.09571, 0, 0.00102593, -0.494618, -6.81784, 0.149202, -0.646631, -0.312768, 13.2465, 2.80302E-05, -9.0867E-05, 2.41201E-05, -7.71738E-05, -7.71738E-05, -7.71738E-05
8318, 1,0.000126888, -0.000147036, 9.95742E-05, 3.52716, -9.16756, 0.000300671, 1.57612, 17.0129, 0, 0.000993097, 0.000145385, 0.000252789, 2.18001, 6.58847, 0, 0.000993265, 0.000150268, 0.000163836, 6.87031, 0.718863, 0, 0.00099336, -0.718364, -7.10275, -11.9443, -1.15827, -1.45359, 0.455276, 8.9914E-05, -3.336E-05, -0.000163435, -1.15501E-05, -1.15501E-05, -1.15501E-05
8319, 1,0.000153376, -0.000134027, 9.14553E-05, 1.29103, -8.32123, 0.000306909, 1.49461, 17.4518, 0, 0.000960643, 0.000184747, 0.000359564, 0.830213, 10.7853, 0, 0.000960747, 0.00013781, 0.00022836, 2.52598, 5.52743, 0, 0.000960829, -0.589879, -9.63178, -22.1343, -1.10605, -4.77283, -10.7034, 0.000158661, -2.30147E-05, -0.000310629, 6.52942E-05, 6.52942E-05, 6.52942E-05
8320, 1,0.000206145, -0.000116418, 7.87445E-05, 0.137829, -7.25743, 0.000330456, 2.26495, 17.8949, 0, 0.000928175, 0.000243093, 0.000483222, 0.169348, 14.986, 0, 0.000928219, 0.000172074, 0.000338914, 0.334198, 10.3404, 0, 0.000928289, -0.334702, -12.4895, -32.1339, -0.651743, -7.98638, -22.3831, 0.000229828, -1.89119E-05, -0.000454065, 0.000150291, 0.000150291, 0.000150291
8321, 1,0.000219424, -0.000124903, 8.58458E-05, 13.3126, -7.73033, 0.000241212, 5.18168, 8.45814, 0, 0.00102676, 0.000166635, 0.000153865, 9.0319, -0.84119, 0, 0.00102691, 0.000308472, 0.000218886, 19.2529, -5.67918, 0, 0.00102699, -0.467801, -4.53324, 7.52461, -0.619604, 0.979837, 16.6773, -2.22758E-05, -9.78165E-05, 0.000133756, -0.000101574, -0.000101574, -0.000101574
8322, 1,0.000131571, -0.000112051, 7.60844E-05, 5.51965, -6.93814, 0.000200315, 2.75938, 9.06659, 0, 0.000994219, 0.000123381, 0.000181267, 3.47251, 3.49143, 0, 0.000994309, 0.000176783, 0.000165198, 9.297, -0.857822, 0, 0.00099438, -0.691802, -4.90601, -4.87648, -1.12699, -0.164568, 3.86502, 4.17037E-05, -3.98854E-05, -5.84577E-05, -3.57278E-05, -3.57278E-05, -3.57278E-05
8323, 1,0.000127246, -0.000102376, 7.04729E-05, 1.7595, -6.2956, 0.000207076, 2.52145, 9.73145, 0, 0.000961731, 0.000144464, 0.000271856, 1.12778, 7.81966, 0, 0.000961761, 0.000127234, 0.000192798, 3.21851, 3.96016, 0, 0.000961821, -0.564017, -7.52938, -15.3656, -1.07465, -3.49452, -7.31131, 0.000112506, -2.9257E-05, -0.000210122, 4.12691E-05, 4.12691E-05, 4.12691E-05
8324, 1,0.000171472, -8.75744E-05, 5.98135E-05, 0.18382, -5.41048, 0.000240977, 3.61782, 10.388, 0, 0.000929234, 0.000199147, 0.000394033, 0.20963, 12.1453, 0, 0.000929207, 0.000147951, 0.000290105, 0.39905, 8.77771, 0, 0.000929258, -0.309785, -10.4775, -25.6486, -0.622453, -6.71439, -18.9963, 0.000185599, -2.48953E-05, -0.000357768, 0.00012627, 0.00012627, 0.00012627
8325, 1,0.000315028, -8.8637E-05, 6.26551E-05, 19.4576, -5.3941, 0.000260882, 12.2234, 0.269177, 0, 0.00102801, 0.000265368, 0.000200981, 15.9324, -4.06988, 0, 0.00102808, 0.000378006, 0.0002631, 23.6058, -7.26289, 0, 0.00102813, -0.440958, -2.2411, 14.8917, -0.592037, 2.27199, 20.1087, -7.25767E-05, -0.000104638, 0.000243255, -0.000125967, -0.000125967, -0.000125967
8326, 1,0.000168224, -7.82875E-05, 5.32794E-05, 8.98658, -4.76641, 0.00017595, 7.55268, 1.10831, 0, 0.000995435, 0.000137019, 0.000145383, 6.43489, 0.392351, 0, 0.000995447, 0.000217571, 0.000180839, 12.3785, -2.43561, 0, 0.000995492, -0.663857, -2.70062, 2.18742, -1.09375, 1.12566, 7.27492, -6.51168E-06, -4.62899E-05, 4.64362E-05, -5.98838E-05, -5.98838E-05, -5.98838E-05
8327, 1,0.000108964, -7.22728E-05, 5.09078E-05, 2.59807, -4.34328, 0.000166918, 6.36073, 2.0266, 0, 0.00096289, 0.000110429, 0.000190399, 1.71586, 4.85246, 0, 0.000962846, 0.000124053, 0.000164644, 4.2617, 2.39237, 0, 0.000962885, -0.536816, -5.41499, -8.60557, -1.04125, -2.21034, -3.92551, 6.63524E-05, -3.52871E-05, -0.000109803, 1.72747E-05, 1.72747E-05, 1.72747E-05
8328, 1,0.000137158, -6.03746E-05, 4.2588E-05, 0.253033, -3.64256, 0.000208032, 7.60533, 2.93249, 0, 0.00093035, 0.000156044, 0.000305713, 0.279023, 9.30589, 0, 0.000930254, 0.000124283, 0.000241807, 0.487978, 7.21629, 0, 0.000930285, -0.284935, -8.45286, -19.1799, -0.592601, -5.43396, -15.6223, 0.000141387, -3.0593E-05, -0.000261796, 0.00010228, 0.00010228, 0.00010228
8329, 1,0.000419537, -5.59593E-05, 4.30504E-05, 26.0772, -3.22979, 0.000494518, 29.3688, -7.97575, 0, 0.00102916, 0.000395436, 0.000279428, 24.3499, -7.29921, 0, 0.00102914, 0.000449377, 0.000309149, 28.0729, -8.84741, 0, 0.00102917, -0.414622, 0.0476898, 22.2645, -0.564403, 3.5575, 23.5491, -0.000122898, -0.000111561, 0.000352885, -0.000150369, -0.000150369, -0.000150369
8330, 1,0.000237207, -4.80932E-05, 3.48294E-05, 13.9482, -2.7648, 0.000396878, 23.9102, -6.86622, 0, 0.000996549, 0.000210709, 0.000169536, 12.1838, -2.70962, 0, 0.000996482, 0.000269453, 0.000207571, 15.9757, -4.01499, 0, 0.000996503, -0.634598, -0.497061, 9.2605, -1.05864, 2.41099, 10.6926, -5.47473E-05, -5.27896E-05, 0.000151492, -8.40279E-05, -8.40279E-05, -8.40279E-05
8331, 1,0.000108485, -4.63147E-05, 3.56092E-05, 4.27277, -2.58847, 0.000348797, 20.6911, -5.65523, 0, 0.000963991, 9.51961E-05, 0.000127735, 3.18075, 1.88281, 0, 0.000963873, 0.000132561, 0.000148182, 5.85256, 0.823422, 0, 0.000963889, -0.508236, -3.29856, -1.84165, -1.00582, -0.926108, -0.538337, 2.0186E-05, -4.13067E-05, -9.44175E-06, -6.69851E-06, -6.69851E-06, -6.69851E-06
8332, 1,0.000104323, -3.77173E-05, 3.00156E-05, 0.368288, -2.09309, 0.000345779, 19.6345, -4.45489, 0, 0.000931419, 0.000114727, 0.000219183, 0.410161, 6.46731, 0, 0.000931254, 0.000101495, 0.000194404, 0.6187, 5.65584, 0, 0.000931267, -0.260478, -6.42546, -12.716, -0.562529, -4.15129, -12.2537, 9.7179E-05, -3.61946E-05, -0.000165938, 7.83075E-05, 7.83075E-05, 7.83075E-05
8333, 1,0.000528105, 3.40792E-05, 3.39106E-05, 32.925, 1.65422, 0.000841641, 51.9362, -16.2874, 0, 0.00103042, 0.000537388, 0.000369742, 33.3827, -10.5301, 0, 0.00103033, 0.000521885, 0.000356323, 32.6131, -10.4332, 0, 0.00103032, -0.388541, 2.32234, 29.6565, -0.536516, 4.83015, 27.006, -0.000173248, -0.000118815, 0.000462901, -0.000174787, -0.000174787, -0.000174787
8334, 1,0.000325984, -2.94089E-05, 2.83406E-05, 19.8456, 1.37675, 0.000742583, 46.183, -14.8585, 0, 0.00099779, 0.000326756, 0.000236013, 19.9325, -5.8151, 0, 0.000997643, 0.000328821, 0.000241774, 19.9272, -5.5963, 0, 0.00099764, -0.604384, 1.69386, 16.3558, -1.0221, 3.68504, 14.126, -0.000103021, -5.96035E-05, 0.000256958, -0.000108175, -0.000108175, -0.000108175
8335, 1,0.000141818, 3.15882E-05, 3.13625E-05, 7.52993, 1.63427, 0.000672536, 41.6964, -13.3087, 0, 0.000965155, 0.000133708, 0.000118793, 7.18691, -1.08966, 0, 0.000964964, 0.000156758, 0.000147405, 8.17115, -0.746802, 0, 0.000964959, -0.478895, -1.19056, 4.93843, -0.969029, 0.351621, 2.85781, -2.60123E-05, -4.75205E-05, 9.11912E-05, -3.06668E-05, -3.06668E-05, -3.06668E-05
8336, 1,7.50504E-05, 3.11788E-05, 2.87203E-05, 0.59833, 1.66637, 0.000627863, 38.4249, -11.7612, 0, 0.000932526, 7.84347E-05, 0.00013766, 0.724477, 3.62878, 0, 0.000932293, 8.04788E-05, 0.000148737, 0.831552, 4.09578, 0, 0.000932286, -0.23628, -4.40478, -6.24526, -0.532033, -2.87232, -8.88297, 5.29648E-05, -4.18863E-05, -6.99829E-05, 5.43489E-05, 5.43489E-05, 5.43489E-05
8337, 1,0.000638797, 5.58383E-05, 4.25823E-05, 39.8957, 3.306, 0.00122105, 76.0966, -24.6708, 0, 0.00103159, 0.000684377, 0.000465061, 42.685, -13.7633, 0, 0.0010314, 0.00059516, 0.000404243, 37.2038, -12.0207, 0, 0.00103138, -0.363117, 4.5722, 37.0807, -0.508789, 6.08392, 30.487, -0.000223649, -0.000126621, 0.000573557, -0.000199234, -0.000199234, -0.000199234
8338, 1,0.000424569, 5.06958E-05, 3.95395E-05, 26.2179, 3.06343, 0.00111187, 69.5949, -22.8707, 0, 0.000998889, 0.00045982, 0.000319464, 28.5061, -8.92502, 0, 0.000998663, 0.000392995, 0.000280765, 24.1104, -7.18016, 0, 0.000998634, -0.57315, 3.86199, 23.4862, -0.984137, 4.94195, 17.5827, -0.000151345, -6.6941E-05, 0.000363069, -0.000132335, -0.000132335, -0.000132335
8339, 1,0.000210795, 5.26853E-05, 4.13608E-05, 12.4632, 3.16271, 0.0010219, 63.8855, -20.9315, 0, 0.000966241, 0.000234638, 0.000172235, 14.1743, -4.06609, 0, 0.000965977, 0.000196911, 0.000162571, 11.2295, -2.31926, 0, 0.00096595, -0.448294, 0.899487, 11.7471, -0.930369, 1.61734, 6.2708, -7.22493E-05, -5.41253E-05, 0.000192318, -5.46342E-05, -5.46342E-05, -5.46342E-05
8340, 1,5.55124E-05, 5.2377E-05, 3.97159E-05, 1.23418, 3.15282, 0.000947898, 58.9326, -18.9791, 0, 0.000933588, 6.43837E-05, 7.83524E-05, 1.99009, 0.789814, 0, 0.000933288, 6.33912E-05, 0.000106933, 1.23125, 2.53581, 0, 0.000933262, -0.212732, -2.40078, 0.244073, -0.501584, -1.60336, -5.50249, 8.72917E-06, -4.78606E-05, 2.62824E-05, 3.03896E-05, 3.03896E-05, 3.03896E-05
8341, 1,0.000750754, 8.83398E-05, 6.19823E-05, 46.9413, 5.467, 0.00161341, 100.929, -33.1264, 0, 0.00103281, 0.000833901, 0.000562872, 52.1262, -16.9998, 0, 0.00103254, 0.000668996, 0.000452691, 41.832, -13.6107, 0, 0.00103249, -0.338107, 6.78667, 44.5508, -0.480937, 7.31289, 34, -0.00027411, -0.000135204, 0.000685106, -0.000223718, -0.000223718, -0.000223718
8342, 1,0.000528151, 8.25172E-05, 5.91143E-05, 32.8372, 5.14738, 0.00148855, 93.374, -30.9026, 0, 0.00100012, 0.000599754, 0.000409722, 37.4193, -12.0403, 0, 0.000999814, 0.000460305, 0.000322855, 28.4475, -8.76728, 0, 0.00099976, -0.540895, 5.99672, 30.6651, -0.944703, 6.17559, 21.071, -0.000199734, -7.50206E-05, 0.000470076, -0.000156517, -0.000156517, -0.000156517
8343, 1,0.000299834, 8.11473E-05, 5.86365E-05, 18.3493, 5.04056, 0.001377, 86.3219, -28.523, 0, 0.000967415, 0.000360979, 0.000251038, 22.3694, -7.04673, 0, 0.000967078, 0.000249293, 0.000189945, 14.8593, -3.89388, 0, 0.000967028, -0.417334, 2.96084, 18.5967, -0.890905, 2.86429, 9.70826, -0.000118547, -6.13307E-05, 0.000294175, -7.86215E-05, -7.86215E-05, -7.86215E-05
8344, 1,7.41435E-05, 7.90562E-05, 5.61656E-05, 3.72965, 4.89817, 0.00127599, 79.7511, -26.1083, 0, 0.00093474, 0.000129153, 9.78407E-05, 7.35623, -2.05013, 0, 0.000934375, 5.6736E-05, 7.55044E-05, 2.1344, 0.975548, 0, 0.000934329, -0.189809, -0.422757, 6.76294, -0.471169, -0.350185, -2.10529, -3.55354E-05, -5.43001E-05, 0.000123058, 6.42402E-06, 6.42402E-06, 6.42402E-06
8345, 1,0.000863558, 0.000124537, 8.50605E-05, 54.0382, 7.80251, 0.00201307, 126.16, -41.6501, 0, 0.00103396, 0.000984917, 0.000662113, 61.6506, -20.2407, 0, 0.0010336, 0.000743277, 0.000501543, 46.4903, -15.2036, 0, 0.00103352, -0.313702, 8.95509, 52.0808, -0.453248, 8.51086, 37.5533, -0.000324654, -0.000144785, 0.000797807, -0.000248253, -0.000248253, -0.000248253
8346, 1,0.000634541, 0.000116906, 8.12344E-05, 39.5979, 7.35293, 0.00186872, 117.333, -38.9531, 0, 0.00100124, 0.000742997, 0.000503216, 46.4992, -15.1617, 0, 0.00100085, 0.000529732, 0.00036702, 32.8903, -10.3579, 0, 0.00100077, -0.507996, 8.08797, 37.9052, -0.904433, 7.37988, 24.5983, -0.000248207, -8.40437E-05, 0.000578209, -0.00018074, -0.00018074, -0.00018074
8347, 1,0.000397798, 0.000112261, 7.85091E-05, 24.664, 7.0444, 0.00173353, 108.804, -36.0862, 0, 0.000968512, 0.000495519, 0.000337984, 30.9532, -10.0326, 0, 0.000968103, 0.000309547, 0.00022516, 18.8622, -5.47151, 0, 0.000968031, -0.385707, 4.98434, 25.4991, -0.850247, 4.08711, 13.1777, -0.000164914, -6.93267E-05, 0.000396977, -0.000102633, -0.000102633, -0.000102633
8348, 1,0.000149799, 0.000107671, 7.45312E-05, 9.07463, 6.73517, 0.00160502, 100.551, -33.1552, 0, 0.000935805, 0.000247592, 0.000170971, 15.2547, -4.89146, 0, 0.000935376, 7.60333E-05, 6.99838E-05, 4.25684, -0.585255, 0, 0.00093531, -0.167918, 1.51948, 13.3228, -0.441245, 0.88097, 1.31604, -7.98436E-05, -6.14018E-05, 0.000220562, -1.75608E-05, -1.75608E-05, -1.75608E-05
8349, 1,0.000976975, 0.000162133, 0.00010952, 61.1724, 10.2043, 0.00241745, 151.657, -50.2305, 0, 0.00103519, 0.00113691, 0.000762263, 71.2306, -23.4865, 0, 0.00103474, 0.000817919, 0.000550709, 51.1729, -16.7998, 0, 0.00103463, -0.290035, 11.0668, 59.6827, -0.425891, 9.67163, 41.1536, -0.00037529, -0.000155569, 0.000911882, -0.000272845, -0.000272845, -0.000272845
8350, 1,0.000742695, 0.000152274, 0.000104311, 46.4495, 9.60538, 0.00225093, 141.403, -47.0205, 0, 0.0010024, 0.000888141, 0.000598516, 55.6774, -18.2901, 0, 0.00100194, 0.000600673, 0.000412642, 37.4103, -11.9528, 0, 0.00100183, -0.474484, 10.1253, 45.2195, -0.863289, 8.54882, 28.1728, -0.000296777, -9.42239E-05, 0.00068771, -0.000205011, -0.000205011, -0.000205011
8351, 1,0.000500022, 0.000144474, 9.94395E-05, 31.1861, 9.1009, 0.00209025, 131.278, -43.6269, 0, 0.000969651, 0.000633437, 0.000428233, 39.6994, -13.0245, 0, 0.000969169, 0.000374634, 0.000265166, 23.0976, -7.05262, 0, 0.000969075, -0.353798, 6.96006, 32.4672, -0.808937, 5.27972, 16.6871, -0.000211371, -7.83188E-05, 0.000500963, -0.000126686, -0.000126686, -0.000126686
8352, 1,0.000245651, 0.000137092, 9.36875E-05, 15.3062, 8.61048, 0.00193302, 121.248, -40.1318, 0, 0.000936927, 0.000377123, 0.000255169, 23.5649, -7.73481, 0, 0.000936434, 0.000125845, 9.49421E-05, 7.77523, -2.14713, 0, 0.00093635, -0.146915, 3.41683, 19.9345, -0.41162, 2.08441, 4.7686, -0.000124202, -6.93551E-05, 0.000319001, -4.15688E-05, -4.15688E-05, -4.15688E-05
8353, 1,0.0010909, 0.000200392, 0.000134623, 68.3381, 12.6378, 0.0028249, 177.331, -58.8527, 0, 0.00103638, 0.00128965, 0.000863072, 80.8538, -26.738, 0, 0.00103584, 0.000892891, 0.000600145, 55.8779, -18.3997, 0, 0.0010357, -0.267055, 13.111, 67.3701, -0.39875, 10.789, 44.8088, -0.00042603, -0.000167771, 0.00102757, -0.000297501, -0.000297501, -0.000297501
8354, 1,0.000852067, 0.000188127, 0.000127845, 53.3658, 11.8814, 0.00263445, 165.545, -55.1018, 0, 0.00100359, 0.00103454, 0.000694968, 64.9228, -21.4264, 0, 0.00100304, 0.000672744, 0.00045933, 41.9892, -13.5524, 0, 0.00100291, -0.440287, 12.0988, 52.6206, -0.821274, 9.67661, 31.8017, -0.000345458, -0.00010576, 0.000798807, -0.00022934, -0.00022934, -0.00022934
8355, 1,0.00060458, 0.000177245, 0.000120892, 37.8237, 11.1844, 0.00244685, 153.734, -51.1519, 0, 0.000970816, 0.000773124, 0.000520161, 48.533, -16.023, 0, 0.000970263, 0.000442759, 0.000308155, 27.4812, -8.63759, 0, 0.000970147, -0.321944, 8.87777, 39.5132, -0.767259, 6.43591, 20.2441, -0.000257933, -8.85164E-05, 0.000606366, -0.000150793, -0.000150793, -0.000150793
8356, 1,0.000346612, 0.00016692, 0.000113235, 21.7441, 10.5052, 0.00225973, 141.846, -47.0558, 0, 0.000938039, 0.000509711, 0.000342389, 31.9837, -10.5809, 0, 0.000937484, 0.000190135, 0.000134343, 11.9621, -3.71053, 0, 0.000937379, -0.126988, 5.26026, 26.6095, -0.382602, 3.25449, 8.25969, -0.000168625, -7.83545E-05, 0.000418596, -6.56135E-05, -6.56135E-05, -6.56135E-05
8357, 1,0.00120526, 0.000239025, 0.000160079, 75.5321, 15.0894, 0.00323409, 203.108, -67.5016, 0, 0.00103755, 0.00144299, 0.000964386, 90.5138, -29.9971, 0, 0.00103692, 0.000968166, 0.000649818, 60.6042, -20.0045, 0, 0.00103675, -0.244358, 15.0788, 75.1569, -0.371682, 11.8579, 48.5272, -0.000476896, -0.000181566, 0.00114511, -0.000322236, -0.000322236, -0.000322236
8358, 1,0.00096236, 0.000224269, 0.000151642, 60.3326, 14.1721, 0.00301886, 189.739, -63.1963, 0, 0.00100473, 0.00118187, 0.000792238, 74.2202, -24.5713, 0, 0.0010041, 0.000745711, 0.000506838, 46.6161, -15.1572, 0, 0.00100394, -0.405658, 13.9987, 60.1209, -0.778706, 10.7574, 35.4928, -0.000394266, -0.000118852, 0.000911727, -0.00025374, -0.00025374, -0.00025374
8359, 1,0.000710583, 0.000210347, 0.000142643, 44.5352, 13.2844, 0.00280337, 176.182, -58.6702, 0, 0.000971924, 0.000913914, 0.000613096, 57.4239, -19.0293, 0, 0.000971299, 0.000512889, 0.000353088, 31.9648, -10.2272, 0, 0.00097116, -0.2896, 10.729, 46.6484, -0.724924, 7.55051, 23.8559, -0.000304606, -0.000100102, 0.000713396, -0.00017496, -0.00017496, -0.00017496
8360, 1,0.000449424, 0.000196985, 0.000133004, 28.2568, 12.4113, 0.00258548, 162.372, -53.946, 0, 0.000939115, 0.00064356, 0.000430837, 40.4491, -13.4305, 0, 0.000938497, 0.000259614, 0.000178901, 16.3952, -5.27586, 0, 0.000938373, -0.108033, 7.04076, 33.3587, -0.354158, 4.38544, 11.7963, -0.000213123, -8.85946E-05, 0.000519562, -8.97009E-05, -8.97009E-05, -8.97009E-05
8361, 1,0.00132003, 0.000277907, 0.000185764, 82.7528, 17.5532, 0.00364414, 228.933, -76.1588, 0, 0.00103874, 0.00159688, 0.00106614, 100.207, -33.2636, 0, 0.00103802, 0.00104374, 0.000699715, 65.3511, -21.614, 0, 0.00103783, -0.222678, 16.9577, 83.0558, -0.34519, 12.8709, 52.3163, -0.000527899, -0.000197188, 0.00126472, -0.000347058, -0.000347058, -0.000347058
8362, 1,0.00107341, 0.000260616, 0.000175614, 67.3421, 16.4732, 0.00340392, 213.974, -71.3052, 0, 0.00100591, 0.00132997, 0.000890152, 83.5621, -27.7258, 0, 0.0010052, 0.000819419, 0.000555005, 51.2837, -16.7677, 0, 0.00100502, -0.370542, 15.8154, 67.7326, -0.735635, 11.7856, 39.2532, -0.000443214, -0.000133694, 0.00102669, -0.000278222, -0.000278222, -0.000278222
8363, 1,0.000817604, 0.000243677, 0.00016459, 51.3, 15.3959, 0.00316, 198.631, -66.1838, 0, 0.000973095, 0.00105552, 0.000706743, 66.3585, -22.043, 0, 0.000972399, 0.000584437, 0.000399367, 36.5201, -11.8213, 0, 0.000972237, -0.257923, 12.5028, 53.884, -0.682615, 8.61692, 27.5295, -0.000351411, -0.000113289, 0.000822279, -0.0001992, -0.0001992, -0.0001992
8364, 1,0.000553134, 0.000227201, 0.00015291, 34.8069, 14.3246, 0.00291067, 182.854, -60.8142, 0, 0.000940288, 0.000778091, 0.000519938, 48.9412, -16.2831, 0, 0.000939609, 0.000331275, 0.000225607, 20.9342, -6.84316, 0, 0.000939465, -0.0907204, 8.74839, 40.1916, -0.326545, 5.47116, 15.3849, -0.000257702, -0.000100273, 0.000622099, -0.000113838, -0.000113838, -0.000113838
8365, 1,0.00143517, 0.000316967, 0.00021161, 89.9987, 20.0259, 0.00405444, 254.771, -84.818, 0, 0.00103991, 0.00175125, 0.00116827, 109.932, -36.5386, 0, 0.0010391, 0.0011196, 0.000749814, 70.1182, -23.229, 0, 0.00103887, -0.201552, 18.7391, 91.0781, -0.318995, 13.8233, 56.1827, -0.000579046, -0.000214803, 0.00138662, -0.000371971, -0.000371971, -0.000371971
8366, 1,0.00118511, 0.000297125, 0.000199717, 74.3895, 18.783, 0.00378935, 238.234, -79.4236, 0, 0.00100704, 0.00147876, 0.00098861, 92.9443, -30.8903, 0, 0.00100624, 0.00089377, 0.000603722, 55.9875, -18.3844, 0, 0.00100604, -0.335408, 17.5387, 75.4677, -0.692475, 12.7553, 43.0903, -0.000492321, -0.000150483, 0.00114393, -0.0003028, -0.0003028, -0.0003028
8367, 1,0.000925401, 0.000277179, 0.000186677, 58.1075, 17.5164, 0.00351677, 221.09, -73.7017, 0, 0.000974196, 0.00119779, 0.000800936, 75.331, -25.0662, 0, 0.000973427, 0.000657039, 0.000446626, 41.1304, -13.421, 0, 0.000973243, -0.225929, 14.1924, 61.2321, -0.639992, 9.63072, 31.2723, -0.00039836, -0.000128235, 0.000933222, -0.000223525, -0.000223525, -0.000223525
8368, 1,0.00065738, 0.000257525, 0.000172908, 41.3817, 16.2433, 0.00323558, 203.319, -67.6754, 0, 0.000941362, 0.000913071, 0.000609452, 57.4538, -19.1408, 0, 0.000940621, 0.00040405, 0.000273392, 25.5292, -8.41349, 0, 0.000940457, -0.07401, 10.3771, 47.1194, -0.299435, 6.50742, 19.0325, -0.000302376, -0.000113538, 0.0007264, -0.000138033, -0.000138033, -0.000138033
8369, 1,0.0015507, 0.000356173, 0.000237584, 97.2704, 22.5061, 0.00446478, 280.611, -93.477, 0, 0.00104111, 0.00190611, 0.00127077, 119.688, -39.8225, 0, 0.00104021, 0.00119574, 0.000800114, 74.9059, -24.8498, 0, 0.00103995, -0.18141, 20.4132, 99.2358, -0.293503, 14.7093, 60.1335, -0.000630355, -0.000234601, 0.001511, -0.00039699, -0.00039699, -0.00039699
8370, 1,0.0012974, 0.000333773, 0.000223926, 81.4728, 21.1003, 0.00417493, 262.505, -87.5473, 0, 0.00100824, 0.00162818, 0.00108756, 102.365, -34.0662, 0, 0.00100736, 0.000968695, 0.000652915, 60.7246, -20.008, 0, 0.00100713, -0.299732, 19.1605, 83.3378, -0.648837, 13.6616, 47.0112, -0.000541595, -0.000169394, 0.00126364, -0.000327478, -0.000327478, -0.000327478
8371, 1,0.00103387, 0.000310831, 0.000208879, 64.9526, 19.6447, 0.00387373, 243.56, -81.2231, 0, 0.000975364, 0.00134067, 0.000895616, 84.3391, -28.0985, 0, 0.000974524, 0.000730496, 0.000494648, 45.7861, -15.0262, 0, 0.000974317, -0.194692, 15.7859, 68.7043, -0.597767, 10.5848, 35.0917, -0.000445469, -0.000145168, 0.00104646, -0.000247946, -0.000247946, -0.000247946
8372, 1,0.000762043, 0.000287944, 0.000192983, 47.9767, 18.1666, 0.00356049, 223.779, -74.5311, 0, 0.000942507, 0.00104845, 0.000699316, 65.9854, -22.0031, 0, 0.000941704, 0.000477522, 0.000321825, 30.1598, -9.98657, 0, 0.00094152, -0.0590716, 11.9154, 54.1528, -0.273393, 7.48721, 22.7459, -0.000347158, -0.000128612, 0.000832692, -0.000162296, -0.000162296, -0.000162296
8373, 1,0.00166661, 0.000395509, 0.000263671, 104.569, 24.9929, 0.00487502, 306.443, -102.132, 0, 0.00104226, 0.00206145, 0.00137365, 129.476, -43.1169, 0, 0.00104126, 0.00127218, 0.000850618, 79.7153, -26.4774, 0, 0.00104098, -0.161605, 21.9714, 107.541, -0.268082, 15.5243, 64.1759, -0.000681833, -0.000256766, 0.00163809, -0.000422118, -0.000422118, -0.000422118
8374, 1,0.00141026, 0.00037055, 0.000248231, 88.5899, 23.4246, 0.00456056, 286.779, -95.6716, 0, 0.00100936, 0.00177821, 0.00118697, 111.824, -37.2525, 0, 0.00100841, 0.00104416, 0.00070254, 65.4926, -21.6378, 0, 0.00100815, -0.265213, 20.67, 91.3526, -0.606177, 14.498, 51.0217, -0.00059106, -0.00019062, 0.00138602, -0.000352277, -0.000352277, -0.000352277
8375, 1,0.00114291, 0.000344607, 0.000231173, 71.8309, 21.7797, 0.00423083, 266.039, -88.7469, 0, 0.000976477, 0.0014841, 0.000990721, 93.3801, -31.1407, 0, 0.000975565, 0.000804646, 0.000543276, 50.4798, -16.6376, 0, 0.000975335, -0.163963, 17.2763, 76.3099, -0.555749, 11.4747, 38.9937, -0.000492748, -0.00016423, 0.00116216, -0.000272472, -0.000272472, -0.000272472
8376, 1,0.000867022, 0.000318437, 0.000213115, 54.5889, 20.0938, 0.0038854, 244.239, -81.3878, 0, 0.000943601, 0.00118413, 0.000789448, 74.5345, -24.8714, 0, 0.000942736, 0.000551462, 0.000370684, 34.8159, -11.5633, 0, 0.000942532, -0.0451449, 13.3582, 61.3012, -0.248273, 8.40684, 26.5314, -0.000392058, -0.000145611, 0.000941128, -0.000186638, -0.000186638, -0.000186638
8377, 1,0.00178292, 0.000434963, 0.00028986, 111.894, 27.486, 0.00528483, 332.25, -110.781, 0, 0.00104347, 0.00221729, 0.00147692, 139.297, -46.4212, 0, 0.00104238, 0.00134893, 0.00090134, 84.5465, -28.1109, 0, 0.00104207, -0.144052, 23.4037, 116.004, -0.244833, 16.2618, 68.3157, -0.000733515, -0.000281484, 0.0017681, -0.000447385, -0.000447385, -0.000447385
8378, 1,0.00152366, 0.000407448, 0.00027262, 95.742, 25.7558, 0.00494615, 311.049, -103.794, 0, 0.00101054, 0.00192886, 0.00128683, 121.322, -40.4527, 0, 0.00100951, 0.00112012, 0.000752559, 70.292, -23.2764, 0, 0.00100923, -0.229543, 22.0623, 99.5254, -0.562791, 15.2619, 55.1301, -0.000640721, -0.0002143, 0.00151129, -0.000377201, -0.000377201, -0.000377201
8379, 1,0.0012525, 0.000378506, 0.000253554, 78.7422, 23.9215, 0.00458834, 288.543, -96.279, 0, 0.000977646, 0.0016281, 0.00108626, 102.456, -34.1936, 0, 0.000976662, 0.000879426, 0.000592435, 55.2085, -18.2549, 0, 0.000976409, -0.135062, 18.6554, 84.0604, -0.515611, 12.295, 42.9855, -0.000540233, -0.00018559, 0.00128053, -0.000297134, -0.000297134, -0.000297134
8380, 1,0.000972304, 0.000349001, 0.000233299, 61.2184, 22.0246, 0.00421071, 264.72, -88.2481, 0, 0.000944756, 0.00132014, 0.000879854, 83.1022, -27.746, 0, 0.000943829, 0.000625777, 0.000419865, 39.4931, -13.1441, 0, 0.000943605, -0.0322476, 14.696, 68.5743, -0.223605, 9.26046, 30.3956, -0.000437079, -0.000164723, 0.0010519, -0.000211054, -0.000211054, -0.000211054
8381, 1,0.0018996, 0.000474532, 0.000316146, 119.248, 29.9853, 0.00569364, 357.989, -119.401, 0, 0.0010446, 0.0023736, 0.00158057, 149.151, -49.7403, 0, 0.00104342, 0.00142596, 0.000952233, 89.4004, -29.755, 0, 0.00104308, -0.122916, 24.7063, 124.638, -0.217868, 16.9217, 72.5611, -0.000785352, -0.000308889, 0.0019012, -0.000472738, -0.000472738, -0.000472738
8382, 1,0.00163767, 0.000444474, 0.000297101, 102.929, 28.094, 0.00533163, 335.31, -111.91, 0, 0.00101167, 0.00208018, 0.00138719, 130.859, -43.6627, 0, 0.00101055, 0.00119664, 0.000803001, 75.1216, -24.9198, 0, 0.00101024, -0.200024, 23.3232, 107.865, -0.525585, 15.9438, 59.3412, -0.000690664, -0.000240651, 0.00163966, -0.000402331, -0.000402331, -0.000402331
8383, 1,0.00136266, 0.000412523, 0.000276018, 85.688, 26.0698, 0.00494677, 311.095, -103.817, 0, 0.000978754, 0.00177269, 0.00118222, 111.569, -37.259, 0, 0.000977697, 0.000954791, 0.000642058, 59.9716, -19.8807, 0, 0.000977422, -0.106236, 19.9155, 91.9676, -0.475163, 13.0418, 47.0754, -0.00058792, -0.000209422, 0.00140179, -0.000321924, -0.000321924, -0.000321924
8384, 1,0.00107787, 0.000379633, 0.000253532, 67.8643, 23.9589, 0.00453724, 285.277, -95.1316, 0, 0.000945848, 0.00145647, 0.00097053, 91.6881, -30.6261, 0, 0.000944859, 0.00070041, 0.00046932, 44.1881, -14.7279, 0, 0.000944615, -0.023446, 15.9216, 75.98, -0.202574, 10.0428, 34.3434, -0.000482272, -0.000186071, 0.00116517, -0.000235595, -0.000235595, -0.000235595
8385, 1,0.00201678, 0.000514211, 0.000342527, 126.624, 32.4904, 0.00609969, 383.573, -127.988, 0, 0.0010458, 0.0025305, 0.00168477, 159.033, -53.0563, 0, 0.00104453, 0.00150339, 0.00100344, 94.2703, -31.392, 0, 0.00104417, -0.122984, 25.8524, 133.44, -0.212052, 17.4816, 76.9065, -0.000837587, -0.000339246, 0.00203759, -0.000498426, -0.000498426, -0.000498426
8386, 1,0.00175224, 0.000481614, 0.00032166, 110.157, 30.4388, 0.00571671, 359.523, -119.987, 0, 0.00101287, 0.00223214, 0.00148798, 140.442, -46.8939, 0, 0.00101167, 0.00127365, 0.000853784, 79.9877, -26.5793, 0, 0.00101133, -0.162149, 24.4559, 116.388, -0.480192, 16.549, 63.6689, -0.000740764, -0.000269768, 0.0017713, -0.00042754, -0.00042754, -0.00042754
8387, 1,0.00147342, 0.000446654, 0.00029856, 92.6674, 28.2246, 0.00530711, 333.763, -111.391, 0, 0.000979914, 0.00191793, 0.00127868, 120.719, -40.3329, 0, 0.000978785, 0.00103077, 0.000692175, 64.7671, -21.5099, 0, 0.000978486, -0.0875019, 21.0465, 100.04, -0.445018, 13.7067, 51.268, -0.000635952, -0.000235868, 0.00152614, -0.000346986, -0.000346986, -0.000346986
8388, 1,0.0011837, 0.000410338, 0.000273814, 74.5288, 25.8972, 0.00486718, 306.037, -102.074, 0, 0.00094699, 0.0015931, 0.00106144, 100.296, -33.5165, 0, 0.000945937, 0.000775291, 0.000518965, 48.9009, -16.3186, 0, 0.000945674, -0.0110968, 17.031, 83.5295, -0.177801, 10.7518, 38.382, -0.000527553, -0.00020981, 0.00128108, -0.000260166, -0.000260166, -0.000260166
8389, 1,0.00213378, 0.000553983, 0.000368988, 134.029, 35.0006, 0.00650018, 408.723, -136.344, 0, 0.00104693, 0.00268731, 0.00178888, 168.95, -56.426, 0, 0.00104558, 0.00158056, 0.00105439, 99.1649, -33.0782, 0, 0.00104518, -0.0628547, 26.8986, 142.442, -0.146249, 17.9978, 81.3829, -0.000889388, -0.000372245, 0.00217706, -0.000523615, -0.000523615, -0.000523615
8390, 1,0.00186777, 0.000518877, 0.000346309, 117.419, 32.7906, 0.00610026, 383.656, -128.053, 0, 0.00101398, 0.00238514, 0.00158964, 150.066, -50.1135, 0, 0.0010127, 0.00135155, 0.000905307, 84.8834, -28.2215, 0, 0.00101234, -0.175164, 25.4247, 125.091, -0.486515, 17.0457, 68.1054, -0.000791749, -0.000301872, 0.00190663, -0.000453568, -0.000453568, -0.000453568
8391, 1,0.0015848, 0.000480908, 0.000321181, 99.6993, 30.3862, 0.00567198, 356.654, -118.976, 0, 0.000981016, 0.00206387, 0.00137558, 129.927, -43.4393, 0, 0.000979814, 0.00110732, 0.000742639, 69.6113, -23.167, 0, 0.000979492, -0.0425432, 22.0536, 108.307, -0.387231, 14.2984, 55.5897, -0.000683936, -0.00026519, 0.00165385, -0.000371898, -0.000371898, -0.000371898
8392, 1,0.00128964, 0.000441111, 0.000294148, 81.2011, 27.8391, 0.00520469, 327.263, -109.16, 0, 0.000948076, 0.0017299, 0.00115247, 108.914, -36.4099, 0, 0.000946958, 0.000850277, 0.000568691, 53.6204, -17.9097, 0, 0.000946674, 0.00142022, 18.0109, 91.2173, -0.152542, 11.3771, 42.5047, -0.000572875, -0.000236105, 0.00139965, -0.000284733, -0.000284733, -0.000284733
8393, 1,0.00225284, 0.000593878, 0.000395541, 141.389, 37.5171, 0.00687683, 432.673, -144.599, 0, 0.00104813, 0.00284629, 0.00189549, 178.826, -59.606, 0, 0.00104669, 0.0016597, 0.00110707, 104.009, -34.5698, 0, 0.00104626, -0.294931, 27.602, 151.511, -0.377248, 18.2389, 85.8478, -0.000944377, -0.000409112, 0.00232052, -0.000552011, -0.000552011, -0.000552011
8394, 1,0.00198458, 0.000556295, 0.000371045, 124.826, 35.1508, 0.00648161, 407.426, -135.769, 0, 0.00101516, 0.00253959, 0.00169191, 159.844, -53.4499, 0, 0.00101381, 0.00143058, 0.000957235, 89.9138, -29.9751, 0, 0.00101342, -0.0551491, 26.2979, 134.107, -0.355081, 17.5044, 72.7761, -0.000841742, -0.000337552, 0.00204644, -0.000478417, -0.000478417, -0.000478417
8395, 1,0.00169598, 0.000515264, 0.000343877, 106.718, 32.5539, 0.00604731, 380.142, -126.699, 0, 0.000982193, 0.00220966, 0.00147229, 139.125, -46.5426, 0, 0.000980916, 0.00118368, 0.000792932, 74.4408, -24.8156, 0, 0.00098057, 0.00984093, 22.9075, 116.711, -0.32348, 14.7881, 59.9822, -0.000731708, -0.000297462, 0.00178424, -0.000396546, -0.000396546, -0.000396546
8396, 1,0.00139597, 0.000471949, 0.00031453, 87.8992, 29.7849, 0.0055564, 349.344, -116.494, 0, 0.000949227, 0.00186713, 0.00124387, 117.561, -39.3137, 0, 0.000948039, 0.000925613, 0.000618723, 58.3633, -19.5076, 0, 0.000947734, 0.00830139, 18.8657, 99.067, -0.133106, 11.924, 46.7318, -0.000618477, -0.000264987, 0.00152125, -0.000309526, -0.000309526, -0.000309526
8397, 1,0.00236282, 0.000633867, 0.000422166, 148.841, 40.0382, 0.00721404, 452.602, -149.943, 0, 0.0010492, 0.00299628, 0.0019918, 188.802, -63.5128, 0, 0.00104773, 0.00172965, 0.00115187, 108.939, -36.7846, 0, 0.00104728, 0.727515, 28.8463, 160.965, 0.654725, 19.0661, 90.6329, -0.000984254, -0.000445832, 0.00246051, -0.000565061, -0.000565061, -0.000565061
8398, 1,0.00210322, 0.000593785, 0.00039585, 132.271, 37.5159, 0.00685556, 430.739, -143.336, 0, 0.00101625, 0.00269589, 0.00179517, 169.663, -56.7346, 0, 0.00101482, 0.00151141, 0.00101006, 94.9779, -31.6704, 0, 0.00101441, -0.0397884, 26.9027, 143.341, -0.33428, 17.754, 77.5915, -0.000893116, -0.00037782, 0.00219138, -0.000504671, -0.000504671, -0.000504671
8399, 1,0.00180775, 0.000549741, 0.000366659, 113.763, 34.7287, 0.00643934, 404.458, -134.471, 0, 0.000983296, 0.00235611, 0.00156967, 148.354, -49.6437, 0, 0.000981943, 0.00126061, 0.000843851, 79.2937, -26.4565, 0, 0.000981574, 0.0383775, 23.6174, 125.275, -0.284824, 15.1895, 64.4648, -0.00077994, -0.000332525, 0.00191786, -0.000421594, -0.000421594, -0.000421594
8400, 1,0.00150282, 0.000502864, 0.000334976, 94.6331, 31.735, 0.00593087, 372.831, -124.273, 0, 0.000950342, 0.00200495, 0.00133565, 126.249, -42.2315, 0, 0.000949078, 0.00100142, 0.000669027, 63.1383, -21.116, 0, 0.000948753, 0.015724, 19.5841, 107.095, -0.112706, 12.3837, 51.0772, -0.00066429, -0.000296776, 0.0016462, -0.000334469, -0.000334469, -0.000334469
8401, 1,0.00250018, 0.000674031, 0.00044896, 157.346, 42.5725, 0.00787599, 462.052, -153.556, 0.0103575, 0.00105034, 0.00317383, 0.00211277, 199.841, -67.1376, 0, 0.00104885, 0.00182682, 0.00121697, 114.909, -38.7107, 0, 0.00104837, 0.262782, 29.6166, 171.533, 0.207363, 19.5148, 96.41, -0.00105116, -0.000489589, 0.00262998, -0.000604876, -0.000604876, -0.000604876
8402, 1,0.00219736, 0.000631501, 0.000420802, 138.456, 39.8929, 0.00723855, 452.635, -148.406, 0, 0.0010174, 0.00282778, 0.00188259, 178.224, -59.8963, 0, 0.00101594, 0.00156781, 0.00104751, 98.7892, -33.2378, 0, 0.0010155, 0.582226, 27.6506, 151.456, 0.292378, 18.1864, 81.2346, -0.000929725, -0.000413375, 0.00231484, -0.000516105, -0.000516105, -0.000516105
8403, 1,0.00192707, 0.000584269, 0.000389494, 121.235, 36.9068, 0.00683217, 429.037, -142.544, 0, 0.000984461, 0.00251018, 0.00167213, 158.017, -52.8598, 0, 0.000983029, 0.00134498, 0.000899375, 84.5639, -28.2075, 0, 0.000982636, -0.0663215, 24.172, 134.474, -0.37982, 15.4951, 69.5073, -0.000832802, -0.000372439, 0.00206282, -0.000451207, -0.000451207, -0.000451207
8404, 1,0.00160892, 0.000533845, 0.000355483, 101.339, 33.6892, 0.00633572, 398.099, -132.517, 0, 0.000951481, 0.00214208, 0.00142695, 134.911, -45.1567, 0, 0.000950133, 0.00107645, 0.000718872, 67.8832, -22.7283, 0, 0.000949788, 0.0554974, 20.1807, 115.234, -0.0601105, 12.7708, 55.4744, -0.000709535, -0.000331083, 0.00177321, -0.000358793, -0.000358793, -0.000358793
8405, 1,0.00262801, 0.000713833, 0.000475588, 164.789, 45.0953, 0.00890162, 465.011, -156.129, 0.0303379, 0.00105141, 0.00334157, 0.0022293, 209.816, -69.9647, 0, 0.00104989, 0.00191467, 0.00127912, 119.813, -39.8337, 0, 0.00104938, -0.695423, 29.0601, 181.529, -0.744639, 18.6787, 101.567, -0.00111593, -0.000550333, 0.00280138, -0.000642725, -0.000642725, -0.000642725
8406, 1,0.00233646, 0.000669594, 0.000446008, 146.992, 42.2936, 0.00801395, 461.938, -152.981, 0.0129851, 0.00101847, 0.00300502, 0.00200132, 189.156, -63.4028, 7.18085E-07, 0.00101697, 0.00166875, 0.00111509, 104.933, -35.1432, 7.18085E-07, 0.0010165, 0.176138, 28.4196, 161.613, -0.101908, 18.7729, 86.7586, -0.00099357, -0.000455884, 0.0024781, -0.000554525, -0.000554525, -0.000554525
8407, 1,0.00201795, 0.00061898, 0.000412431, 127.279, 39.0953, 0.00725455, 453.348, -148.362, 0, 0.000985536, 0.00263591, 0.00175489, 166.255, -55.9926, 0, 0.00098406, 0.0014009, 0.000936041, 88.409, -29.8701, 0, 0.000983643, 0.605947, 24.8591, 142.513, 0.307876, 15.9564, 73.346, -0.00086795, -0.000408664, 0.00218503, -0.000462908, -0.000462908, -0.000462908
8408, 1,0.00172277, 0.000564885, 0.000376061, 108.362, 35.6466, 0.00674922, 424.156, -141.269, 0, 0.000952603, 0.00228703, 0.00152485, 143.897, -48.0297, 0, 0.000951163, 0.00115914, 0.000774751, 72.9383, -24.285, 0, 0.000950796, -0.237715, 20.4952, 123.832, -0.340127, 12.9335, 60.2617, -0.000761017, -0.000370303, 0.00191053, -0.000389292, -0.000389292, -0.000389292
8409, 1,0.00273748, 0.000753895, 0.000502356, 171.789, 47.6324, 0.00993739, 466.476, -156.875, 0.0505302, 0.00105249, 0.00349115, 0.00232818, 219.357, -73.3029, 1.35525E-20, 0.00105099, 0.00198397, 0.0013242, 124.27, -41.4636, 1.35525E-20, 0.00105044, -0.46446, 29.2297, 191.143, -0.51003, 18.6302, 106.271, -0.00116362, -0.000603576, 0.00295647, -0.000663468, -0.000663468, -0.000663468
8410, 1,0.002469, 0.000707038, 0.000470827, 154.79, 44.6699, 0.00912653, 465.117, -155.912, 0.0347071, 0.00101958, 0.00317536, 0.00211474, 199.353, -66.3993, 0, 0.00101805, 0.00176319, 0.00117833, 110.315, -36.5309, 0, 0.00101756, -0.327309, 27.5438, 171.981, -0.595055, 17.7272, 92.4606, -0.00105145, -0.000526503, 0.00265522, -0.000586897, -0.000586897, -0.000586897
8411, 1,0.00215199, 0.000654114, 0.000435668, 135.531, 41.3102, 0.00812479, 463.083, -154.596, 0.0152122, 0.000986714, 0.00280512, 0.00187006, 176.716, -59.3738, 3.93889E-08, 0.000985169, 0.00149974, 0.00100371, 94.4569, -31.7741, 3.93889E-08, 0.000984728, 0.14873, 25.6797, 152.293, -0.134318, 16.6854, 78.7712, -0.00093098, -0.000448124, 0.00234238, -0.000502399, -0.000502399, -0.000502399
8412, 1,0.00181024, 0.000596005, 0.000396714, 114.373, 37.6085, 0.00719495, 450.064, -147.756, 0, 0.000953755, 0.00240567, 0.00159929, 151.873, -51.2572, 0, 0.000952263, 0.00121537, 0.000808854, 76.9811, -26.1943, 0, 0.000951876, 0.914663, 21.1408, 131.716, 0.833072, 13.4482, 64.3015, -0.000787546, -0.00040861, 0.00202774, -0.000394649, -0.000394649, -0.000394649
8413, 1,0.00285409, 0.000794262, 0.000529293, 179.237, 50.1852, 0.0110331, 468.189, -158.247, 0.0719628, 0.00105353, 0.00364815, 0.00243111, 229.357, -76.7633, 0, 0.00105202, 0.00206018, 0.00137361, 129.168, -43.2091, 0, 0.00105145, -0.228297, 29.3809, 201.137, -0.270378, 18.6587, 111.239, -0.00121315, -0.000658549, 0.00311713, -0.000685977, -0.000685977, -0.000685977
8414, 1,0.00258243, 0.000744684, 0.00049586, 162.088, 47.0587, 0.0102373, 466.883, -157.156, 0.0564058, 0.0010206, 0.00332667, 0.00221266, 209.054, -69.8899, 8.80632E-07, 0.00101908, 0.00183854, 0.00122551, 115.197, -38.4045, 8.80632E-07, 0.00101856, 0.0654567, 27.5344, 182.07, -0.200543, 17.589, 97.8251, -0.00109823, -0.000586217, 0.00281835, -0.000608227, -0.000608227, -0.000608227
8415, 1,0.00227647, 0.000688724, 0.000458625, 142.911, 43.5059, 0.00926164, 466.03, -157.205, 0.0374077, 0.000987731, 0.00296455, 0.00197697, 186.313, -62.2604, 0, 0.000986156, 0.00158895, 0.00106386, 99.6003, -33.1753, 0, 0.000985691, -0.272324, 24.9324, 162.121, -0.536516, 15.8533, 84.209, -0.000985521, -0.000513941, 0.00250958, -0.000533192, -0.000533192, -0.000533192
8416, 1,0.00193302, 0.000627489, 0.00041764, 121.562, 39.5944, 0.00816507, 463.302, -154.853, 0.0159932, 0.000954848, 0.00255985, 0.00170604, 161.035, -53.8439, 1.95383E-07, 0.000953263, 0.00130682, 0.000872885, 82.205, -27.4558, 1.95383E-07, 0.000952855, -0.0408722, 21.19, 140.383, -0.100856, 13.4799, 68.9885, -0.000848655, -0.000451845, 0.00217406, -0.000434472, -0.000434472, -0.000434472
8417, 1,0.00297228, 0.000834776, 0.000556407, 186.632, 52.7465, 0.0122628, 469.331, -158.695, 0.0959337, 0.00105461, 0.00380686, 0.00253917, 239.315, -80.0705, 0, 0.00105311, 0.00213787, 0.00142798, 134, -44.792, 0, 0.00105251, -0.489921, 29.2207, 211.481, -0.515994, 18.4329, 116.459, -0.00127083, -0.000716854, 0.00328678, -0.00071622, -0.00071622, -0.00071622
8418, 1,0.00269517, 0.000782784, 0.000521171, 169.199, 49.4713, 0.0113628, 468.296, -158.073, 0.0784019, 0.0010217, 0.00347757, 0.00231243, 218.579, -73.1229, 0, 0.00102017, 0.00191308, 0.00127499, 119.895, -40.0095, 0, 0.00101963, 0.180367, 27.4115, 191.777, -0.0947387, 17.4313, 102.692, -0.00114685, -0.000643273, 0.00297649, -0.00063146, -0.00063146, -0.00063146
8419, 1,0.00239129, 0.000723707, 0.000481882, 150.26, 45.7223, 0.0103978, 468.032, -158.829, 0.0596223, 0.000988832, 0.00311462, 0.00207486, 195.895, -65.6852, 0, 0.000987251, 0.00166828, 0.001115, 104.702, -35.1048, 0, 0.000986761, 0.215517, 24.7484, 172.092, -0.02182, 15.6362, 89.7001, -0.00102937, -0.000575838, 0.0026709, -0.000552971, -0.000552971, -0.000552971
8420, 1,0.00205043, 0.000658377, 0.000438305, 128.364, 41.5559, 0.00935414, 465.588, -156.311, 0.0391389, 0.000955928, 0.00270833, 0.00181055, 169.811, -56.2849, 0, 0.000954324, 0.00139297, 0.000935082, 87.0203, -28.566, 0, 0.000953895, -1.15491, 20.6098, 149.4, -1.20976, 12.8925, 74.0152, -0.000910808, -0.000506452, 0.00233043, -0.000475609, -0.000475609, -0.000475609
8421, 1,0.0031018, 0.00087551, 0.000583597, 194.542, 55.321, 0.0135793, 470.693, -159.581, 0.121587, 0.00105558, 0.00397711, 0.00265498, 249.8, -83.3466, 0, 0.00105408, 0.00222664, 0.00148921, 139.335, -46.331, 0, 0.00105344, -0.951472, 28.6614, 222.33, -0.980976, 17.908, 122.066, -0.00133218, -0.000782573, 0.00346701, -0.000750351, -0.000750351, -0.000750351
8422, 1,0.00280844, 0.00082122, 0.000546749, 176.635, 51.9024, 0.0125901, 468.922, -157.687, 0.102259, 0.00102266, 0.00362943, 0.00241284, 228.457, -76.7987, 0, 0.00102116, 0.00198763, 0.00132253, 124.88, -42.0426, 0, 0.00102058, 0.609746, 27.4914, 202.295, 0.347894, 17.5246, 108.255, -0.00119582, -0.000702047, 0.00314388, -0.000654339, -0.000654339, -0.000654339
8423, 1,0.00249451, 0.000758763, 0.00050523, 156.865, 47.9443, 0.0115461, 468.037, -157.366, 0.0818917, 0.000989803, 0.00325298, 0.00217008, 204.728, -68.8186, 0, 0.000988261, 0.0017363, 0.00116332, 109.074, -36.731, 0, 0.000987746, 0.224648, 24.8158, 181.415, -0.0152872, 15.7277, 94.4808, -0.00107883, -0.000626732, 0.00282209, -0.000578803, -0.000578803, -0.000578803
8424, 1,0.00216129, 0.000689596, 0.000459226, 135.766, 43.5332, 0.010475, 466.624, -156.373, 0.0609542, 0.000956914, 0.00285054, 0.00190345, 179.2, -59.9001, 0, 0.000955332, 0.00147235, 0.000985831, 92.4263, -30.845, 0, 0.000954881, -0.507483, 20.996, 159.212, -0.538913, 13.3199, 79.7541, -0.00095423, -0.000557777, 0.00248384, -0.000497543, -0.000497543, -0.000497543
8425, 1,0.00321377, 0.000916208, 0.000610843, 202.273, 57.8951, 0.0148896, 471.319, -159.338, 0.14698, 0.00105664, 0.00412979, 0.00275156, 260.113, -87.5148, 0, 0.00105516, 0.00229791, 0.00153104, 144.477, -48.7536, 0, 0.0010545, 0.255745, 28.6028, 233.686, 0.231038, 17.9209, 128.109, -0.00137229, -0.000850364, 0.00364255, -0.000762957, -0.000762957, -0.000762957
8426, 1,0.00294248, 0.000859894, 0.000572449, 184.688, 54.3503, 0.0140838, 469.282, -156.713, 0.131204, 0.00102371, 0.0038022, 0.00253034, 238.96, -80.0132, 0, 0.00102223, 0.0020829, 0.00138656, 130.479, -43.5989, 0, 0.00102162, 0.105003, 26.6489, 213.286, -0.169064, 16.8089, 114.157, -0.0012572, -0.000773554, 0.00332893, -0.000689948, -0.000689948, -0.000689948
8427, 1,0.00261851, 0.00079444, 0.000528954, 164.6, 50.2012, 0.0131223, 468.532, -156.425, 0.112495, 0.000990823, 0.00341276, 0.0022758, 214.723, -72.1782, 0, 0.000989301, 0.00182444, 0.00122184, 114.548, -38.5702, 0, 0.000988762, 0.499692, 24.2796, 191.755, 0.276565, 15.3214, 100.113, -0.0011263, -0.000694738, 0.00299209, -0.000602032, -0.000602032, -0.000602032
8428, 1,0.00226303, 0.000720564, 0.000479998, 142.16, 45.5029, 0.0119279, 467.413, -155.881, 0.0892086, 0.000957939, 0.00298341, 0.00198985, 187.577, -62.7357, 0, 0.000956366, 0.00154283, 0.00103146, 96.824, -32.3389, 0, 0.000955894, -0.206422, 20.148, 168.266, -0.229729, 12.5664, 84.6801, -0.000992846, -0.000623541, 0.00263423, -0.000514915, -0.000514915, -0.000514915
8429, 1,0.00337822, 0.000957134, 0.000638333, 211.537, 60.4944, 0.0177057, 472.677, -159.147, 0.201384, 0.00105765, 0.00433506, 0.00289668, 271.979, -90.4078, 0, 0.00105612, 0.00242161, 0.00162158, 151.136, -49.8862, 0, 0.00105543, -1.61287, 26.3467, 246.49, -1.61901, 15.8709, 135.407, -0.00145735, -0.000948102, 0.00387229, -0.000820052, -0.000820052, -0.000820052
8430, 1,0.00305475, 0.000898471, 0.000598264, 192.297, 56.7984, 0.0161513, 469.266, -154.754, 0.171097, 0.00102467, 0.00395319, 0.00262871, 249.039, -84.1651, 0, 0.00102323, 0.00215633, 0.00143233, 135.602, -46.0836, 0, 0.0010226, 1.20693, 26.4655, 224.823, 0.946742, 16.7625, 120.541, -0.00129954, -0.000847274, 0.00351237, -0.000705854, -0.000705854, -0.000705854
8431, 1,0.00271723, 0.000829863, 0.000552715, 171.011, 52.4498, 0.0152442, 469.353, -155.744, 0.153627, 0.000991808, 0.00354704, 0.00236829, 223.399, -75.4731, 0, 0.000990283, 0.00188746, 0.00126614, 118.679, -40.338, 0, 0.000989718, 0.586123, 24.2117, 201.621, 0.388511, 15.3882, 105.237, -0.00117688, -0.00075301, 0.0031544, -0.000628082, -0.000628082, -0.000628082
8432, 1,0.00238639, 0.000751635, 0.000500778, 149.977, 47.4827, 0.0143259, 469.226, -156.381, 0.135839, 0.000958961, 0.00313792, 0.00209535, 197.376, -66.0283, 0, 0.000957357, 0.00163495, 0.00109472, 102.655, -34.2864, 0, 0.000956864, -0.474474, 19.9972, 178.562, -0.502941, 12.6009, 90.7611, -0.00105072, -0.00068282, 0.00280481, -0.000551794, -0.000551794, -0.000551794
8433, 1,0.00349372, 0.000997724, 0.000665739, 219.899, 63.1093, 0.0243222, 476.773, -160.954, 0.327842, 0.00105896, 0.0044908, 0.00298919, 282.959, -95.3587, 0, 0.00105721, 0.00249713, 0.00166019, 156.877, -53.0645, 0, 0.00105648, 0.871266, 26.1783, 259.026, 0.894042, 15.9353, 142.364, -0.00148223, -0.00104716, 0.00407658, -0.000816739, -0.000816739, -0.000816739
8434, 1,0.00321994, 0.000936613, 0.00062384, 202.117, 59.2535, 0.0213269, 473.385, -157.513, 0.270741, 0.00102592, 0.00415649, 0.002764, 261.326, -88.1342, 0, 0.0010243, 0.00228346, 0.00151697, 142.945, -48.3665, 0, 0.00102364, 0.935943, 25.1689, 238.298, 0.642719, 15.7405, 128.716, -0.00136794, -0.000953509, 0.00375142, -0.000748597, -0.000748597, -0.000748597
8435, 1,0.00288055, 0.000865795, 0.000576825, 180.93, 54.739, 0.0195639, 472.592, -157.495, 0.23698, 0.000993022, 0.00374635, 0.00250583, 235.605, -79.4819, 0, 0.000991379, 0.00201476, 0.00135585, 126.31, -42.8095, 0, 0.00099079, 0.368148, 23.7262, 214.351, 0.215073, 15.2005, 113.013, -0.0012455, -0.000838768, 0.00337384, -0.000671665, -0.000671665, -0.000671665
8436, 1,0.00250775, 0.000782599, 0.00052166, 157.069, 49.4644, 0.0183489, 472.395, -158.151, 0.213682, 0.0009601, 0.00329031, 0.00220189, 206.457, -68.4918, 0, 0.000958371, 0.00172524, 0.0011605, 107.75, -35.4048, 0, 0.000957857, -1.34277, 18.3607, 188.457, -1.34338, 11.1994, 96.3583, -0.00110835, -0.000763154, 0.00298275, -0.000587756, -0.000587756, -0.000587756
8437, 1,0.00366378, 0.00103863, 0.000693449, 229.455, 65.775, 0.0362009, 482.119, -161.908, 0.547539, 0.00106058, 0.00470117, 0.00313701, 295.173, -98.5946, 0, 0.00105826, 0.00262736, 0.00175288, 163.783, -54.4972, 0, 0.00105751, -0.929279, 24.4608, 272.252, -0.882355, 14.6074, 149.766, -0.00157022, -0.00116432, 0.00433423, -0.000876366, -0.000876366, -0.000876366
8438, 1,0.0033357, 0.000975106, 0.000649867, 208.836, 61.7601, 0.0316228, 481.723, -164.494, 0.464664, 0.00102751, 0.00431033, 0.00287255, 270.562, -91.4752, 0, 0.00102534, 0.00236147, 0.00157384, 147.14, -50.0004, 0, 0.00102465, 0.732554, 24.527, 249.166, 0.450638, 15.406, 134.145, -0.00142481, -0.00105219, 0.00396117, -0.000778723, -0.000778723, -0.000778723
8439, 1,0.00303671, 0.000901194, 0.000600874, 189.746, 57.0367, 0.0282928, 480.827, -165.419, 0.403205, 0.000994452, 0.00393772, 0.00263767, 246.728, -82.8785, 0, 0.000992347, 0.00213584, 0.00144068, 132.81, -44.651, 0, 0.000991732, -0.492556, 22.4095, 226.719, -0.590824, 14.2056, 120.338, -0.00131854, -0.00094776, 0.00361098, -0.00071929, -0.00071929, -0.00071929
8440, 1,0.00261399, 0.000812427, 0.000541941, 163.995, 51.4093, 0.0258986, 478.063, -162.103, 0.357749, 0.000961375, 0.00342616, 0.00229498, 215.352, -71.9062, 0, 0.000959339, 0.00180205, 0.00121278, 112.686, -37.4791, 0, 0.000958803, -1.30308, 18.0787, 198.943, -1.2948, 11.1573, 102.575, -0.00116171, -0.000838829, 0.00316718, -0.000619987, -0.000619987, -0.000619987
8441, 1,0.00378512, 0.00107902, 0.000720872, 235.807, 68.4245, 0.0524965, 491.58, -166.809, 0.827374, 0.00106288, 0.00486197, 0.00325571, 304.169, -100.625, 0, 0.00105927, 0.00270998, 0.00181821, 167.495, -54.721, 0, 0.00105849, -2.93939, 22.2847, 282.528, -2.88887, 12.8931, 154.159, -0.00164403, -0.00127547, 0.0045521, -0.000922193, -0.000922193, -0.000922193
8442, 1,0.00355007, 0.00101517, 0.000677032, 220.683, 64.3744, 0.0477673, 492.671, -172.636, 0.75114, 0.00102981, 0.00456422, 0.00305007, 285.011, -95.4076, 0, 0.00102644, 0.00253673, 0.00169779, 156.393, -52.1757, 0, 0.00102572, -1.09768, 23.0564, 264.264, -1.32649, 14.447, 143.407, -0.00152632, -0.00118447, 0.00425877, -0.000851854, -0.000851854, -0.000851854
8443, 1,0.003125, 0.000937196, 0.000625241, 194.938, 59.3884, 0.041499, 489.819, -172.521, 0.644226, 0.000996376, 0.00406146, 0.00270978, 254.271, -85.818, 0, 0.000993412, 0.00218917, 0.00146824, 135.653, -45.9964, 0, 0.000992771, 0.600081, 21.2503, 235.604, 0.531828, 13.431, 124.026, -0.00134334, -0.0010507, 0.00378642, -0.000718832, -0.000718832, -0.000718832
8444, 1,0.00276071, 0.000842785, 0.0005627, 171.28, 53.3902, 0.0370072, 484.562, -165.703, 0.562659, 0.000962934, 0.0036026, 0.00242022, 224.616, -73.4396, 0, 0.00096031, 0.00191962, 0.00129902, 117.991, -37.6655, 0, 0.000959753, -3.53431, 14.6274, 209.226, -3.46374, 8.07483, 108.385, -0.00123347, -0.000958576, 0.00338357, -0.000669493, -0.000669493, -0.000669493
8445, 1,0.00383701, 0.00112029, 0.000748842, 242.566, 71.0792, 0.0646485, 530.839, -189.636, 1, 0.00106585, 0.00495432, 0.0032986, 313.584, -106.58, 8.67362E-19, 0.00106028, 0.00272213, 0.00181054, 171.598, -58.8425, 8.67362E-19, 0.00105946, 2.20557, 23.8384, 293.695, 2.23882, 14.9958, 159.293, -0.00162929, -0.00133977, 0.00469826, -0.00087876, -0.00087876, -0.00087876
8446, 1,0.0036552, 0.00105688, 0.000705342, 227.381, 67.0782, 0.0619018, 511.94, -192.493, 0.97516, 0.00103274, 0.00471024, 0.00313726, 294.405, -97.9225, 0, 0.00102732, 0.00260162, 0.00174792, 160.401, -52.8379, 0, 0.00102657, -0.658192, 19.2546, 275.171, -0.833109, 11.1781, 148.169, -0.00155707, -0.00131199, 0.00445782, -0.000852658, -0.000852658, -0.000852658
8447, 1,0.00331434, 0.000975162, 0.000650884, 205.934, 61.8565, 0.0559618, 501.411, -181.445, 0.885283, 0.000998654, 0.0042884, 0.00287395, 267.717, -89.371, -8.67362E-19, 0.000994299, 0.0023412, 0.00157855, 144.215, -47.8614, -8.67362E-19, 0.000993629, -1.83153, 20.0529, 249.892, -1.87192, 12.785, 132.671, -0.00145169, -0.00114935, 0.00405106, -0.000800635, -0.000800635, -0.000800635
8448, 1,0.002833, 0.000872832, 0.000583195, 176.884, 55.3489, 0.0484046, 489.769, -166.901, 0.760617, 0.000964539, 0.00370391, 0.00247584, 232.19, -77.755, 0, 0.000961222, 0.0019638, 0.00131372, 121.619, -40.6192, 0, 0.000960643, -0.906798, 15.4869, 218.685, -0.801085, 9.29941, 113.359, -0.00124646, -0.00102463, 0.00353262, -0.000660842, -0.000660842, -0.000660842
8449, 1,0.00390813, 0.00116312, 0.000777922, 247.417, 73.7972, 0.0674114, 593.866, -196.851, 1, 0.00106699, 0.00506801, 0.00336656, 321.159, -109.389, 0, 0.00106119, 0.00275097, 0.00182748, 173.723, -59.7006, 0, 0.00106034, 2.83469, 21.2688, 304.063, 2.85563, 13.0191, 163.227, -0.00165924, -0.00142338, 0.00485736, -0.000878079, -0.000878079, -0.000878079
8450, 1,0.00364882, 0.00110006, 0.000734186, 230.451, 69.8556, 0.0660373, 562.6, -192.413, 1, 0.00103376, 0.00474604, 0.00315097, 300.265, -103.073, 0, 0.0010282, 0.00255403, 0.00170062, 160.675, -55.9497, 0, 0.00102741, 3.33347, 21.7216, 284.163, 2.96023, 14.144, 150.745, -0.00155294, -0.00132484, 0.00455005, -0.000820529, -0.000820529, -0.000820529
8451, 1,0.00344002, 0.0010158, 0.000678213, 214.904, 64.4751, 0.0643478, 522.215, -185.37, 1, 0.00100036, 0.00445434, 0.00298072, 279.301, -93.7297, 0, 0.000995091, 0.00242691, 0.00163053, 150.574, -50.3528, 0, 0.000994391, -1.01182, 18.6851, 263.516, -1.08526, 11.957, 140.187, -0.0015013, -0.00123878, 0.00426078, -0.000821897, -0.000821897, -0.000821897
8452, 1,0.00297586, 0.0009044, 0.000604794, 183.367, 57.387, 0.05848, 495.193, -168.043, 0.921294, 0.000966212, 0.00387808, 0.00261309, 240.689, -78.2057, 0, 0.000962024, 0.00207552, 0.00141002, 126.102, -39.6378, 0, 0.000961422, -5.1805, 11.2231, 228.575, -4.99849, 5.54503, 118.367, -0.00134361, -0.00112436, 0.00373678, -0.000734479, -0.000734479, -0.000734479
8453, 1,0.00407637, 0.00120677, 0.000807306, 258.03, 76.5642, 0.069565, 658.071, -222.818, 1, 0.00106868, 0.00528019, 0.00352359, 334.542, -114.166, 0, 0.00106194, 0.00287503, 0.0019144, 181.563, -62.463, 0, 0.00106105, 1.62186, 20.3461, 320.529, 1.53069, 12.9601, 172.898, -0.00176, -0.00150062, 0.00511284, -0.000949304, -0.000949304, -0.000949304
8454, 1,0.00379452, 0.00114792, 0.000765468, 238.104, 72.9309, 0.0676135, 606.221, -207.234, 1, 0.00103486, 0.00493992, 0.00328841, 310.999, -105.185, 0, 0.00102877, 0.00265126, 0.00178107, 165.241, -55.7677, 0, 0.00102794, 1.80366, 15.9654, 297.786, 1.11975, 9.17096, 157.012, -0.00161728, -0.00146184, 0.00478565, -0.000855145, -0.000855145, -0.000855145
8455, 1,0.00345043, 0.00105916, 0.0007061, 217.653, 67.2759, 0.0661608, 566.682, -194.752, 1, 0.00100124, 0.00450849, 0.00299471, 284.834, -97.0914, 0, 0.000995676, 0.00239335, 0.00159599, 150.558, -51.604, 0, 0.000994942, 2.74048, 17.0337, 271.5, 2.286, 11.002, 141.524, -0.00147212, -0.00130568, 0.00435302, -0.000767485, -0.000767485, -0.000767485
8456, 1,0.00309694, 0.000936725, 0.000626916, 193.202, 59.4595, 0.0639596, 503.828, -172.695, 1, 0.000967538, 0.00402972, 0.00270525, 252.605, -84.6193, 0, 0.000962743, 0.00216753, 0.00145843, 133.849, -44.5344, 0, 0.000962117, -2.02019, 12.0986, 243.78, -1.82821, 6.96808, 128.463, -0.00137547, -0.00119124, 0.00393958, -0.000742368, -0.000742368, -0.000742368
8457, 1,0.00421519, 0.00125082, 0.000836524, 266.389, 79.3984, 0.0713405, 704.627, -235.211, 1, 0.00106985, 0.00546257, 0.00366357, 345.746, -117.684, 0, 0.00106268, 0.00297073, 0.00199746, 187.067, -63.7785, 0, 0.00106175, -0.400523, 17.4421, 336.011, -0.864859, 10.865, 181.335, -0.0018587, -0.0015819, 0.00534994, -0.00102073, -0.00102073, -0.00102073
8458, 1,0.00400615, 0.00119659, 0.00079551, 256.096, 76.1642, 0.0696031, 661.887, -225.69, 1, 0.00103599, 0.00520079, 0.00343646, 332.232, -116.436, 0, 0.00102939, 0.00281317, 0.00185835, 179.984, -64.352, 0, 0.00102852, 8.57472, 18.3526, 322.38, 6.9033, 12.3543, 173.798, -0.00164961, -0.00155015, 0.00508884, -0.000866063, -0.000866063, -0.000866063
8459, 1,0.00357253, 0.00110393, 0.000733076, 227.627, 70.2923, 0.0674649, 604.081, -207.923, 1, 0.00100218, 0.00467513, 0.00310993, 297.864, -103.676, 1.73472E-18, 0.000996234, 0.00247111, 0.00165641, 157.439, -55.6203, 1.73472E-18, 0.000995458, 7.40677, 15.1351, 288.485, 5.93051, 9.70782, 151.223, -0.00147419, -0.00141524, 0.00457149, -0.000750528, -0.000750528, -0.000750528
8460, 1,0.00320277, 0.000972859, 0.000650317, 202.364, 61.7975, 0.0651958, 537.186, -182.582, 1, 0.000968608, 0.00417251, 0.00277477, 264.116, -90.5868, 0, 0.000963552, 0.00223572, 0.00149269, 140.652, -48.6802, 0, 0.000962897, 2.78013, 11.2432, 257.737, 2.64378, 6.71759, 136.679, -0.00136338, -0.00127855, 0.00411163, -0.00070831, -0.00070831, -0.00070831
8461, 1,0.00423924, 0.00128713, 0.000858518, 268.383, 81.6794, 0.0718985, 719.904, -239.902, 1, 0.00107056, 0.00552428, 0.00368121, 350.037, -120.174, -4.33681E-19, 0.00106324, 0.00295601, 0.00197196, 186.751, -64.5292, -4.33681E-19, 0.00106228, 4.52856, 12.4837, 343.509, 3.27203, 7.31299, 183.003, -0.00179528, -0.00169852, 0.00544359, -0.000946168, -0.000946168, -0.000946168
8462, 1,0.00401869, 0.00123794, 0.000820958, 253.722, 78.9215, 0.0703663, 677.835, -224.722, 1, 0.00103628, 0.00525586, 0.00351414, 332.589, -113.43, 0, 0.00102966, 0.0027822, 0.00187632, 174.905, -58.9675, 0, 0.00102875, 6.71536, 7.91728, 325.658, 3.4991, 3.15785, 170.245, -0.00164221, -0.00168802, 0.00517057, -0.000853371, -0.000853371, -0.000853371
8463, 1,0.00365988, 0.00114433, 0.000757921, 231.887, 73.0443, 0.0685275, 630.441, -212.578, 1, 0.00100272, 0.00480375, 0.00322983, 304.87, -104.919, 0, 0.000996619, 0.00251641, 0.00171516, 158.959, -54.3746, 0, 0.000995802, 9.47506, 6.84214, 298.439, 6.21216, 2.47341, 154.438, -0.00144728, -0.00157805, 0.00472756, -0.000721486, -0.000721486, -0.000721486
8464, 1,0.00322106, 0.00101183, 0.000673629, 202.929, 64.2845, 0.0663228, 564.845, -187.721, 1, 0.000969367, 0.00423181, 0.00284958, 267.152, -90.9364, 0, 0.00096413, 0.00221131, 0.00151045, 138.762, -47.113, 0, 0.000963444, 2.47111, 7.72154, 262.617, 1.61188, 4.10781, 135.619, -0.00137413, -0.00133552, 0.00418503, -0.000703786, -0.000703786, -0.000703786
8465, 1,0.00423691, 0.0013086, 0.000875582, 268.381, 82.5602, 0.0712055, 700.237, -232.183, 1, 0.00107154, 0.00554396, 0.00371538, 350.888, -120.047, 0, 0.00106451, 0.00293124, 0.00196802, 185.921, -64.5648, 0, 0.00106356, 8.09593, 7.27415, 344.77, 6.33471, 5.15865, 182.201, -0.00171429, -0.00179125, 0.00545329, -0.000877551, -0.000877551, -0.000877551
8466, 1,0.00401418, 0.00125589, 0.000843863, 254.754, 79.7447, 0.0701111, 675.363, -226.424, 1, 0.00103748, 0.00526984, 0.00355165, 334.473, -115.019, 0, 0.00103081, 0.00275874, 0.00186493, 175.057, -60.4501, 0, 0.0010299, 11.2621, 4.50569, 329.289, 6.73072, 2.8875, 171.732, -0.0015699, -0.00176146, 0.00519747, -0.0008068, -0.0008068, -0.0008068
8467, 1,0.00368512, 0.00117362, 0.000788211, 235.135, 74.572, 0.0686807, 637.194, -215.238, 1, 0.0010038, 0.00485651, 0.0032625, 309.681, -108.122, -1.73472E-18, 0.000997646, 0.0025158, 0.00169207, 160.614, -57.0131, -1.73472E-18, 0.000996819, 12.3983, 5.49528, 306.473, 8.07722, 3.9265, 159.036, -0.00143462, -0.00162901, 0.00481783, -0.000721727, -0.000721727, -0.000721727
8468, 1,0.00331568, 0.00104742, 0.000702348, 211.744, 66.1404, 0.066094, 563.352, -190.919, 1, 0.000970525, 0.00436286, 0.00295298, 277.861, -96.9445, 0, 0.000965262, 0.00226874, 0.00154979, 145.65, -52.5072, 0, 0.000964566, 10.1114, 6.7588, 273.963, 8.45701, 5.90189, 143.163, -0.00130626, -0.00143208, 0.00431121, -0.000642917, -0.000642917, -0.000642917
8469, 1,0.000444358, -0.000696039, 0.000468833, -4.27559, -44.6102, 0.00286537, 13.1016, 164.364, 0, 0.00105812, 0.000681464, 0.00132651, -4.77607, 49.8175, 0, 0.00106009, 0.000210045, 0.000395411, -3.64354, 18.3879, 0, 0.00106063, -9.40402, -15.5242, -124.524, -7.9942, -7.42577, -39.7437, 0.000587876, 0.000459604, -0.00185582, 0.000123375, 0.000123375, 0.000123375
8470, 1,0.000536131, -0.000599174, 0.000401562, 1.16008, -38.5047, 0.00299752, 19.0816, 164.668, 0, 0.00102576, 0.000738678, 0.00141525, 0.56342, 46.1204, 0, 0.00102774, 0.000334914, 0.000614895, 1.83003, 18.7936, 0, 0.00102819, -0.432535, -12.3704, -125.558, 1.26131, -5.16723, -52.4749, 0.000718982, 0.000472744, -0.00194009, 0.000325078, 0.000325078, 0.000325078
8471, 1,0.000615138, -0.000507427, 0.000339128, 1.21543, -32.6976, 0.00280347, 11.0054, 163.217, 0, 0.000992961, 0.000776591, 0.00151043, 0.160686, 49.0126, 0, 0.000994803, 0.000456627, 0.00084352, 2.40982, 25.6343, 0, 0.00099518, -0.0931965, -12.7273, -134.217, 1.45554, -6.55099, -71.8075, 0.000771092, 0.000510692, -0.00207708, 0.00043623, 0.00043623, 0.00043623
8472, 1,0.000698119, -0.000430091, 0.000292681, -1.35193, -27.5676, 0.00279998, 12.1539, 161.389, 0, 0.000959667, 0.000841668, 0.00164111, -1.82454, 55.9654, 0, 0.000961311, 0.000561958, 0.00107912, -0.51224, 36.5434, 0, 0.000961613, -5.59716, -13.8713, -148.428, -5.10886, -10.0071, -94.5144, 0.000764066, 0.000590788, -0.00226298, 0.000468949, 0.000468949, 0.000468949
8473, 1,0.000627425, -0.000749632, 0.000514605, 5.47936, -46.5218, 0.00301989, 8.45009, 180.355, 0, 0.00105752, 0.000905715, 0.00158578, 7.57436, 47.2443, 0, 0.00105981, 0.00035042, 0.000559478, 3.42542, 17.4988, 0, 0.00106032, -7.25304, 0.328395, -134.808, -6.64411, 1.08249, -46.9346, 0.000592125, 0.000760795, -0.00211951, 0.000137294, 0.000137294, 0.000137294
8474, 1,0.000657783, -0.000625904, 0.000431044, 7.72096, -38.7934, 0.00326918, 29.5422, 167.83, 0, 0.00102431, 0.000887037, 0.00158934, 9.377, 43.5946, 0, 0.00102638, 0.000432847, 0.000736479, 6.2656, 18.8968, 0, 0.00102679, 1.1154, 1.65368, -133.553, 1.6184, 1.54433, -59.853, 0.000711705, 0.000730868, -0.00214995, 0.00033406, 0.00033406, 0.00033406
8475, 1,0.000737564, -0.000536699, 0.000371186, 6.43234, -33.1763, 0.00315449, 22.4715, 170.08, 0, 0.000991561, 0.000940606, 0.00169179, 8.24187, 48.4756, 0, 0.00099352, 0.00053603, 0.000953291, 4.69379, 27.5392, 0, 0.000993858, -2.20778, 0.681566, -143.901, -1.93616, -0.0558958, -80.6254, 0.000717459, 0.000787183, -0.00229122, 0.000394114, 0.000394114, 0.000394114
8476, 1,0.000844143, -0.000479627, 0.000333373, 2.89177, -29.6015, 0.00293314, 4.1261, 180.691, 0, 0.000958781, 0.00102956, 0.00188146, 4.73015, 59.0048, 0, 0.000960676, 0.000659658, 0.00121841, 1.10737, 40.4205, 0, 0.000960966, -7.42691, -4.54417, -165.043, -7.14709, -6.23311, -107.881, 0.000772374, 0.000841798, -0.00257161, 0.000486123, 0.000486123, 0.000486123
8477, 1,0.000675844, -0.000724468, 0.000504156, 9.19791, -44.486, 0.00283341, 5.33092, 172.763, 0, 0.00105714, 0.000958853, 0.00160397, 12.3839, 43.9706, 0, 0.00105935, 0.000393972, 0.000598666, 6.03519, 16.5128, 0, 0.00105982, -5.80122, 3.79585, -129.906, -5.93912, 3.32883, -46.9282, 0.000570811, 0.000789229, -0.00207351, 0.00013622, 0.00013622, 0.00013622
8478, 1,0.00069887, -0.000594541, 0.000415623, 12.124, -36.4861, 0.00286241, 23.5568, 150.035, 0, 0.00102455, 0.000931263, 0.00157659, 14.7614, 39.2814, 0, 0.0010264, 0.000469333, 0.000751317, 9.61239, 16.8084, 0, 0.00102677, 2.3944, 5.4013, -125.64, 2.53548, 4.07367, -57.0343, 0.000670329, 0.000744024, -0.00205174, 0.000320034, 0.000320034, 0.000320034
8479, 1,0.000755806, -0.000510884, 0.000358654, 11.7603, -31.2415, 0.00279062, 21.4057, 148.367, 0, 0.00099171, 0.000961817, 0.00163382, 14.4288, 41.6468, 0, 0.000993428, 0.000550042, 0.000918097, 9.10414, 22.6403, 0, 0.000993735, 0.386318, 5.67312, -131, 0.297861, 3.84553, -72.0642, 0.000664746, 0.000786565, -0.00212709, 0.000364178, 0.000364178, 0.000364178
8480, 1,0.000882733, -0.000462349, 0.000326735, 10.9615, -28.2016, 0.00275876, 6.14829, 166.754, 0, 0.000958739, 0.00107212, 0.0018395, 13.5686, 49.7162, 0, 0.000960562, 0.000694266, 0.00119002, 8.41309, 32.7126, 0, 0.000960827, -2.19786, 1.23476, -148.185, -2.20135, -1.31436, -94.6221, 0.000736774, 0.000824688, -0.00236818, 0.000469461, 0.000469461, 0.000469461
8481, 1,0.000628822, -0.000687097, 0.000477101, 8.22194, -42.2474, 0.00241716, -1.78053, 155.935, 0, 0.0010575, 0.000895869, 0.00150546, 11.1169, 41.5511, 0, 0.00105946, 0.000361848, 0.000553133, 5.33329, 15.3724, 0, 0.00105991, -5.52742, -0.77865, -118.347, -5.65776, 0.75439, -41.214, 0.000538238, 0.000661367, -0.00187381, 0.000123881, 0.000123881, 0.000123881
8482, 1,0.00061685, -0.000563286, 0.000392518, 8.66868, -34.6794, 0.00233619, 7.90623, 137.617, 0, 0.00102469, 0.000836737, 0.00145311, 11.0341, 38.3593, 0, 0.00102634, 0.000398523, 0.000671178, 6.38401, 16.7783, 0, 0.0010267, 0.600417, -0.839222, -114.839, 0.936068, -0.316131, -50.9549, 0.00061752, 0.00060069, -0.00184063, 0.000285326, 0.000285326, 0.000285326
8483, 1,0.000659882, -0.000482892, 0.000337432, 6.94038, -29.6217, 0.00223699, 3.72532, 136.953, 0, 0.000991758, 0.000851225, 0.00150701, 9.21392, 41.7039, 0, 0.000993293, 0.000469096, 0.000835326, 4.70561, 23.5036, 0, 0.000993586, -1.38158, -1.50718, -122.223, -1.39523, -1.64592, -67.4696, 0.00062843, 0.000638575, -0.00194371, 0.00034209, 0.00034209, 0.00034209
8484, 1,0.000770091, -0.000430224, 0.000303225, 5.19285, -26.3311, 0.00246592, 1.74104, 153.867, 0, 0.000958711, 0.000945765, 0.00169233, 7.52784, 49.5425, 0, 0.000960335, 0.000594744, 0.00108709, 2.87936, 33.4983, 0, 0.000960585, -4.2516, -5.58763, -138.788, -4.04351, -6.43975, -90.0117, 0.000690918, 0.000684656, -0.00217947, 0.000443184, 0.000443184, 0.000443184
8485, 1,0.000572716, -0.000650138, 0.000449185, 7.16263, -40.0857, 0.00212841, 2.62057, 131.187, 0, 0.0010578, 0.000820912, 0.00139922, 9.57663, 38.7766, 0, 0.00105939, 0.000324543, 0.00050252, 4.77714, 13.7212, 0, 0.00105982, -4.30814, -4.71597, -107.306, -4.41266, -1.02552, -35.7253, 0.000520347, 0.000538959, -0.00168848, 0.000124146, 0.000124146, 0.000124146
8486, 1,0.000571081, -0.000535623, 0.000370902, 7.67051, -33.1012, 0.00197581, 5.28777, 118.238, 0, 0.00102497, 0.000776269, 0.00135914, 9.63045, 36.4447, 0, 0.00102633, 0.000366706, 0.000619029, 5.74378, 15.599, 0, 0.00102668, 0.157232, -3.00568, -106.486, 0.533414, -0.578314, -46.752, 0.000577889, 0.000526851, -0.00169608, 0.00025807, 0.00025807, 0.00025807
8487, 1,0.000622543, -0.000457761, 0.000317548, 7.02623, -28.196, 0.00191532, 1.00833, 120.21, 0, 0.000992018, 0.000797756, 0.00142238, 8.79243, 38.9375, 0, 0.000993327, 0.000448703, 0.000793211, 5.33509, 21.3853, 0, 0.00099361, -0.0499158, -3.00961, -113.753, -0.0497158, -1.41145, -62.6949, 0.00061321, 0.000565372, -0.00181038, 0.000337313, 0.000337313, 0.000337313
8488, 1,0.000736165, -0.000401868, 0.000281246, 6.22122, -24.68, 0.00231113, 4.85272, 139.961, 0, 0.000958779, 0.000896294, 0.0015897, 8.14721, 45.4682, 0, 0.00096025, 0.000576286, 0.00102793, 4.31007, 30.269, 0, 0.000960487, -3.06937, -6.889, -126.446, -2.92566, -6.02549, -81.8558, 0.000651893, 0.00059751, -0.00198718, 0.000416038, 0.000416038, 0.000416038
8489, 1,0.000518628, -0.000617491, 0.000424441, 4.8275, -38.1686, 0.00215836, 17.0741, 114.018, 0, 0.00105807, 0.000749797, 0.00131095, 6.79752, 38.0215, 0, 0.00105937, 0.000287838, 0.000465612, 2.94824, 13.9806, 0, 0.00105979, -4.92525, -9.73221, -99.4069, -5.06152, -4.27869, -32.6017, 0.000495712, 0.000423733, -0.00153635, 0.000114744, 0.000114744, 0.000114744
8490, 1,0.000533118, -0.000511762, 0.000352302, 5.70442, -31.7086, 0.0018495, 9.50179, 104.697, 0, 0.00102522, 0.000725541, 0.00130402, 7.31853, 36.4994, 0, 0.00102635, 0.000341054, 0.000600125, 4.12308, 16.376, 0, 0.00102669, -0.485397, -7.74784, -101.265, -0.204261, -3.83493, -45.0888, 0.000565207, 0.000429139, -0.00158655, 0.000254704, 0.000254704, 0.000254704
8491, 1,0.00059871, -0.000435966, 0.000300407, 5.73489, -26.9363, 0.00200444, 12.1606, 110.96, 0, 0.00099223, 0.00076219, 0.00138282, 7.17946, 38.982, 0, 0.00099339, 0.000436112, 0.00078738, 4.34559, 22.0565, 0, 0.000993663, -0.703894, -6.90164, -109.34, -0.771284, -3.94064, -61.4575, 0.000600121, 0.000485617, -0.00171824, 0.000332608, 0.000332608, 0.000332608
8492, 1,0.000694972, -0.000376346, 0.000261579, 3.747, -23.1949, 0.00233198, 10.3128, 134.197, 0, 0.000958746, 0.000841241, 0.0015276, 5.30857, 45.6864, 0, 0.000960124, 0.000548961, 0.00100512, 2.19864, 31.2447, 0, 0.000960349, -4.07522, -11.5967, -121.387, -3.96421, -9.34095, -80.4289, 0.000634113, 0.000505115, -0.00188054, 0.000409424, 0.000409424, 0.000409424
8493, 1,0.000488864, -0.000587968, 0.000402601, 4.88383, -36.4253, 0.00228503, 33.3674, 100.423, 0, 0.00105826, 0.000705257, 0.00123754, 6.48233, 35.4641, 0, 0.00105938, 0.000274045, 0.000437482, 3.49301, 12.3682, 0, 0.00105978, -3.70969, -12.295, -90.3875, -3.81926, -5.5033, -27.7821, 0.000481192, 0.000333957, -0.00139055, 0.000115606, 0.000115606, 0.000115606
8494, 1,0.000499475, -0.000488923, 0.000334856, 4.55569, -30.3679, 0.00170407, 6.79282, 99.1394, 0, 0.00102526, 0.000678945, 0.00124408, 5.83966, 35.4305, 0, 0.00102632, 0.000321095, 0.000576282, 3.32582, 16.0189, 0, 0.00102664, -0.0114561, -10.2466, -96.0333, 0.21427, -5.1458, -43.1251, 0.000558341, 0.000362763, -0.00149596, 0.000257831, 0.000257831, 0.000257831
8495, 1,0.000567468, -0.000415413, 0.0002848, 4.64118, -25.737, 0.0020098, 14.982, 107.515, 0, 0.000992065, 0.000721185, 0.00132843, 5.8621, 38.07, 0, 0.000993183, 0.000414035, 0.000762363, 3.44134, 21.7652, 0, 0.000993446, -0.635808, -9.64169, -103.933, -0.706755, -5.63114, -58.9577, 0.000587113, 0.000416481, -0.00162129, 0.000329236, 0.000329236, 0.000329236
8496, 1,0.000660878, -0.000354699, 0.000245147, 3.90829, -21.9163, 0.00235562, 15.771, 128.446, 0, 0.000958573, 0.00079595, 0.00144757, 5.20264, 42.7835, 0, 0.000959907, 0.000526023, 0.000957932, 2.62639, 29.0348, 0, 0.000960121, -2.97046, -13.4154, -111.965, -2.91707, -10.1117, -74.0758, 0.000611781, 0.000424827, -0.00173081, 0.000396694, 0.000396694, 0.000396694
8497, 1,0.000459167, -0.000561722, 0.000383507, 4.98916, -34.8543, 0.00215221, 28.1648, 99.0019, 0, 0.00105835, 0.000662848, 0.00116909, 6.30025, 32.9983, 0, 0.00105948, 0.000258629, 0.000409817, 4.01198, 10.7979, 0, 0.00105986, -2.351, -14.0646, -82.5793, -2.45874, -6.28836, -23.6466, 0.000471028, 0.000259191, -0.00126561, 0.000119538, 0.000119538, 0.000119538
8498, 1,0.000468938, -0.000469076, 0.000320098, 4.15818, -29.1748, 0.00178888, 4.85127, 107.066, 0, 0.00102489, 0.000635944, 0.00117962, 5.11531, 33.7173, 0, 0.00102611, 0.000304701, 0.0005453, 3.34708, 14.9992, 0, 0.00102642, 0.879321, -13.0796, -88.9517, 1.01951, -7.12385, -38.8933, 0.000550179, 0.000277009, -0.00137425, 0.000258751, 0.000258751, 0.000258751
8499, 1,0.000528038, -0.000397419, 0.000271529, 3.7712, -24.6589, 0.00191848, 6.14108, 113.546, 0, 0.000991825, 0.000673575, 0.00126079, 4.82889, 36.4762, 0, 0.000993066, 0.00038262, 0.000720836, 2.73328, 20.7876, 0, 0.000993319, -0.147697, -12.4271, -96.8537, -0.2526, -7.67399, -54.4362, 0.000572015, 0.000333859, -0.00149771, 0.000323052, 0.000323052, 0.000323052
8500, 1,0.000631498, -0.000336221, 0.000231174, 3.77262, -20.8094, 0.00231299, 19.3244, 120.971, 0, 0.000958617, 0.000756736, 0.00138765, 4.84257, 40.725, 0, 0.000959866, 0.000506585, 0.000926737, 2.72119, 27.6069, 0, 0.00096007, -1.77276, -14.3024, -106.1, -1.81762, -10.2191, -70.784, 0.000604382, 0.000374214, -0.00163939, 0.00039706, 0.00039706, 0.00039706
8501, 1,0.000422161, -0.000537751, 0.000366178, 4.69068, -33.4165, 0.00199146, 23.9854, 94.3411, 0, 0.0010584, 0.000615476, 0.00109394, 5.82948, 30.8932, 0, 0.00105949, 0.00023154, 0.000368334, 3.85923, 9.51726, 0, 0.00105986, -1.78017, -14.4108, -76.4886, -1.87101, -5.85926, -20.8215, 0.000449986, 0.000215544, -0.00116676, 0.000111799, 0.000111799, 0.000111799
8502, 1,0.000438837, -0.000449807, 0.000305854, 3.28199, -28.0156, 0.0018501, 9.85406, 104.236, 0, 0.00102504, 0.000595883, 0.00112041, 4.04194, 32.6227, 0, 0.00102623, 0.000284551, 0.000515182, 2.66724, 14.5782, 0, 0.00102653, 0.734157, -13.5385, -85.0639, 0.805985, -6.88759, -37.6529, 0.000529938, 0.000249679, -0.00130892, 0.000247633, 0.000247633, 0.000247633
8503, 1,0.000497153, -0.000379705, 0.000258606, 2.59163, -23.6079, 0.00193854, 12.0868, 106.838, 0, 0.000991936, 0.000634451, 0.0012063, 3.49265, 35.7438, 0, 0.000993081, 0.000360129, 0.000691789, 1.69274, 20.6312, 0, 0.000993324, -0.325546, -13.4729, -93.433, -0.398889, -8.09543, -53.3993, 0.000556359, 0.000300131, -0.00143645, 0.000317075, 0.000317075, 0.000317075
8504, 1,0.00060796, -0.000320301, 0.000219489, 3.50739, -19.8516, 0.00222142, 27.4215, 104.269, 0, 0.000958888, 0.000726189, 0.00133783, 4.45439, 39.42, 0, 0.000959897, 0.000489875, 0.000900124, 2.56727, 26.8524, 0, 0.000960093, -1.77333, -15.3227, -101.164, -1.84776, -10.6528, -68.0568, 0.000583478, 0.000329393, -0.00155249, 0.000384158, 0.000384158, 0.000384158
8505, 1,0.000405072, -0.000516145, 0.000351098, 4.9554, -32.1071, 0.00183582, 29.393, 77.1965, 0, 0.00105893, 0.000589434, 0.00104713, 5.95194, 29.211, 0, 0.00105976, 0.000223883, 0.000352602, 4.29446, 8.6133, 0, 0.00106011, -1.30244, -15.2019, -71.1287, -1.33189, -6.12186, -18.3861, 0.000433561, 0.00017143, -0.00107893, 0.000108885, 0.000108885, 0.000108885
8506, 1,0.000432192, -0.000432852, 0.000293848, 3.96772, -26.9737, 0.00160288, 15.6143, 80.8018, 0, 0.00102562, 0.000584537, 0.00108077, 4.71217, 30.9528, 0, 0.00102645, 0.000281414, 0.000497226, 3.33402, 13.5549, 0, 0.00102674, 0.371715, -14.2411, -78.9891, 0.403396, -7.12332, -33.9449, 0.000495982, 0.000209448, -0.00120764, 0.00022297, 0.00022297, 0.00022297
8507, 1,0.000487249, -0.000364522, 0.000247892, 3.43584, -22.681, 0.00170832, 19.934, 81.6828, 0, 0.000992464, 0.000618494, 0.0011607, 4.24743, 33.6438, 0, 0.000993238, 0.000356014, 0.000666955, 2.63025, 19.0914, 0, 0.000993472, 0.059859, -14.1409, -86.8504, -0.0084768, -8.35398, -48.9118, 0.000531304, 0.000253061, -0.00133025, 0.000300913, 0.000300913, 0.000300913
8508, 1,0.000578941, -0.000306742, 0.000209797, 3.19861, -19.0182, 0.00200888, 34.6441, 81.0808, 0, 0.000959404, 0.000691298, 0.00128387, 4.0554, 37.8267, 0, 0.000960078, 0.00046675, 0.000865974, 2.35352, 25.7749, 0, 0.000960265, -1.20991, -16.7612, -95.5089, -1.3314, -11.6677, -64.3256, 0.00057026, 0.000271225, -0.00145525, 0.00037805, 0.00037805, 0.00037805
8509, 1,0.000375601, -0.000495673, 0.000336935, 4.62394, -30.8536, 0.00162944, 29.6175, 63.8048, 0, 0.00105927, 0.000551555, 0.000987609, 5.49865, 27.4778, 0, 0.0010599, 0.000204038, 0.000323332, 4.17265, 7.64932, 0, 0.00106024, -0.688564, -16.1608, -65.584, -0.682274, -6.67113, -15.5946, 0.000419079, 0.000123009, -0.000987898, 0.000107241, 0.000107241, 0.000107241
8510, 1,0.00040454, -0.000416147, 0.000282209, 3.47268, -25.9431, 0.00132569, 15.5258, 63.3244, 0, 0.00102601, 0.00055101, 0.00102207, 4.16839, 29.4471, 0, 0.00102658, 0.000259531, 0.000461534, 2.89331, 12.6957, 0, 0.00102685, 0.0780438, -14.9255, -73.4938, 0.0904103, -7.41662, -30.7609, 0.000465981, 0.00017164, -0.0011154, 0.000202714, 0.000202714, 0.000202714
8511, 1,0.00046035, -0.000349734, 0.000237559, 2.90196, -21.7744, 0.00139824, 17.9946, 64.5992, 0, 0.0009928, 0.000585602, 0.00110307, 3.63614, 32.265, 0, 0.000993321, 0.000335206, 0.000630025, 2.18259, 18.269, 0, 0.000993547, -0.165789, -15.062, -81.5672, -0.231276, -8.9257, -45.6499, 0.000504831, 0.000211641, -0.00123998, 0.000283247, 0.000283247, 0.000283247
8512, 1,0.000550744, -0.00029348, 0.000200407, 3.13145, -18.2069, 0.00170941, 30.1352, 68.11, 0, 0.000959676, 0.000657401, 0.00122941, 3.90613, 35.9364, 0, 0.000960177, 0.000444323, 0.000830915, 2.37231, 24.3805, 0, 0.000960357, -0.351491, -16.9179, -90.54, -0.490791, -11.4559, -61.1949, 0.00055877, 0.000235579, -0.00137744, 0.000373988, 0.000373988, 0.000373988
8513, 1,0.000345558, -0.000475667, 0.0003232, 4.12028, -29.6193, 0.00142524, 22.7507, 60.0621, 0, 0.00105954, 0.000513536, 0.000926586, 4.89495, 25.943, 0, 0.00106013, 0.000183689, 0.000292203, 3.89445, 6.89264, 0, 0.00106046, -0.465814, -17.0763, -60.2869, -0.443151, -7.28316, -12.9516, 0.000399481, 7.89665E-05, -0.000899351, 0.000100213, 0.000100213, 0.000100213
8514, 1,0.000379321, -0.00039967, 0.000270861, 2.95192, -24.9228, 0.00115228, 9.28594, 60.7025, 0, 0.00102622, 0.000520051, 0.000970352, 3.61195, 28.1583, 0, 0.00102676, 0.00024001, 0.00043245, 2.41659, 12.0583, 0, 0.00102703, -0.101364, -15.6136, -68.7598, -0.104906, -7.80896, -28.2611, 0.00044182, 0.000137692, -0.00103637, 0.000188456, 0.000188456, 0.000188456
8515, 1,0.000437941, -0.000335357, 0.000227618, 2.38022, -20.8893, 0.0012048, 9.87389, 63.2213, 0, 0.000992978, 0.000557528, 0.0010556, 3.0534, 31.1813, 0, 0.000993494, 0.000318608, 0.000602604, 1.73332, 17.7409, 0, 0.000993711, -0.329766, -16.0462, -77.1678, -0.396359, -9.64509, -43.1812, 0.000484354, 0.000174438, -0.00116472, 0.000271492, 0.000271492, 0.000271492
8516, 1,0.000519079, -0.000280709, 0.000191561, 2.26854, -17.4209, 0.00148013, 19.5231, 67.7745, 0, 0.000959756, 0.000620894, 0.00117569, 3.00361, 34.8539, 0, 0.000960269, 0.000417484, 0.000795049, 1.54642, 23.7915, 0, 0.000960442, -0.441666, -17.9064, -86.2137, -0.58561, -12.1512, -58.6378, 0.000539919, 0.00019665, -0.0013021, 0.000362816, 0.000362816, 0.000362816
8517, 1,0.000326711, -0.000456135, 0.000309924, 3.89557, -28.4075, 0.00129311, 16.4306, 60.1548, 0, 0.00105963, 0.000486641, 0.000880094, 4.56079, 24.7453, 0, 0.00106024, 0.000175333, 0.000276694, 3.93916, 6.47525, 0, 0.00106056, -0.505937, -18.0906, -55.6393, -0.478711, -8.09919, -10.8478, 0.00037972, 3.90229E-05, -0.000820209, 9.28056E-05, 9.28056E-05, 9.28056E-05
8518, 1,0.000359475, -0.000383331, 0.00025967, 2.54729, -23.91, 0.00108886, 5.09966, 62.3063, 0, 0.00102629, 0.000494298, 0.000925953, 3.16635, 27.0803, 0, 0.00102687, 0.000226139, 0.000410692, 2.06665, 11.6329, 0, 0.00102713, -0.308734, -16.3666, -64.5656, -0.326387, -8.34337, -26.229, 0.000420463, 0.000106203, -0.000966032, 0.000177058, 0.000177058, 0.000177058
8519, 1,0.000419133, -0.000321249, 0.000217893, 2.11245, -20.0179, 0.00112839, 5.13663, 64.7383, 0, 0.000993018, 0.000533326, 0.00101262, 2.73893, 30.0146, 0, 0.000993578, 0.000305248, 0.000579227, 1.51841, 17.1306, 0, 0.000993786, -0.341224, -16.6895, -73.0132, -0.420552, -10.0806, -40.8906, 0.000465807, 0.000143685, -0.00109648, 0.000261438, 0.000261438, 0.000261438
8520, 1,0.000499624, -0.00026817, 0.000182912, 2.08903, -16.6494, 0.00136635, 13.9304, 68.0506, 0, 0.000959795, 0.00059663, 0.00113211, 2.78199, 33.6246, 0, 0.000960331, 0.000402837, 0.000768966, 1.40747, 23.0487, 0, 0.000960496, -0.434852, -18.4031, -82.0358, -0.58012, -12.4114, -56.1544, 0.000520755, 0.00016674, -0.00123307, 0.000351296, 0.000351296, 0.000351296
8521, 1,0.000310146, -0.000436682, 0.000296678, 4.01435, -27.2005, 0.00122145, 13.6315, 59.3582, 0, 0.00105981, 0.000462275, 0.000832974, 4.58546, 23.2275, 0, 0.00106044, 0.000168584, 0.000259599, 4.28439, 5.73606, 0, 0.00106074, -0.364191, -18.368, -50.9505, -0.338659, -8.22865, -8.64086, 0.000358811, 9.57441E-06, -0.000745222, 8.40932E-05, 8.40932E-05, 8.40932E-05
8522, 1,0.000342941, -0.000367045, 0.000248525, 2.51052, -22.9002, 0.00107891, 4.71535, 62.2001, 0, 0.00102644, 0.000471893, 0.000883039, 3.09385, 25.7508, 0, 0.00102705, 0.000215415, 0.000390145, 2.06917, 10.9554, 0, 0.00102729, -0.28627, -16.5767, -60.3894, -0.318494, -8.38708, -24.1606, 0.000400031, 8.18467E-05, -0.000899668, 0.000166571, 0.000166571, 0.000166571
8523, 1,0.000402515, -0.000307305, 0.000208293, 2.0031, -19.156, 0.00109, 3.49539, 64.5207, 0, 0.000993149, 0.000511339, 0.000971191, 2.58198, 28.8154, 0, 0.000993725, 0.000294069, 0.000557235, 1.46368, 16.4834, 0, 0.000993924, -0.355162, -17.0679, -69.0231, -0.448492, -10.2955, -38.7061, 0.000446673, 0.000117684, -0.00103189, 0.000250702, 0.000250702, 0.000250702
8524, 1,0.000479137, -0.000255905, 0.000174502, 1.8869, -15.8929, 0.0012709, 10.1895, 67.0185, 0, 0.0009599, 0.000571507, 0.0010881, 2.54299, 32.3709, 0, 0.00096044, 0.000387011, 0.000741991, 1.24274, 22.2753, 0, 0.000960597, -0.342923, -18.8539, -77.9159, -0.486936, -12.6662, -53.6727, 0.000502985, 0.000137331, -0.00116555, 0.000341125, 0.000341125, 0.000341125
8525, 1,0.000293768, -0.000417485, 0.000283651, 4.06637, -26.0075, 0.00115756, 11.1756, 58.6044, 0, 0.00105991, 0.00043805, 0.000786746, 4.53649, 21.8458, 0, 0.00106054, 0.000162653, 0.000243982, 4.59567, 5.12678, 0, 0.00106083, -0.356011, -18.7064, -46.4749, -0.330843, -8.47095, -6.57856, 0.0003372, -1.93458E-05, -0.000672267, 7.46165E-05, 7.46165E-05, 7.46165E-05
8526, 1,0.000325136, -0.00035097, 0.000237562, 2.3888, -21.9017, 0.00105151, 4.17492, 61.1943, 0, 0.00102654, 0.000448191, 0.000838993, 2.93177, 24.4883, 0, 0.00102715, 0.000203652, 0.000368419, 2.00218, 10.34, 0, 0.00102739, -0.320359, -16.8625, -56.282, -0.365118, -8.55199, -22.1028, 0.000379444, 5.64195E-05, -0.000833166, 0.000155893, 0.000155893, 0.000155893
8527, 1,0.000384259, -0.00029363, 0.000198903, 1.82654, -18.3076, 0.00103614, 2.03576, 63.0641, 0, 0.000993223, 0.000487842, 0.000928676, 2.36081, 27.6338, 0, 0.000993794, 0.000281167, 0.000533878, 1.34265, 15.8493, 0, 0.000993984, -0.366635, -17.4234, -65.1115, -0.477519, -10.5272, -36.5432, 0.000427856, 9.18271E-05, -0.000968037, 0.000240129, 0.000240129, 0.000240129
8528, 1,0.000458543, -0.000243859, 0.000166245, 1.65597, -15.1488, 0.00116314, 6.55894, 65.0424, 0, 0.000959962, 0.000546297, 0.00104456, 2.27312, 31.1725, 0, 0.00096049, 0.000371077, 0.000715334, 1.05237, 21.5494, 0, 0.00096064, -0.278739, -19.1502, -74.0886, -0.422506, -12.7996, -51.4261, 0.000485488, 0.000111516, -0.00110279, 0.000331077, 0.000331077, 0.000331077
8529, 1,0.000277167, -0.000398622, 0.000270897, 4.15155, -24.8325, 0.00106917, 7.62345, 57.7628, 0, 0.0010601, 0.000413574, 0.000740192, 4.51474, 20.4317, 0, 0.00106074, 0.000157286, 0.000228747, 4.97825, 4.47843, 0, 0.00106101, -0.310458, -18.9394, -42.0453, -0.287281, -8.65562, -4.49239, 0.000315859, -4.6856E-05, -0.000600469, 6.52688E-05, 6.52688E-05, 6.52688E-05
8530, 1,0.00030683, -0.000335131, 0.000226781, 2.26442, -20.9156, 0.000994778, 2.86724, 59.3467, 0, 0.00102673, 0.000424077, 0.00079469, 2.76867, 23.2179, 0, 0.00102733, 0.000191392, 0.000346263, 1.93581, 9.71131, 0, 0.00102756, -0.333113, -17.0261, -52.2944, -0.392311, -8.63714, -20.1045, 0.000359161, 3.29677E-05, -0.000768815, 0.000145392, 0.000145392, 0.000145392
8531, 1,0.000366158, -0.00028012, 0.000189654, 1.69498, -17.4686, 0.0010013, 2.1175, 60.7216, 0, 0.000993434, 0.000464736, 0.000886424, 2.19518, 26.4161, 0, 0.000993987, 0.000268091, 0.000510314, 1.24861, 15.1735, 0, 0.000994169, -0.345963, -17.5631, -61.3391, -0.470654, -10.5805, -34.4694, 0.000409126, 6.95736E-05, -0.000907293, 0.000229632, 0.000229632, 0.000229632
8532, 1,0.000440447, -0.000232113, 0.000158229, 1.53958, -14.4217, 0.00109784, 5.50253, 62.2938, 0, 0.000960172, 0.00052376, 0.00100336, 2.12332, 29.9916, 0, 0.000960675, 0.000357464, 0.000690543, 0.969016, 20.8329, 0, 0.000960818, -0.268507, -19.2814, -70.425, -0.411269, -12.8083, -49.2792, 0.000467113, 8.94179E-05, -0.00104316, 0.000320037, 0.000320037, 0.000320037
8533, 1,0.000260646, -0.000380023, 0.000258332, 4.22992, -23.6737, 0.000985101, 4.76145, 56.2476, 0, 0.00106027, 0.000389331, 0.000694151, 4.49099, 19.037, 0, 0.00106091, 0.000151968, 0.0002137, 5.34545, 3.83838, 0, 0.00106117, -0.267747, -18.9874, -37.856, -0.244028, -8.6938, -2.5773, 0.000294751, -7.02931E-05, -0.000533294, 5.60358E-05, 5.60358E-05, 5.60358E-05
8534, 1,0.000288975, -0.000319461, 0.000216148, 2.14592, -19.9394, 0.000935884, 1.84407, 56.9767, 0, 0.00102692, 0.000400638, 0.000751281, 2.6206, 21.9693, 0, 0.0010275, 0.000179241, 0.000324476, 1.8592, 9.09872, 0, 0.00102772, -0.362843, -17.0531, -48.4918, -0.432224, -8.6262, -18.2378, 0.000338844, 1.26529E-05, -0.000707922, 0.00013486, 0.00013486, 0.00013486
8535, 1,0.000349572, -0.000266836, 0.000180594, 1.60083, -16.6422, 0.00098224, 3.51621, 57.624, 0, 0.000993614, 0.000443333, 0.000846088, 2.07333, 25.2373, 0, 0.000994136, 0.000256297, 0.000488223, 1.18233, 14.5309, 0, 0.000994309, -0.363969, -17.631, -57.7168, -0.500504, -10.5997, -32.4924, 0.000390182, 4.94402E-05, -0.000849088, 0.000218874, 0.000218874, 0.000218874
8536, 1,0.000423068, -0.000220694, 0.000150469, 1.43652, -13.7129, 0.0010537, 6.23489, 58.4924, 0, 0.000960297, 0.000502107, 0.000963075, 1.9902, 28.8171, 0, 0.00096076, 0.000344408, 0.000666185, 0.897363, 20.1143, 0, 0.000960896, -0.260376, -19.3764, -66.8145, -0.402491, -12.8134, -47.127, 0.000448791, 6.83391E-05, -0.000984697, 0.00030891, 0.00030891, 0.00030891
8537, 1,0.000247205, -0.000361727, 0.000246012, 4.39214, -22.532, 0.000948184, 4.56472, 54.1448, 0, 0.00106055, 0.000368198, 0.000651555, 4.54872, 17.7091, 0, 0.00106118, 0.000149974, 0.000202203, 5.80176, 3.25752, 0, 0.00106143, -0.291483, -18.9547, -33.881, -0.267812, -8.69779, -0.806967, 0.000273289, -9.07419E-05, -0.000469834, 4.63196E-05, 4.63196E-05, 4.63196E-05
8538, 1,0.000272637, -0.000304012, 0.000205698, 2.08751, -18.9752, 0.000915921, 3.24691, 53.8044, 0, 0.00102719, 0.000378782, 0.000709534, 2.53209, 20.7211, 0, 0.00102774, 0.00016863, 0.000304155, 1.84874, 8.48123, 0, 0.00102794, -0.372062, -17.0043, -44.7868, -0.450926, -8.57803, -16.4147, 0.000318969, -6.04636E-06, -0.000649094, 0.000124704, 0.000124704, 0.000124704
8539, 1,0.000333016, -0.000253755, 0.00017171, 1.51578, -15.8263, 0.000944264, 4.40667, 54.0156, 0, 0.000993829, 0.000422098, 0.000805859, 1.96429, 24.0346, 0, 0.000994313, 0.00024442, 0.000465921, 1.12425, 13.8603, 0, 0.000994477, -0.351533, -17.6264, -54.1258, -0.498949, -10.5791, -30.503, 0.000371514, 3.03285E-05, -0.000791793, 0.000208352, 0.000208352, 0.000208352
8540, 1,0.000405669, -0.000209525, 0.000142921, 1.29957, -13.0173, 0.000996892, 6.22941, 54.8838, 0, 0.000960499, 0.000480577, 0.00092319, 1.82742, 27.669, 0, 0.000960923, 0.000331198, 0.000641861, 0.78843, 19.4172, 0, 0.000961052, -0.263587, -19.4105, -63.3328, -0.405403, -12.7893, -45.0571, 0.000430651, 4.8897E-05, -0.000928485, 0.000297879, 0.000297879, 0.000297879
8541, 1,0.000235513, -0.000343679, 0.000233905, 4.63423, -21.4032, 0.000925508, 5.85995, 50.9594, 0, 0.00106079, 0.000348632, 0.000610452, 4.67417, 16.3548, 0, 0.00106139, 0.000150659, 0.00019323, 6.37582, 2.64579, 0, 0.00106162, -0.280475, -18.8418, -29.9422, -0.257223, -8.66081, 0.980644, 0.00025216, -0.000109904, -0.000407571, 3.68571E-05, 3.68571E-05, 3.68571E-05
8542, 1,0.000256675, -0.000288732, 0.000195393, 2.03196, -18.0196, 0.000883033, 4.13171, 50.5308, 0, 0.00102741, 0.000357373, 0.000668417, 2.44777, 19.4814, 0, 0.00102793, 0.000158412, 0.000284304, 1.84405, 7.86901, 0, 0.00102812, -0.370821, -16.8809, -41.1924, -0.459235, -8.48999, -14.6578, 0.000299462, -2.32514E-05, -0.000592268, 0.000114867, 0.000114867, 0.000114867
8543, 1,0.000316572, -0.000240814, 0.000162947, 1.39698, -15.0177, 0.000891299, 4.31142, 50.7826, 0, 0.000994058, 0.000401083, 0.000766314, 1.82556, 22.8796, 0, 0.000994508, 0.000232538, 0.000444044, 1.02776, 13.2343, 0, 0.000994663, -0.366875, -17.5527, -50.7192, -0.523975, -10.5197, -28.6592, 0.000353016, 1.32132E-05, -0.000737438, 0.000197974, 0.000197974, 0.000197974
8544, 1,0.000388834, -0.000198564, 0.000135541, 1.17519, -12.3332, 0.000937981, 5.8303, 51.6736, 0, 0.000960665, 0.000459704, 0.000884126, 1.67919, 26.5334, 0, 0.000961057, 0.000318473, 0.000618099, 0.69063, 18.7273, 0, 0.000961179, -0.268458, -19.3545, -59.9772, -0.409438, -12.7026, -43.0699, 0.000412673, 3.15153E-05, -0.000874699, 0.000286936, 0.000286936, 0.000286936
8545, 1,0.000224986, -0.000325821, 0.000221953, 4.89125, -20.284, 0.000884696, 6.32023, 47.7542, 0, 0.00106113, 0.000330094, 0.000570792, 4.80796, 15.039, 0, 0.00106169, 0.000153024, 0.000186281, 6.97312, 2.06858, 0, 0.00106191, -0.287347, -18.6603, -26.1694, -0.265467, -8.59126, 2.65097, 0.000231267, -0.000127285, -0.000347946, 2.75486E-05, 2.75486E-05, 2.75486E-05
8546, 1,0.000241387, -0.000273599, 0.000185208, 1.9932, -17.0719, 0.000837705, 4.24667, 47.5037, 0, 0.00102769, 0.000336705, 0.00062831, 2.3821, 18.2623, 0, 0.00102818, 0.000148846, 0.000265306, 1.85562, 7.27381, 0, 0.00102836, -0.373214, -16.6809, -37.7327, -0.470746, -8.35812, -12.9926, 0.000280212, -3.87305E-05, -0.000537757, 0.000105239, 0.000105239, 0.000105239
8547, 1,0.000300779, -0.000228023, 0.000154308, 1.31619, -14.2174, 0.00083907, 4.07688, 47.7837, 0, 0.000994294, 0.000380811, 0.000727572, 1.72743, 21.7177, 0, 0.000994715, 0.000221214, 0.000422728, 0.966453, 12.5972, 0, 0.000994862, -0.364137, -17.3908, -47.3983, -0.529459, -10.3997, -26.8625, 0.000334791, -2.26732E-06, -0.000684882, 0.000187836, 0.000187836, 0.000187836
8548, 1,0.000372451, -0.000187802, 0.000128324, 1.06452, -11.66, 0.000884645, 5.61073, 48.5779, 0, 0.00096089, 0.000439373, 0.000845738, 1.54687, 25.4052, 0, 0.000961252, 0.00030612, 0.000594769, 0.604846, 18.0402, 0, 0.000961367, -0.26984, -19.2167, -56.7291, -0.41002, -12.5603, -41.1503, 0.000394883, 1.59581E-05, -0.000823046, 0.000276107, 0.000276107, 0.000276107
8549, 1,0.000216261, -0.000308165, 0.000210167, 5.23742, -19.1756, 0.000838041, 6.43733, 44.6404, 0, 0.00106134, 0.000313101, 0.00053274, 5.018, 13.7191, 0, 0.00106187, 0.000157819, 0.000181752, 7.67172, 1.48272, 0, 0.00106208, -0.281347, -18.3949, -22.4812, -0.261157, -8.47097, 4.28396, 0.000210586, -0.000143158, -0.000289977, 1.83744E-05, 1.83744E-05, 1.83744E-05
8550, 1,0.000226747, -0.000258624, 0.000175157, 1.98919, -16.1324, 0.000790846, 4.26042, 44.514, 0, 0.0010279, 0.000316762, 0.000588991, 2.35314, 17.0418, 0, 0.00102835, 0.000139924, 0.00024696, 1.90272, 6.6741, 0, 0.00102853, -0.366568, -16.405, -34.3539, -0.473021, -8.18202, -11.3673, 0.000261135, -5.27751E-05, -0.000484834, 9.57395E-05, 9.57395E-05, 9.57395E-05
8551, 1,0.000285265, -0.000215378, 0.000145793, 1.2431, -13.4248, 0.000790135, 3.97942, 44.809, 0, 0.000994442, 0.000360906, 0.000689342, 1.63974, 20.5655, 0, 0.000994834, 0.000210092, 0.0004017, 0.910951, 11.9669, 0, 0.000994973, -0.360399, -17.1613, -44.1748, -0.533791, -10.2394, -25.1276, 0.000316739, -1.62585E-05, -0.000634142, 0.000177829, 0.000177829, 0.000177829
8552, 1,0.000356389, -0.000177237, 0.000121272, 0.963367, -10.9974, 0.000835363, 5.54879, 45.5288, 0, 0.000961041, 0.000419456, 0.000807906, 1.42651, 24.2846, 0, 0.000961372, 0.000294011, 0.000571756, 0.526785, 17.3566, 0, 0.00096148, -0.2677, -19.0065, -53.5797, -0.407084, -12.3704, -39.2923, 0.000377284, 2.00329E-06, -0.000773309, 0.000265405, 0.000265405, 0.000265405
8553, 1,0.000209145, -0.000290709, 0.000198544, 5.64872, -18.0781, 0.000792167, 6.60003, 41.5147, 0, 0.00106163, 0.000297435, 0.00049622, 5.27987, 12.4149, 0, 0.00106214, 0.000164606, 0.000179349, 8.4363, 0.907927, 0, 0.00106233, -0.278962, -18.064, -18.9018, -0.260625, -8.31611, 5.85295, 0.000190078, -0.000157542, -0.000233924, 9.29744E-06, 9.29744E-06, 9.29744E-06
8554, 1,0.000212554, -0.000243799, 0.000165228, 2.00184, -15.2011, 0.000744367, 4.30129, 41.511, 0, 0.00102818, 0.000297322, 0.000550307, 2.34183, 15.8313, 0, 0.0010286, 0.000131473, 0.000229153, 1.96875, 6.08054, 0, 0.00102877, -0.361033, -16.068, -31.065, -0.475637, -7.97242, -9.79355, 0.000242193, -6.54998E-05, -0.000433527, 8.63314E-05, 8.63314E-05, 8.63314E-05
8555, 1,0.00027007, -0.000202881, 0.000137401, 1.18267, -12.6402, 0.000743033, 3.96559, 41.8376, 0, 0.000994719, 0.000341406, 0.000651623, 1.56701, 19.4193, 0, 0.000995081, 0.00019921, 0.000380966, 0.866372, 11.339, 0, 0.000995211, -0.35411, -16.8681, -41.0356, -0.534633, -10.0395, -23.4428, 0.000298834, -2.89045E-05, -0.000584994, 0.00016793, 0.00016793, 0.00016793
8556, 1,0.000340586, -0.000166869, 0.000114386, 0.868002, -10.3455, 0.000788714, 5.59082, 42.5077, 0, 0.000961279, 0.000399882, 0.000770576, 1.314, 23.1741, 0, 0.00096158, 0.000282088, 0.00054902, 0.453174, 16.6789, 0, 0.000961682, -0.264693, -18.7329, -50.5246, -0.403048, -12.1398, -37.4939, 0.000359861, -1.05193E-05, -0.000725344, 0.000254816, 0.000254816, 0.000254816
8557, 1,0.000204074, -0.000273464, 0.000187094, 6.14924, -16.992, 0.00074773, 6.82181, 38.4003, 0, 0.00106187, 0.000283468, 0.000461557, 5.61583, 11.1201, 0, 0.00106234, 0.000173536, 0.000179166, 9.27826, 0.337398, 0, 0.00106253, -0.274443, -17.6683, -15.4175, -0.257932, -8.12494, 7.37068, 0.000169763, -0.000170534, -0.000179609, 3.35663E-07, 3.35663E-07, 3.35663E-07
8558, 1,0.000198943, -0.000229134, 0.000155435, 2.03905, -14.2783, 0.00069884, 4.39338, 38.4989, 0, 0.00102839, 0.00027853, 0.000512382, 2.35653, 14.628, 0, 0.00102879, 0.000123632, 0.000212009, 2.06156, 5.49065, 0, 0.00102894, -0.354946, -15.6696, -27.8594, -0.477027, -7.72869, -8.26625, 0.000223376, -7.69294E-05, -0.000383757, 7.70084E-05, 7.70084E-05, 7.70084E-05
8559, 1,0.000255154, -0.000190533, 0.000129135, 1.13095, -11.8637, 0.000697279, 4.01544, 38.8658, 0, 0.000994893, 0.000322275, 0.000614389, 1.50568, 18.2812, 0, 0.000995225, 0.000188525, 0.000360494, 0.828509, 10.7159, 0, 0.000995348, -0.347882, -16.5166, -37.9793, -0.53476, -9.80401, -21.8088, 0.000281056, -4.02796E-05, -0.000537376, 0.000158123, 0.000158123, 0.000158123
8560, 1,0.000325044, -0.000156707, 0.000107674, 0.779879, -9.70452, 0.000743935, 5.70293, 39.5116, 0, 0.000961411, 0.00038066, 0.000733747, 1.21105, 22.0728, 0, 0.000961683, 0.000270354, 0.000526558, 0.385239, 16.0065, 0, 0.000961778, -0.260436, -18.3991, -47.5589, -0.39764, -11.8706, -35.7513, 0.000342609, -2.16936E-05, -0.00067905, 0.00024434, 0.00024434, 0.00024434
8561, 1,0.000201321, -0.000256435, 0.000175823, 6.74874, -15.9176, 0.000705261, 7.1281, 35.2971, 0, 0.00106217, 0.000271435, 0.000428984, 6.03567, 9.83521, 0, 0.00106261, 0.000184482, 0.000181085, 10.1918, -0.227623, 0, 0.00106278, -0.269362, -17.2129, -12.0233, -0.25498, -7.90162, 8.83946, 0.000149619, -0.000182221, -0.000126932, -8.53191E-06, -8.53191E-06, -8.53191E-06
8562, 1,0.00018597, -0.000214629, 0.000145779, 2.10289, -13.3641, 0.000654446, 4.53581, 35.4909, 0, 0.00102864, 0.000260429, 0.000475259, 2.39872, 13.4324, 0, 0.00102901, 0.00011649, 0.000195615, 2.18452, 4.90505, 0, 0.00102915, -0.348373, -15.216, -24.7328, -0.477197, -7.4546, -6.78335, 0.000204692, -8.71738E-05, -0.00033543, 6.77795E-05, 6.77795E-05, 6.77795E-05
8563, 1,0.000240556, -0.000178341, 0.000121006, 1.09094, -11.0954, 0.000652772, 4.11999, 35.8995, 0, 0.000995123, 0.000303563, 0.000577677, 1.45941, 17.1496, 0, 0.000995426, 0.000178068, 0.000340304, 0.79959, 10.0962, 0, 0.00099554, -0.340497, -16.1084, -34.9999, -0.533098, -9.53389, -20.2217, 0.000263403, -5.04421E-05, -0.0004912, 0.000148408, 0.000148408, 0.000148408
8564, 1,0.000309775, -0.000146767, 0.000101154, 0.700146, -9.07528, 0.000700881, 5.8818, 36.5356, 0, 0.000961632, 0.000361813, 0.000697434, 1.11953, 20.9801, 0, 0.000961875, 0.000258806, 0.000504362, 0.323487, 15.3391, 0, 0.000961963, -0.254863, -18.0086, -44.677, -0.390997, -11.5655, -34.0608, 0.000325518, -3.16041E-05, -0.00063432, 0.000233966, 0.000233966, 0.000233966
8565, 1,0.000201216, -0.000239625, 0.000164734, 7.46026, -14.855, 0.000664945, 7.52146, 32.2135, 0, 0.00106238, 0.000261651, 0.000398815, 6.55366, 8.5601, 0, 0.00106279, 0.00019729, 0.000184944, 11.1723, -0.787757, 0, 0.00106295, -0.263329, -16.7034, -8.71352, -0.25105, -7.64872, 10.263, 0.000129648, -0.000192712, -7.57835E-05, -1.72998E-05, -1.72998E-05, -1.72998E-05
8566, 1,0.000173742, -0.000200296, 0.00013627, 2.1988, -12.459, 0.000611471, 4.73809, 32.4926, 0, 0.00102885, 0.000243123, 0.000439033, 2.47384, 12.2436, 0, 0.00102919, 0.000110175, 0.000180096, 2.34384, 4.32302, 0, 0.00102932, -0.3411, -14.7098, -21.68, -0.476039, -7.15174, -5.34129, 0.00018613, -9.62903E-05, -0.000288466, 5.86357E-05, 5.86357E-05, 5.86357E-05
8567, 1,0.000226286, -0.000166317, 0.000113023, 1.06242, -10.336, 0.000609602, 4.27976, 32.944, 0, 0.000995308, 0.000285286, 0.000541507, 1.42826, 16.0251, 0, 0.000995581, 0.000167843, 0.000320405, 0.779184, 9.48065, 0, 0.000995687, -0.332693, -15.6482, -32.0944, -0.53022, -9.23234, -18.6794, 0.000245871, -5.94731E-05, -0.000446392, 0.000138782, 0.000138782, 0.000138782
8568, 1,0.000294755, -0.000137061, 9.48369E-05, 0.627764, -8.45833, 0.000659521, 6.12702, 33.5784, 0, 0.000961815, 0.000343317, 0.000661613, 1.03821, 19.8964, 0, 0.000962028, 0.000247426, 0.000482416, 0.267203, 14.6767, 0, 0.00096211, -0.248472, -17.5678, -41.8728, -0.383266, -11.2284, -32.4185, 0.000308584, -4.03778E-05, -0.000591028, 0.000223694, 0.000223694, 0.000223694
8569, 1,0.000204098, -0.000223058, 0.000153852, 8.29719, -13.8052, 0.000627275, 8.02621, 29.1481, 0, 0.0010627, 0.000254547, 0.000371472, 7.18928, 7.29394, 0, 0.00106308, 0.000211744, 0.000190523, 12.2133, -1.34329, 0, 0.00106323, -0.256308, -16.1417, -5.48383, -0.24644, -7.36785, 11.6442, 0.000109841, -0.000202048, -2.60987E-05, -2.59788E-05, -2.59788E-05, -2.59788E-05
8570, 1,0.000162375, -0.000186143, 0.000126918, 2.33209, -11.5634, 0.000570159, 5.00896, 29.5078, 0, 0.00102912, 0.000226715, 0.000403812, 2.5866, 11.062, 0, 0.00102943, 0.000104842, 0.000165607, 2.54624, 3.74475, 0, 0.00102955, -0.333276, -14.1565, -18.6963, -0.473656, -6.82336, -3.93725, 0.000167692, -0.000104383, -0.000242764, 4.95775E-05, 4.95775E-05, 4.95775E-05
8571, 1,0.000212339, -0.000154463, 0.000105189, 1.04541, -9.58554, 0.000567854, 4.49715, 30.0015, 0, 0.000995572, 0.000267438, 0.000505868, 1.41213, 14.9075, 0, 0.000995815, 0.000157851, 0.000300792, 0.767512, 8.86874, 0, 0.000995913, -0.324363, -15.1415, -29.2566, -0.525871, -8.90222, -17.1781, 0.000228458, -6.7485E-05, -0.000402834, 0.000129245, 0.000129245, 0.000129245
8572, 1,0.000279993, -0.000127608, 8.87439E-05, 0.563234, -7.85454, 0.000620057, 6.44998, 30.6374, 0, 0.000962042, 0.000325191, 0.000626299, 0.968155, 18.8212, 0, 0.000962227, 0.000236219, 0.000460721, 0.216543, 14.0195, 0, 0.000962302, -0.241586, -17.0804, -39.1417, -0.374833, -10.862, -30.8215, 0.000291796, -4.80908E-05, -0.000549084, 0.000213517, 0.000213517, 0.000213517
8573, 1,0.000210244, -0.000206736, 0.000143178, 9.26937, -12.7687, 0.000592581, 8.65548, 26.104, 0, 0.00106292, 0.000250556, 0.00034739, 7.96084, 6.03739, 0, 0.00106327, 0.000227624, 0.000197602, 13.3077, -1.89412, 0, 0.0010634, -0.249045, -15.5353, -2.32782, -0.241266, -7.06286, 12.9865, 9.01914E-05, -0.000210373, 2.22609E-05, -3.457E-05, -3.457E-05, -3.457E-05
8574, 1,0.000152039, -0.000172184, 0.000117736, 2.51103, -10.6779, 0.000530846, 5.36431, 26.5366, 0, 0.00102934, 0.000211363, 0.000369743, 2.74482, 9.88686, 0, 0.00102962, 0.000100694, 0.000152348, 2.80091, 3.16976, 0, 0.00102973, -0.324906, -13.5599, -15.7758, -0.469961, -6.47169, -2.56762, 0.000149368, -0.000111534, -0.000198224, 4.05991E-05, 4.05991E-05, 4.05991E-05
8575, 1,0.000198767, -0.000142802, 9.75303E-05, 1.04242, -8.84502, 0.000527917, 4.79218, 27.0697, 0, 0.000995756, 0.000250096, 0.000470828, 1.41504, 13.7958, 0, 0.000995971, 0.00014812, 0.00028149, 0.765558, 8.2603, 0, 0.00099606, -0.315254, -14.5907, -26.4816, -0.52022, -8.54578, -15.7149, 0.000211154, -7.45345E-05, -0.000360446, 0.000119789, 0.000119789, 0.000119789
8576, 1,0.000265488, -0.00011843, 8.28971E-05, 0.506901, -7.26485, 0.000582761, 6.86492, 27.711, 0, 0.000962176, 0.000307437, 0.000591489, 0.910053, 17.754, 0, 0.000962331, 0.000225177, 0.000439267, 0.171792, 13.3669, 0, 0.0009624, -0.233593, -16.5506, -36.4779, -0.365247, -10.4693, -29.2661, 0.000275156, -5.48341E-05, -0.000508385, 0.000203437, 0.000203437, 0.000203437
8577, 1,0.000219866, -0.000190689, 0.000132746, 10.386, -11.7464, 0.000561547, 9.44503, 23.0768, 0, 0.00106324, 0.000250233, 0.000327102, 8.8937, 4.78842, 0, 0.00106355, 0.000244701, 0.000205939, 14.4492, -2.44129, 0, 0.00106368, -0.240621, -14.8848, 0.760165, -0.235302, -6.73454, 14.2937, 7.06863E-05, -0.000217717, 6.93715E-05, -4.30849E-05, -4.30849E-05, -4.30849E-05
8578, 1,0.000142971, -0.000158439, 0.000108747, 2.74686, -9.80357, 0.000494008, 5.82703, 23.5785, 0, 0.00102962, 0.000197294, 0.000337049, 2.95949, 8.7179, 0, 0.00102986, 9.79911E-05, 0.000140579, 3.11911, 2.59794, 0, 0.00102997, -0.316058, -12.924, -12.9136, -0.465162, -6.09924, -1.2294, 0.000131151, -0.000117822, -0.000154755, 3.16944E-05, 3.16944E-05, 3.16944E-05
8579, 1,0.000185581, -0.000131349, 9.00603E-05, 1.05379, -8.1153, 0.000490071, 5.17651, 24.1511, 0, 0.000996019, 0.000233275, 0.000436405, 1.43742, 12.6906, 0, 0.000996204, 0.000138664, 0.000262509, 0.773635, 7.65528, 0, 0.000996285, -0.305706, -14.0015, -23.7646, -0.513134, -8.16611, -14.2866, 0.00019396, -8.07283E-05, -0.000319127, 0.000110417, 0.000110417, 0.000110417
8580, 1,0.000251235, -0.000109559, 7.73282E-05, 0.458285, -6.69093, 0.000548033, 7.38981, 24.8003, 0, 0.000962441, 0.000290064, 0.000557191, 0.863761, 16.6952, 0, 0.000962568, 0.000214293, 0.000418048, 0.132654, 12.7191, 0, 0.00096263, -0.225262, -15.9842, -33.8762, -0.354997, -10.0537, -27.7487, 0.000258653, -6.07174E-05, -0.000468821, 0.000193446, 0.000193446, 0.000193446
8581, 1,0.000233019, -0.00017494, 0.000122576, 11.6483, -10.7397, 0.00053482, 10.4226, 20.07, 0, 0.00106344, 0.000254091, 0.000311131, 10.0086, 3.54828, 0, 0.00106372, 0.00026276, 0.000215324, 15.6302, -2.98428, 0, 0.00106383, -0.232174, -14.1973, 3.78468, -0.228984, -6.38667, 15.5685, 5.13218E-05, -0.000224204, 0.000115341, -5.15247E-05, -5.15247E-05, -5.15247E-05
8582, 1,0.000135469, -0.000144933, 9.99737E-05, 3.05341, -8.94145, 0.000460207, 6.42305, 20.6343, 0, 0.00102983, 0.000184788, 0.000306009, 3.24379, 7.55506, 0, 0.00103005, 9.70353E-05, 0.000130601, 3.51351, 2.02913, 0, 0.00103014, -0.306771, -12.2535, -10.1048, -0.459145, -5.70866, 0.0804266, 0.000113039, -0.000123339, -0.000112261, 2.28632E-05, 2.28632E-05, 2.28632E-05
8583, 1,0.000172835, -0.000120135, 8.28123E-05, 1.08202, -7.39767, 0.000454889, 5.67872, 21.2436, 0, 0.00099618, 0.000217058, 0.000402671, 1.48341, 11.5909, 0, 0.000996336, 0.00012951, 0.000243872, 0.792674, 7.05331, 0, 0.000996409, -0.295656, -13.3767, -21.1002, -0.504974, -7.7653, -12.8897, 0.000176862, -8.61295E-05, -0.000278786, 0.000101114, 0.000101114, 0.000101114
8584, 1,0.000237251, -0.000101031, 7.20761E-05, 0.418447, -6.1343, 0.000516442, 8.05352, 21.9029, 0, 0.00096257, 0.0002731, 0.000523425, 0.831228, 15.6439, 0, 0.000962668, 0.000203572, 0.000397066, 0.100253, 12.076, 0, 0.000962723, -0.216208, -15.3843, -31.3313, -0.344042, -9.6176, -26.2663, 0.000242283, -6.58109E-05, -0.000430301, 0.000183542, 0.000183542, 0.000183542
8585, 1,0.000249605, -0.00015953, 0.000112712, 13.0537, -9.75053, 0.000513355, 11.6348, 17.0813, 0, 0.00106375, 0.00026262, 0.000299959, 11.3268, 2.31594, 0, 0.001064, 0.000281601, 0.000225551, 16.8439, -3.5236, 0, 0.0010641, -0.223019, -13.4753, 6.75045, -0.222063, -6.02084, 16.8137, 3.20961E-05, -0.000229889, 0.000160243, -5.98923E-05, -5.98923E-05, -5.98923E-05
8586, 1,0.000129954, -0.000131704, 9.14566E-05, 3.4501, -8.09345, 0.000430315, 7.19366, 17.704, 0, 0.00103009, 0.000174259, 0.000277032, 3.61744, 6.39797, 0, 0.00103028, 9.81747E-05, 0.00012276, 3.9985, 1.46316, 0, 0.00103036, -0.297292, -11.5524, -7.34421, -0.452297, -5.30238, 1.36521, 9.5022E-05, -0.000128166, -7.06462E-05, 1.40944E-05, 1.40944E-05, 1.40944E-05
8587, 1,0.00016058, -0.000109195, 7.58199E-05, 1.12921, -6.6939, 0.000423069, 6.33052, 18.3488, 0, 0.000996434, 0.000201518, 0.000369702, 1.55617, 10.4969, 0, 0.000996561, 0.000120694, 0.000225614, 0.823865, 6.4545, 0, 0.000996626, -0.285067, -12.7215, -18.4842, -0.49547, -7.34641, -11.5216, 0.000159866, -9.08362E-05, -0.000239337, 9.18894E-05, 9.18894E-05, 9.18894E-05
8588, 1,0.000223523, -9.28884E-05, 6.71834E-05, 0.386933, -5.59712, 0.000488657, 8.88743, 19.0193, 0, 0.000962834, 0.000256545, 0.000490186, 0.812332, 14.6, 0, 0.000962903, 0.000193001, 0.000376303, 0.0756262, 11.437, 0, 0.000962952, -0.206583, -14.7561, -28.8372, -0.332236, -9.16406, -24.8146, 0.00022604, -7.02215E-05, -0.00039271, 0.00017372, 0.00017372, 0.00017372
8589, 1,0.000269407, -0.000144507, 0.000103201, 14.5947, -8.78119, 0.000498344, 13.1394, 14.1085, 0, 0.00106396, 0.000276179, 0.000293939, 12.8639, 1.09136, 0, 0.00106418, 0.000301076, 0.000236467, 18.0854, -4.05946, 0, 0.00106427, -0.213737, -12.7244, 9.66405, -0.214857, -5.64002, 18.0333, 1.29961E-05, -0.000234888, 0.000204208, -6.81977E-05, -6.81977E-05, -6.81977E-05
8590, 1,0.000126948, -0.000118795, 8.32394E-05, 3.96061, -7.26159, 0.000405492, 8.19232, 14.7894, 0, 0.00103027, 0.000166241, 0.000250646, 4.10548, 5.24636, 0, 0.00103043, 0.000101737, 0.000117383, 4.58741, 0.899775, 0, 0.0010305, -0.287587, -10.825, -4.62647, -0.444469, -4.88281, 2.62796, 7.70955E-05, -0.00013239, -2.98131E-05, 5.38716E-06, 5.38716E-06, 5.38716E-06
8591, 1,0.000148892, -9.85791E-05, 6.91359E-05, 1.19862, -6.00633, 0.000395681, 7.18224, 15.4675, 0, 0.000996612, 0.000186772, 0.000337606, 1.66118, 9.40831, 0, 0.00099671, 0.000112251, 0.000207769, 0.86846, 5.85864, 0, 0.000996767, -0.274365, -12.0397, -15.9109, -0.485195, -6.91194, -10.1788, 0.000142955, -9.49292E-05, -0.000200672, 8.27263E-05, 8.27263E-05, 8.27263E-05
8592, 1,0.000210074, -8.51906E-05, 6.27113E-05, 0.364504, -5.08209, 0.000465676, 9.93988, 16.1482, 0, 0.000962994, 0.000240445, 0.000457521, 0.80918, 13.5632, 0, 0.000963034, 0.000182586, 0.000355768, 0.0605513, 10.8024, 0, 0.000963077, -0.196537, -14.1037, -26.3892, -0.319944, -8.69608, -23.3911, 0.000209918, -7.40304E-05, -0.000355958, 0.000163976, 0.000163976, 0.000163976
8593, 1,0.000292074, -0.000129942, 9.41149E-05, 16.2587, -7.83501, 0.000491482, 15.0158, 11.152, 0, 0.00106423, 0.000294889, 0.000293185, 14.6261, -0.1261, 0, 0.00106442, 0.000321037, 0.000247921, 19.3493, -4.59225, 0, 0.0010645, -0.204095, -11.9477, 12.5301, -0.20718, -5.24604, 19.23, -5.98335E-06, -0.000239264, 0.000247313, -7.64431E-05, -7.64431E-05, -7.64431E-05
8594, 1,0.000127112, -0.000106279, 7.53952E-05, 4.61459, -6.44929, 0.000387483, 9.50015, 11.8921, 0, 0.00103055, 0.000161482, 0.000227596, 4.74285, 4.09977, 0, 0.00103068, 0.000107989, 0.000114736, 5.29133, 0.338796, 0, 0.00103075, -0.277647, -10.0754, -1.94631, -0.435844, -4.45245, 3.87191, 5.92526E-05, -0.000136095, 1.03349E-05, -3.26555E-06, -3.26555E-06, -3.26555E-06
8595, 1,0.000137871, -8.83564E-05, 6.28291E-05, 1.29493, -5.3383, 0.0003742, 8.30119, 12.6027, 0, 0.000996885, 0.000172976, 0.000306536, 1.8057, 8.32477, 0, 0.000996954, 0.000104239, 0.000190389, 0.928939, 5.26548, 0, 0.000997004, -0.263608, -11.3354, -13.3753, -0.474125, -6.46429, -8.85803, 0.000126124, -9.84906E-05, -0.000162701, 7.36215E-05, 7.36215E-05, 7.36215E-05
8596, 1,0.000196902, -7.79987E-05, 5.87219E-05, 0.350481, -4.59216, 0.000448684, 11.265, 13.2921, 0, 0.000963226, 0.000224817, 0.000425442, 0.82206, 12.5338, 0, 0.000963238, 0.000172318, 0.000335451, 0.0535748, 10.1724, 0, 0.000963275, -0.186788, -13.432, -23.9826, -0.307725, -8.21678, -21.9928, 0.000193906, -7.73323E-05, -0.000319944, 0.000154304, 0.000154304, 0.000154304
8597, 1,0.000317204, -0.000115929, 8.55494E-05, 18.0306, -6.91642, 0.000494866, 17.3677, 8.20531, 0, 0.00106447, 0.00031861, 0.000297553, 16.6086, -1.33655, 0, 0.00106464, 0.000341365, 0.000259792, 20.6308, -5.12186, 0, 0.0010647, -0.194357, -11.1496, 15.3536, -0.199362, -4.84154, 20.4065, -2.48496E-05, -0.000243099, 0.000289651, -8.4634E-05, -8.4634E-05, -8.4634E-05
8598, 1,0.000131147, -9.42511E-05, 6.80196E-05, 5.44294, -5.66116, 0.00037847, 11.2159, 9.01781, 0, 0.00103078, 0.000160901, 0.000208797, 5.57178, 2.95818, 0, 0.00103088, 0.000117037, 0.000114921, 6.11515, -0.219914, 0, 0.00103093, -0.267858, -9.30762, 0.700934, -0.426688, -4.01359, 5.10001, 4.14847E-05, -0.000139361, 4.98885E-05, -1.18717E-05, -1.18717E-05, -1.18717E-05
8599, 1,0.00012767, -7.86233E-05, 5.6997E-05, 1.42508, -4.69435, 0.000360669, 9.78016, 9.75949, 0, 0.000997083, 0.000160361, 0.000276719, 2.0007, 7.24594, 0, 0.000997123, 9.67358E-05, 0.000173556, 1.00879, 4.6749, 0, 0.000997165, -0.252722, -10.6124, -10.8727, -0.46236, -6.00596, -7.55639, 0.000109369, -0.000101598, -0.000125337, 6.45707E-05, 6.45707E-05, 6.45707E-05
8600, 1,0.000184037, -7.13904E-05, 5.52936E-05, 0.346775, -4.13101, 0.0004392, 12.9322, 10.455, 0, 0.000963412, 0.000209728, 0.000394012, 0.854663, 11.5111, 0, 0.000963395, 0.000162204, 0.000315355, 0.0522362, 9.54648, 0, 0.000963426, -0.17652, -12.7442, -21.6125, -0.294882, -7.72822, -20.6163, 0.000178008, -8.01975E-05, -0.00028459, 0.000144706, 0.000144706, 0.000144706
8601, 1,0.000344407, -0.000102595, 7.76327E-05, 19.8955, -6.03164, 0.000510661, 20.3123, 5.24779, 0, 0.00106477, 0.000346968, 0.000306664, 18.7973, -2.54039, 0, 0.00106491, 0.000361982, 0.000271995, 21.9273, -5.6488, 0, 0.00106496, -0.184682, -10.3346, 18.1404, -0.191421, -4.42886, 21.5667, -4.36124E-05, -0.000246489, 0.000331331, -9.27789E-05, -9.27789E-05, -9.27789E-05
8602, 1,0.000139672, -8.28424E-05, 6.12452E-05, 6.47294, -4.90342, 0.000381116, 13.4575, 6.17647, 0, 0.00103104, 0.000165546, 0.000195293, 6.64047, 1.82107, 0, 0.00103111, 0.000128792, 0.000117851, 7.05654, -0.77665, 0, 0.00103115, -0.258007, -8.52558, 3.32037, -0.416826, -3.56836, 6.31514, 2.37873E-05, -0.000142271, 8.89425E-05, -2.0433E-05, -2.0433E-05, -2.0433E-05
8603, 1,0.000118484, -6.95051E-05, 5.17651E-05, 1.59821, -4.08052, 0.00035763, 11.7406, 6.93625, 0, 0.000997336, 0.000149235, 0.000248462, 2.26063, 6.17184, 0, 0.000997348, 8.98419E-05, 0.000157371, 1.11267, 4.08687, 0, 0.000997382, -0.241954, -9.87488, -8.39869, -0.449975, -5.53949, -6.27114, 9.26838E-05, -0.000104335, -8.84894E-05, 5.5571E-05, 5.5571E-05, 5.5571E-05
8604, 1,0.000171479, -6.544E-05, 5.2502E-05, 0.352794, -3.70221, 0.000438863, 15.0102, 7.64821, 0, 0.000963653, 0.000195216, 0.000363264, 0.908288, 10.4951, 0, 0.000963608, 0.00015223, 0.000295466, 0.0532262, 8.92462, 0, 0.000963633, -0.166356, -12.0449, -19.274, -0.281923, -7.23332, -19.2586, 0.000162213, -8.27158E-05, -0.000249793, 0.000135174, 0.000135174, 0.000135174
8605, 1,0.0003733, -9.01157E-05, 7.05406E-05, 21.8382, -5.18897, 0.000540989, 23.9509, 2.27806, 0, 0.00106496, 0.000379407, 0.000319954, 21.1698, -3.73826, 0, 0.00106507, 0.000382807, 0.000284445, 23.2356, -6.17348, 0, 0.00106511, -0.174641, -9.50614, 20.8956, -0.183011, -4.00997, 22.7134, -6.2273E-05, -0.000249506, 0.00037244, -0.000100878, -0.000100878, -0.000100878
8606, 1,0.000153012, -7.22379E-05, 5.52579E-05, 7.7192, -4.18493, 0.000398568, 16.3871, 3.34937, 0, 0.00103122, 0.000176379, 0.000188045, 7.99279, 0.688403, 0, 0.00103127, 0.000142993, 0.000123264, 8.10607, -1.33138, 0, 0.0010313, -0.248253, -7.73327, 5.91631, -0.406412, -3.11922, 7.51978, 6.15563E-06, -0.000144904, 0.000127581, -2.89532E-05, -2.89532E-05, -2.89532E-05
8607, 1,0.000110616, -6.11686E-05, 4.73015E-05, 1.82889, -3.50475, 0.000368006, 14.3184, 4.13594, 0, 0.000997522, 0.000140062, 0.000222225, 2.60802, 5.102, 0, 0.000997507, 8.37143E-05, 0.000141991, 1.24826, 3.50111, 0, 0.000997533, -0.231071, -9.12636, -5.94858, -0.436856, -5.06712, -4.99936, 7.60655E-05, -0.000106772, -5.20783E-05, 4.66202E-05, 4.66202E-05, 4.66202E-05
8608, 1,0.000159261, -6.02224E-05, 5.04237E-05, 0.370256, -3.30926, 0.000449332, 17.5669, 4.88652, 0, 0.000963835, 0.000181373, 0.000333286, 0.987586, 9.48524, 0, 0.000963764, 0.0001424, 0.000275785, 0.055679, 8.30657, 0, 0.000963782, -0.156058, -11.3374, -16.9623, -0.268724, -6.7344, -17.9166, 0.000146517, -8.49547E-05, -0.000215475, 0.000125706, 0.000125706, 0.000125706
8609, 1,0.000403549, -7.87131E-05, 6.44958E-05, 23.8444, -4.39903, 0.000587402, 28.3601, -0.708286, 0, 0.00106525, 0.000415298, 0.00033679, 23.6999, -4.93012, 0, 0.00106533, 0.000403781, 0.000297081, 24.5529, -6.69583, 0, 0.00106536, -0.16481, -8.6685, 23.6237, -0.1746, -3.58717, 23.8493, -8.08434E-05, -0.000252236, 0.000413075, -0.000108939, -0.000108939, -0.000108939
8610, 1,0.000171061, -6.26782E-05, 5.02987E-05, 9.1784, -3.51717, 0.000433688, 20.1578, 0.512024, 0, 0.00103148, 0.000193957, 0.000187604, 9.65476, -0.440271, 0, 0.0010315, 0.000159277, 0.000130795, 9.25018, -1.88448, 0, 0.00103152, -0.238548, -6.93448, 8.49384, -0.395396, -2.66819, 8.71702, -1.14169E-05, -0.000147339, 0.000165899, -3.74372E-05, -3.74372E-05, -3.74372E-05
8611, 1,0.00010448, -5.38124E-05, 4.38049E-05, 2.13724, -2.97652, 0.000394464, 17.6342, 1.36531, 0, 0.000997763, 0.000133484, 0.000198647, 3.07402, 4.03631, 0, 0.000997719, 7.85634E-05, 0.000127629, 1.42572, 2.91753, 0, 0.000997737, -0.220366, -8.37077, -3.5178, -0.423246, -4.59118, -3.73815, 5.95055E-05, -0.000108987, -1.60158E-05, 3.77108E-05, 3.77108E-05, 3.77108E-05
8612, 1,0.000147415, -5.57973E-05, 4.91188E-05, 0.400389, -2.955, 0.00047182, 20.6465, 2.18683, 0, 0.000964053, 0.000168306, 0.000304183, 1.09742, 8.48146, 0, 0.000963955, 0.000132711, 0.000256308, 0.0591975, 7.69219, 0, 0.000963967, -0.145679, -10.6257, -14.673, -0.255267, -6.23393, -16.5874, 0.000130916, -8.69891E-05, -0.000181555, 0.000116299, 0.000116299, 0.000116299
8613, 1,0.000434871, -6.86544E-05, 5.97671E-05, 25.9021, -3.67456, 0.000650208, 33.5684, -3.72906, 0, 0.00106546, 0.000454019, 0.000356545, 26.3609, -6.11659, 0, 0.0010655, 0.000424854, 0.000309851, 25.8772, -7.21625, 0, 0.00106552, -0.154868, -7.82505, 26.3297, -0.165931, -3.16224, 24.9769, -9.93267E-05, -0.000254758, 0.000453327, -0.000116965, -0.000116965, -0.000116965
8614, 1,0.000193308, -5.44501E-05, 4.66556E-05, 10.8294, -2.91384, 0.000487707, 24.8312, -2.34011, 0, 0.00103168, 0.00021817, 0.000193857, 11.6224, -1.56525, 0, 0.00103167, 0.000177256, 0.000140055, 10.4733, -2.43609, 0, 0.00103168, -0.229057, -6.13305, 11.0578, -0.383969, -2.21755, 9.90979, -2.89387E-05, -0.000149656, 0.000203987, -4.58919E-05, -4.58919E-05, -4.58919E-05
8615, 1,0.000100679, -4.76458E-05, 4.14858E-05, 2.55297, -2.50578, 0.000438448, 21.7556, -1.37504, 0, 0.000997951, 0.000130399, 0.000178624, 3.70318, 2.97446, 0, 0.000997881, 7.47029E-05, 0.000114596, 1.66053, 2.33597, 0, 0.000997891, -0.209659, -7.61174, -1.10197, -0.409026, -4.11411, -2.48479, 4.30024E-05, -0.00011105, 1.97764E-05, 2.8843E-05, 2.8843E-05, 2.8843E-05
8616, 1,0.000135994, -5.21969E-05, 4.86202E-05, 0.445354, -2.64092, 0.000506631, 24.2508, -0.434365, 0, 0.000964246, 0.000156175, 0.00027611, 1.24526, 7.48357, 0, 0.000964122, 0.000123167, 0.000237038, 0.0634159, 7.08141, 0, 0.000964128, -0.135424, -9.91356, -12.4017, -0.241793, -5.73463, -15.2678, 0.000115404, -8.88884E-05, -0.000147954, 0.000106948, 0.000106948, 0.000106948
8617, 1,0.000467036, -6.02174E-05, 5.66333E-05, 28.0007, -3.02879, 0.000728747, 39.5506, -6.79127, 0, 0.00106575, 0.000495007, 0.000378652, 29.1278, -7.2978, 0, 0.00106575, 0.000445993, 0.000322718, 27.2067, -7.73476, 0, 0.00106576, -0.145117, -6.97963, 29.0182, -0.157272, -2.73735, 26.0989, -0.000117732, -0.000257155, 0.00049329, -0.00012496, -0.00012496, -0.00012496
8618, 1,0.000219016, -4.78339E-05, 4.46095E-05, 12.6404, -2.38823, 0.000559653, 30.3665, -5.21315, 0, 0.00103199, 0.000248269, 0.000206051, 13.8627, -2.68685, 0, 0.00103194, 0.000196571, 0.000150679, 11.76, -2.98641, 0, 0.00103195, -0.219674, -5.33253, 13.6128, -0.372077, -1.76933, 11.1006, -4.64125E-05, -0.000151929, 0.000241928, -5.4319E-05, -5.4319E-05, -5.4319E-05
8619, 1,0.000100013, -4.28346E-05, 4.05105E-05, 3.11678, -2.10036, 0.000499167, 26.6425, -4.08198, 0, 0.000998227, 0.000131954, 0.000163297, 4.55333, 1.91608, 0, 0.000998129, 7.25588E-05, 0.000103319, 1.97422, 1.75618, 0, 0.000998132, -0.199135, -6.85253, 1.30343, -0.394431, -3.63778, -1.23633, 2.65467E-05, -0.000113027, 5.53789E-05, 2.00075E-05, 2.00075E-05, 2.00075E-05
8620, 1,0.00012507, -4.94157E-05, 4.89237E-05, 0.508206, -2.36669, 0.000552918, 28.3305, -2.96577, 0, 0.000964506, 0.000145199, 0.000249282, 1.44148, 6.49129, 0, 0.000964358, 0.000113775, 0.000217981, 0.0684316, 6.47403, 0, 0.000964358, -0.125258, -9.20426, -10.1443, -0.228254, -5.23852, -13.9553, 9.99764E-05, -9.07101E-05, -0.000114607, 9.76508E-05, 9.76508E-05, 9.76508E-05
8621, 1,0.000499859, 5.70097E-05, 5.53165E-05, 30.1318, 2.79886, 0.000821479, 46.2386, -9.89996, 0, 0.00106596, 0.000537789, 0.000402632, 31.9794, -8.4742, 0, 0.00106594, 0.000467174, 0.000335655, 28.5401, -8.25167, 0, 0.00106593, -0.135404, -6.13589, 31.6939, -0.148476, -2.31441, 27.2179, -0.000136062, -0.000259512, 0.00053306, -0.000132928, -0.000132928, -0.000132928
8622, 1,0.000247423, 4.56735E-05, 4.43422E-05, 14.5778, 2.2756, 0.00064683, 36.6379, -8.10844, 0, 0.00103217, 0.000283162, 0.000223089, 16.3263, -3.80525, 0, 0.0010321, 0.000216918, 0.000162364, 13.0972, -3.53555, 0, 0.00103209, -0.210559, -4.53672, 16.163, -0.359892, -1.32571, 12.2922, -6.38443E-05, -0.000154235, 0.000279809, -6.27236E-05, -6.27236E-05, -6.27236E-05
8623, 1,0.000103438, 4.24431E-05, 4.09425E-05, 3.87828, 2.14089, 0.000573908, 32.1653, -6.75371, 0, 0.000998406, 0.000139387, 0.000153904, 5.68783, 0.86116, 0, 0.000998282, 7.2688E-05, 9.43531E-05, 2.3957, 1.17815, 0, 0.000998277, -0.188828, -6.09695, 3.70229, -0.379465, -3.16464, 0.0096618, 1.01382E-05, -0.00011499, 9.08641E-05, 1.12051E-05, 1.12051E-05, 1.12051E-05
8624, 1,0.000114753, 5.25628E-05, 4.99869E-05, 0.59356, 2.64417, 0.000608876, 32.7949, -5.40101, 0, 0.000964694, 0.000135691, 0.00022401, 1.70132, 5.5043, 0, 0.000964523, 0.000104549, 0.000199148, 0.0743242, 5.86983, 0, 0.000964518, -0.115143, -8.50079, -7.89698, -0.214676, -4.74759, -12.6472, 8.46307E-05, -9.25095E-05, -8.14504E-05, 8.84035E-05, 8.84035E-05, 8.84035E-05
8625, 1,0.000533189, 6.28433E-05, 5.58973E-05, 32.2882, 3.3202, 0.000926373, 53.5368, -13.0551, 0, 0.00106623, 0.000581968, 0.00042808, 34.8974, -9.64628, 0, 0.00106617, 0.000488373, 0.000348635, 29.8762, -8.76726, 0, 0.00106616, -0.125623, -5.29696, 34.3614, -0.139462, -1.89502, 28.3363, -0.000154323, -0.000261901, 0.000572724, -0.000140871, -0.000140871, -0.000140871
8626, 1,0.000277861, 5.17203E-05, 4.5847E-05, 16.6113, 2.77413, 0.000745899, 43.4888, -11.0267, 0, 0.00103245, 0.000321728, 0.000243849, 18.962, -4.92071, 0, 0.00103234, 0.000238055, 0.000174863, 14.4737, -4.08367, 0, 0.00103233, -0.201775, -3.74918, 18.7131, -0.347468, -0.888713, 13.4872, -8.12379E-05, -0.000156644, 0.000317707, -7.11081E-05, -7.11081E-05, -7.11081E-05
8627, 1,0.00011185, 4.80215E-05, 4.2707E-05, 4.88498, 2.58311, 0.000659183, 38.1592, -9.39038, 0, 0.000998669, 0.000153642, 0.000151382, 7.15531, -0.1907, 0, 0.00099852, 7.57201E-05, 8.83233E-05, 2.9589, 0.60158, 0, 0.000998507, -0.178921, -5.34796, 6.09898, -0.364362, -2.69647, 1.25609, -6.23194E-06, -0.000117, 0.000126308, 2.42739E-06, 2.42739E-06, 2.42739E-06
8628, 1,0.000105198, 5.73639E-05, 5.1737E-05, 0.707898, 3.01381, 0.000672282, 37.5383, -7.73967, 0, 0.00096495, 0.000128091, 0.000200733, 2.04646, 4.5227, 0, 0.000964758, 9.55059E-05, 0.000180559, 0.0810369, 5.26885, 0, 0.000964746, -0.105366, -7.80662, -5.65613, -0.201303, -4.26419, -11.341, 6.93626E-05, -9.43486E-05, -4.84186E-05, 7.92024E-05, 7.92024E-05, 7.92024E-05
8629, 1,0.000566903, 7.04515E-05, 5.82765E-05, 34.4638, 3.925, 0.00104123, 61.3382, -16.2518, 0, 0.00106639, 0.000627225, 0.000454678, 37.8665, -10.814, 0, 0.00106629, 0.000509573, 0.000361638, 31.2137, -9.28149, 0, 0.00106627, -0.116054, -4.46675, 37.0249, -0.130446, -1.4813, 29.4562, -0.000172519, -0.000264403, 0.000612366, -0.000148791, -0.000148791, -0.000148791
8630, 1,0.000309806, 5.93297E-05, 4.8927E-05, 18.7173, 3.34639, 0.000853768, 50.7724, -13.9669, 0, 0.00103263, 0.000363017, 0.000267371, 21.7263, -6.03376, 0, 0.00103249, 0.000259798, 0.000187986, 15.8813, -4.63111, 0, 0.00103247, -0.193396, -2.97306, 21.2677, -0.33495, -0.460139, 14.6884, -9.86011E-05, -0.000159224, 0.000355707, -7.94789E-05, -7.94789E-05, -7.94789E-05
8631, 1,0.000125715, 5.47407E-05, 4.56221E-05, 6.1612, 3.07896, 0.000751825, 44.4762, -11.9939, 0, 0.000998867, 0.000174906, 0.000155914, 8.96416, -1.23984, 0, 0.000998692, 8.22063E-05, 8.57781E-05, 3.69422, 0.0262783, 0, 0.000998672, -0.169447, -4.60879, 8.49774, -0.349193, -2.23529, 2.50565, -2.25679E-05, -0.000119122, 0.000161787, -6.32868E-06, -6.32868E-06, -6.32868E-06
8632, 1,9.66443E-05, 6.27436E-05, 5.40818E-05, 0.86194, 3.4101, 0.000741047, 42.4669, -9.98853, 0, 0.000965142, 0.000123022, 0.00018007, 2.50918, 3.54618, 0, 0.00096493, 8.66813E-05, 0.000162247, 0.0888932, 4.67088, 0, 0.000964912, -0.0958231, -7.12409, -3.41864, -0.18809, -3.78992, -10.0346, 5.41704E-05, -9.62752E-05, -1.54576E-05, 7.00461E-05, 7.00461E-05, 7.00461E-05
8633, 1,0.000600898, 7.95891E-05, 6.22078E-05, 36.6532, 4.6015, 0.00116384, 69.5335, -19.4839, 0, 0.00106666, 0.000673297, 0.000482159, 40.8739, -11.9774, 0, 0.00106653, 0.000530753, 0.000374645, 32.5512, -9.79417, 0, 0.00106649, -0.106899, -3.64865, 39.6879, -0.121654, -1.07516, 30.5793, -0.000190655, -0.00026708, 0.000652053, -0.000156691, -0.000156691, -0.000156691
8634, 1,0.000342863, 6.82007E-05, 5.32808E-05, 20.8773, 3.97798, 0.00096794, 58.3663, -16.9227, 0, 0.00103287, 0.000406293, 0.000292913, 24.5848, -7.14464, 0, 0.0010327, 0.000282006, 0.000201587, 17.3133, -5.17803, 0, 0.00103267, -0.185677, -2.21181, 23.8314, -0.322593, -0.0419413, 15.8986, -0.000115942, -0.000162044, 0.000393889, -8.78431E-05, -8.78431E-05, -8.78431E-05
8635, 1,0.000144793, 6.23719E-05, 4.94586E-05, 7.69238, 3.61748, 0.00084943, 51.0047, -14.5668, 0, 0.0009991, 0.000202463, 0.000166781, 11.0755, -2.28619, 0, 0.000998901, 9.23814E-05, 8.69503E-05, 4.61426, -0.547709, 0, 0.000998873, -0.160863, -3.88257, 10.902, -0.334338, -1.78304, 3.7605, -3.88768E-05, -0.000121419, 0.000197367, -1.50691E-05, -1.50691E-05, -1.50691E-05
8636, 1,8.94339E-05, 6.86066E-05, 5.69262E-05, 1.07159, 3.82846, 0.000813604, 47.5149, -12.1586, 0, 0.000965395, 0.000121297, 0.000162833, 3.13324, 2.57485, 0, 0.000965164, 7.81052E-05, 0.000144244, 0.0981997, 4.07593, 0, 0.000965141, -0.086825, -6.45664, -1.18109, -0.175239, -3.327, -8.72556, 3.90499E-05, -9.83598E-05, 1.75055E-05, 6.09311E-05, 6.09311E-05, 6.09311E-05
8637, 1,0.000635098, 8.99528E-05, 6.73864E-05, 38.8536, 5.33528, 0.00129216, 78.0145, -22.7363, 0, 0.00106689, 0.000719989, 0.000510318, 43.9111, -13.1376, 0, 0.00106672, 0.000551902, 0.000387639, 33.8889, -10.3061, 0, 0.00106667, -0.0974996, -2.84536, 42.3557, -0.112564, -0.678002, 31.7089, -0.000208734, -0.000269993, 0.000691866, -0.000164572, -0.000164572, -0.000164572
8638, 1,0.000376722, 7.80238E-05, 5.85986E-05, 23.0766, 4.65413, 0.00108658, 66.1786, -19.8877, 0, 0.00103312, 0.000450989, 0.000319911, 27.5108, -8.25346, 0, 0.00103292, 0.000304557, 0.000215546, 18.7639, -5.72446, 0, 0.00103288, -0.178496, -1.46846, 26.4073, -0.310261, 0.364182, 17.1195, -0.000133259, -0.000165161, 0.000432311, -9.61978E-05, -9.61978E-05, -9.61978E-05
8639, 1,0.000168268, 7.06966E-05, 5.39978E-05, 9.43416, 4.18834, 0.000950423, 57.6718, -17.1109, 0, 0.000999372, 0.000235072, 0.000182737, 13.4252, -3.33036, 0, 0.000999149, 0.000106043, 9.16343E-05, 5.70697, -1.12081, 0, 0.000999113, -0.152932, -3.17188, 13.3159, -0.319684, -1.34131, 5.02341, -5.51622E-05, -0.000123949, 0.000233122, -2.37975E-05, -2.37975E-05, -2.37975E-05
8640, 1,8.41083E-05, 7.48584E-05, 6.01751E-05, 1.36444, 4.26447, 0.000888885, 52.6448, -14.2672, 0, 0.000965664, 0.000123926, 0.000150028, 3.97558, 1.60823, 0, 0.000965415, 6.9852E-05, 0.000126623, 0.114167, 3.48376, 0, 0.000965386, -0.0781053, -5.80551, 1.05893, -0.162684, -2.87641, -7.4122, 2.39996E-05, -0.000100639, 5.05168E-05, 5.18551E-05, 5.18551E-05, 5.18551E-05
8641, 1,0.000669445, 0.000101253, 7.35221E-05, 41.062, 6.11245, 0.00142452, 86.6954, -25.9984, 0, 0.00106711, 0.000767148, 0.000539, 46.9707, -14.2941, 0, 0.0010669, 0.000573013, 0.00040061, 35.2264, -10.8169, 0, 0.00106684, -0.0886394, -2.06176, 45.0326, -0.103738, -0.292662, 32.8472, -0.000226764, -0.000273217, 0.00073188, -0.000172439, -0.000172439, -0.000172439
8642, 1,0.000411172, 8.85406E-05, 6.46212E-05, 25.3051, 5.36257, 0.00120856, 74.1422, -22.8433, 0, 0.00103334, 0.000496714, 0.000347969, 30.4859, -9.36051, 0, 0.00103311, 0.000327374, 0.000229782, 20.2293, -6.2706, 0, 0.00103306, -0.172029, -0.746143, 28.9997, -0.298148, 0.756474, 18.3535, -0.00015056, -0.000168637, 0.000471048, -0.00010455, -0.00010455, -0.00010455
8643, 1,0.000195106, 7.95323E-05, 5.90577E-05, 11.3325, 4.78279, 0.00105386, 64.4335, -19.6274, 0, 0.000999585, 0.000271428, 0.000202476, 15.9476, -4.3721, 0, 0.000999338, 0.000122641, 9.92785E-05, 6.94123, -1.6929, 0, 0.000999294, -0.146017, -2.47993, 15.7422, -0.305482, -0.912034, 6.29622, -7.1428E-05, -0.000126777, 0.000269116, -3.25176E-05, -3.25176E-05, -3.25176E-05
8644, 1,8.14418E-05, 8.14177E-05, 6.37479E-05, 1.78343, 4.71415, 0.000966278, 57.8391, -16.3292, 0, 0.000965855, 0.000131905, 0.000142651, 5.09281, 0.646732, 0, 0.000965589, 6.20074E-05, 0.000109473, 0.159156, 2.8945, 0, 0.000965554, -0.0701119, -5.17411, 3.30403, -0.150622, -2.44028, -6.09259, 9.0166E-06, -0.000103185, 8.36446E-05, 4.28156E-05, 4.28156E-05, 4.28156E-05
8645, 1,0.000703871, 0.000113241, 8.03653E-05, 43.2763, 6.92135, 0.00155958, 95.5152, -29.2749, 0, 0.00106736, 0.000814627, 0.000568051, 50.0467, -15.4481, 0, 0.00106712, 0.000594065, 0.000413534, 36.5638, -11.3275, 0, 0.00106705, -0.0794615, -1.29901, 47.7228, -0.0946511, 0.0802942, 33.9967, -0.000244748, -0.000276776, 0.000772145, -0.000180295, -0.000180295, -0.000180295
8646, 1,0.000446052, 9.9553E-05, 7.11501E-05, 27.5554, 6.09391, 0.00133292, 82.1947, -25.7666, 0, 0.00103359, 0.00054318, 0.000376792, 33.4964, -10.4664, 0, 0.00103333, 0.000350391, 0.000244231, 21.7062, -6.81679, 0, 0.00103327, -0.166071, -0.0468416, 31.612, -0.286111, 1.13395, 19.6025, -0.000167852, -0.000172521, 0.000510164, -0.000112904, -0.000112904, -0.000112904
8647, 1,0.000224375, 8.87401E-05, 6.44973E-05, 13.3414, 5.39437, 0.00115908, 71.2651, -22.1243, 0, 0.000999847, 0.00031045, 0.000224916, 18.5909, -5.41228, 0, 0.000999576, 0.000141507, 0.000109219, 8.28162, -2.26448, 0, 0.000999524, -0.139703, -1.80847, 18.185, -0.291474, -0.496414, 7.58134, -8.768E-05, -0.000129951, 0.000305417, -4.12325E-05, -4.12325E-05, -4.12325E-05
8648, 1,8.25092E-05, 8.8214E-05, 6.75726E-05, 2.39521, 5.1743, 0.00104535, 63.09, -18.3611, 0, 0.000966124, 0.000145893, 0.000141355, 6.52078, -0.310626, 0, 0.000965841, 5.47386E-05, 9.29616E-05, 0.224395, 2.30757, 0, 0.0009658, -0.0621894, -4.56303, 5.5571, -0.138721, -2.01923, -4.76477, -5.90145E-06, -0.000106032, 0.000116941, 3.38105E-05, 3.38105E-05, 3.38105E-05
8649, 1,0.000738347, 0.000125733, 8.77327E-05, 45.4946, 7.753, 0.00169652, 104.419, -32.5446, 0, 0.00106755, 0.000862342, 0.000597391, 53.1345, -16.5986, 0, 0.00106727, 0.000615059, 0.000426413, 37.9009, -11.837, 0, 0.00106719, -0.0708774, -0.563004, 50.4298, -0.0858772, 0.437594, 35.1592, -0.000262688, -0.00028076, 0.000812735, -0.000188141, -0.000188141, -0.000188141
8650, 1,0.000481257, 0.00011092, 7.80444E-05, 29.8219, 6.84139, 0.00145872, 90.2956, -28.663, 0, 0.00103377, 0.00059019, 0.000406188, 36.5328, -11.571, 0, 0.00103349, 0.000373568, 0.000258851, 23.1924, -7.36307, 0, 0.00103342, -0.160819, 0.625649, 34.2481, -0.274286, 1.49447, 20.869, -0.000185139, -0.000176883, 0.000549734, -0.000121264, -0.000121264, -0.000121264
8651, 1,0.000255367, 9.82183E-05, 7.02153E-05, 15.4262, 6.01814, 0.00126552, 78.1392, -24.6009, 0, 0.00100005, 0.000351348, 0.000249268, 21.317, -6.45044, 0, 0.000999756, 0.000162048, 0.000120861, 9.69774, -2.8353, 0, 0.000999697, -0.134673, -1.16117, 20.6472, -0.27809, -0.09666, 8.88066, -0.000103927, -0.00013354, 0.000342095, -4.99486E-05, -4.99486E-05, -4.99486E-05
8652, 1,8.85178E-05, 9.51919E-05, 7.15951E-05, 3.27885, 5.64212, 0.00112578, 68.3867, -20.3698, 0, 0.000966342, 0.000165879, 0.000146132, 8.25082, -1.26307, 0, 0.000966042, 4.8332E-05, 7.73811E-05, 0.316208, 1.72331, 0, 0.000965995, -0.0551474, -3.97593, 7.82028, -0.127382, -1.61549, -3.42706, -2.07599E-05, -0.00010925, 0.000150469, 2.48357E-05, 2.48357E-05, 2.48357E-05
8653, 1,0.000772816, 0.000138582, 9.54769E-05, 47.7151, 8.60056, 0.00183472, 113.372, -35.7991, 0, 0.00106782, 0.000910184, 0.000626898, 56.2299, -17.7469, 0, 0.0010675, 0.00063597, 0.000439218, 39.2376, -12.3464, 0, 0.00106741, -0.0621051, 0.145962, 53.1569, -0.076915, 0.779364, 36.3368, -0.000280588, -0.000285182, 0.000853687, -0.00019598, -0.00019598, -0.00019598
8654, 1,0.00051668, 0.000122534, 8.51987E-05, 32.0997, 7.59993, 0.00158522, 98.4171, -31.5432, 0, 0.00103405, 0.00063757, 0.000435987, 39.5868, -12.6744, 0, 0.00103373, 0.000396854, 0.000273599, 24.6854, -7.90939, 0, 0.00103365, -0.156429, 1.26934, 36.9102, -0.262841, 1.83685, 22.1542, -0.000202424, -0.000181757, 0.000589794, -0.000129633, -0.000129633, -0.000129633
8655, 1,0.000287546, 0.000107886, 7.61313E-05, 17.5624, 6.65036, 0.00137262, 85.0309, -27.0599, 0, 0.00100031, 0.000393535, 0.000274947, 24.0991, -7.4873, 0, 0.000999996, 0.00018378, 0.000133726, 11.1662, -3.40582, 0, 0.00099993, -0.130273, -0.538974, 23.1312, -0.265, 0.286545, 10.1959, -0.000120166, -0.000137572, 0.000379189, -5.86669E-05, -5.86669E-05, -5.86669E-05
8656, 1,0.000100307, 0.000102299, 7.57607E-05, 4.48537, 6.11531, 0.00120711, 73.7147, -22.363, 0, 0.000966612, 0.000191128, 0.000156238, 10.2343, -2.21172, 0, 0.000966296, 4.33639E-05, 6.3313E-05, 0.460367, 1.14117, 0, 0.000966244, -0.0482172, -3.41184, 10.0952, -0.116303, -1.22897, -2.07825, -3.55611E-05, -0.000112835, 0.000184246, 1.58885E-05, 1.58885E-05, 1.58885E-05
8657, 1,0.000807269, 0.000151691, 0.0001035, 49.9373, 9.45939, 0.00197371, 122.354, -39.0402, 0, 0.001068, 0.000958112, 0.000656531, 59.3307, -18.8928, 0, 0.00106765, 0.00065681, 0.000451957, 40.5742, -12.8555, 0, 0.00106755, -0.0538614, 0.824231, 55.9081, -0.0683071, 1.10362, 37.5312, -0.000298461, -0.000290108, 0.000895076, -0.000203821, -0.000203821, -0.000203821
8658, 1,0.000552262, 0.000134324, 9.25396E-05, 34.3862, 8.36622, 0.00171199, 106.541, -34.4085, 0, 0.00103424, 0.000685214, 0.000466084, 42.6537, -13.7773, 0, 0.00103389, 0.000420225, 0.000288452, 26.1843, -8.4562, 0, 0.0010338, -0.152652, 1.88256, 39.6021, -0.251712, 2.16015, 23.4601, -0.000219716, -0.000187183, 0.000630406, -0.000138017, -0.000138017, -0.000138017
8659, 1,0.000320566, 0.000117691, 8.21927E-05, 19.734, 7.28846, 0.0014801, 91.9298, -29.5043, 0, 0.00100053, 0.000436632, 0.000301581, 26.9199, -8.52261, 0, 0.00100019, 0.000206369, 0.000147482, 12.6715, -3.97587, 0, 0.00100011, -0.127125, 0.0547704, 25.6402, -0.252656, 0.651073, 11.5292, -0.000136409, -0.000142108, 0.000416765, -6.73951E-05, -6.73951E-05, -6.73951E-05
8660, 1,0.000117803, 0.000109508, 8.00428E-05, 5.99208, 6.59245, 0.00128918, 79.0654, -24.3404, 0, 0.000966818, 0.00022058, 0.000170611, 12.4084, -3.15621, 0, 0.000966485, 4.0913E-05, 5.18478E-05, 0.722477, 0.561256, 0, 0.000966427, -0.0419065, -2.87489, 12.3854, -0.105723, -0.862091, -0.715954, -5.031E-05, -0.000116868, 0.000218352, 6.96522E-06, 6.96522E-06, 6.96522E-06
8661, 1,0.000841694, 0.000164982, 0.000111727, 52.1611, 10.326, 0.00211288, 131.33, -42.2635, 0, 0.00106824, 0.00100609, 0.000686233, 62.4356, -20.0375, 0, 0.00106785, 0.000677584, 0.000464625, 41.9114, -13.3653, 0, 0.00106774, -0.0454633, 1.47087, 58.6872, -0.0595501, 1.41044, 38.745, -0.000316311, -0.000295576, 0.000936967, -0.000211668, -0.000211668, -0.000211668
8662, 1,0.00058798, 0.000146244, 0.000100023, 36.6793, 9.13787, 0.00183879, 114.655, -37.2586, 0, 0.0010345, 0.000733071, 0.00049644, 45.73, -14.8788, 0, 0.00103413, 0.000443679, 0.000303411, 27.6881, -9.00283, 0, 0.00103403, -0.15102, 2.46075, 42.3266, -0.242003, 2.4619, 24.7886, -0.000237031, -0.000193238, 0.000671647, -0.00014643, -0.00014643, -0.00014643
8663, 1,0.000354185, 0.000127593, 8.83596E-05, 21.9305, 7.93066, 0.00158784, 98.8321, -31.9365, 0, 0.0010008, 0.000480376, 0.000328905, 29.7677, -9.5569, 0, 0.00100043, 0.000229577, 0.000161888, 14.2029, -4.54576, 0, 0.00100035, -0.125567, 0.618907, 28.1774, -0.241451, 0.996152, 12.8826, -0.000152671, -0.000147178, 0.000454877, -7.61462E-05, -7.61462E-05, -7.61462E-05
8664, 1,0.000140012, 0.000116783, 8.44042E-05, 7.72082, 7.07195, 0.00137184, 84.4338, -26.3048, 0, 0.000967093, 0.000253118, 0.000188131, 14.7148, -4.09708, 0, 0.000966744, 4.28966E-05, 4.49197E-05, 1.2669, -0.0167329, 0, 0.00096668, -0.036069, -2.36453, 14.6918, -0.0956297, -0.514925, 0.660754, -6.50123E-05, -0.00012134, 0.000252791, -1.93853E-06, -1.93853E-06, -1.93853E-06
8665, 1,0.000876029, 0.000178394, 0.000120103, 54.3815, 11.1971, 0.00225119, 140.248, -45.4622, 0, 0.00106842, 0.00105401, 0.000715935, 65.538, -21.1787, 0, 0.001068, 0.000698253, 0.000477202, 43.2457, -13.8736, 0, 0.00106787, -0.0384744, 2.0821, 61.4924, -0.0521143, 1.69714, 39.9757, -0.000334135, -0.00030162, 0.000979349, -0.00021952, -0.00021952, -0.00021952
8666, 1,0.000623787, 0.000158244, 0.000107604, 38.978, 9.91287, 0.00196511, 122.735, -40.0938, 0, 0.0010347, 0.000781057, 0.000526966, 48.8134, -15.981, 0, 0.0010343, 0.000467198, 0.000318448, 29.1969, -9.55077, 0, 0.00103419, -0.150623, 3.00631, 45.0872, -0.233539, 2.7436, 26.1423, -0.000254385, -0.0001999, 0.000713545, -0.000154891, -0.000154891, -0.000154891
8667, 1,0.00038824, 0.000137563, 9.46008E-05, 24.145, 8.57556, 0.00169587, 105.742, -34.3613, 0, 0.001001, 0.000524585, 0.000356756, 32.6347, -10.5903, 0, 0.00100061, 0.000253244, 0.00017679, 15.7535, -5.11543, 0, 0.00100053, -0.126459, 1.15152, 30.7458, -0.232299, 1.32035, 14.2582, -0.000168972, -0.000152816, 0.000493582, -8.49378E-05, -8.49378E-05, -8.49378E-05
8668, 1,0.00016563, 0.000124103, 8.88231E-05, 9.59162, 7.55279, 0.00145542, 89.841, -28.2624, 0, 0.000967302, 0.000287835, 0.000207885, 17.1094, -5.03421, 0, 0.000966937, 5.13639E-05, 4.45974E-05, 2.27138, -0.592629, 0, 0.000966867, -0.0311117, -1.88214, 17.0159, -0.0863749, -0.188552, 2.05281, -7.96743E-05, -0.000126272, 0.00028759, -1.0827E-05, -1.0827E-05, -1.0827E-05
8669, 1,0.000910238, 0.000191882, 0.000128599, 56.5993, 12.0709, 0.00238724, 149.007, -48.592, 0, 0.00106866, 0.00110183, 0.000745545, 68.6376, -22.3204, 0, 0.00106821, 0.000718794, 0.000489634, 44.5782, -14.3844, 0, 0.00106807, -0.0300606, 2.662, 64.3292, -0.0434339, 1.96859, 41.2279, -0.000351935, -0.000308221, 0.00102227, -0.000227384, -0.000227384, -0.000227384
8670, 1,0.000659706, 0.000170305, 0.000115267, 41.2823, 10.6901, 0.00209036, 130.746, -42.9034, 0, 0.00103497, 0.000829186, 0.000557703, 51.9029, -17.0818, 0, 0.00103453, 0.000490815, 0.00033359, 30.7112, -10.0984, 0, 0.00103442, -0.154683, 3.51324, 47.8868, -0.229099, 3.00155, 27.5227, -0.000271809, -0.000207256, 0.000756187, -0.000163428, -0.000163428, -0.000163428
8671, 1,0.000422655, 0.000147579, 0.000100898, 26.3751, 9.22199, 0.00180444, 112.673, -36.7793, 0, 0.00100127, 0.000569174, 0.000385052, 35.5179, -11.6232, 0, 0.00100086, 0.000277292, 0.000192089, 17.3207, -5.68565, 0, 0.00100076, -0.130581, 1.64997, 33.3502, -0.225692, 1.62211, 15.6605, -0.000185331, -0.000159082, 0.000532967, -9.37908E-05, -9.37908E-05, -9.37908E-05
8672, 1,0.00019349, 0.000131451, 9.32815E-05, 11.5455, 8.03419, 0.00154098, 95.3478, -30.2288, 0, 0.000967575, 0.000324013, 0.000229176, 19.5593, -5.96682, 0, 0.000967194, 6.63236E-05, 5.09347E-05, 3.62178, -1.16568, 0, 0.000967119, -0.0267428, -1.42954, 19.3567, -0.0774308, 0.115474, 3.45899, -9.42766E-05, -0.00013168, 0.000322732, -1.96764E-05, -1.96764E-05, -1.96764E-05
8673, 1,0.000944132, 0.000205423, 0.000137239, 58.7895, 12.946, 0.00251956, 157.5, -51.599, 0, 0.00106885, 0.00114935, 0.00077502, 71.7091, -23.4426, 0, 0.00106836, 0.000739026, 0.000501882, 45.8846, -14.8777, 0, 0.00106822, -0.0346769, 3.19246, 67.1699, -0.0482664, 2.20864, 42.4727, -0.000369702, -0.000315463, 0.00106549, -0.000235256, -0.000235256, -0.000235256
8674, 1,0.000695899, 0.000182402, 0.000122992, 43.6001, 11.4683, 0.00221407, 138.631, -45.6402, 0, 0.00103515, 0.000877602, 0.000588758, 55.006, -18.1832, 0, 0.00103469, 0.000514706, 0.000348934, 32.2396, -10.6475, 0, 0.00103457, -0.167098, 3.98006, 50.7368, -0.232646, 3.23435, 28.9407, -0.000289417, -0.000215384, 0.000799793, -0.000172154, -0.000172154, -0.000172154
8675, 1,0.000457277, 0.000157619, 0.00010723, 28.6177, 9.86917, 0.00191419, 119.658, -39.1961, 0, 0.00100146, 0.000613977, 0.000413722, 38.4139, -12.6612, 0, 0.00100103, 0.000301563, 0.000207661, 18.9013, -6.26151, 0, 0.00100093, -0.128052, 2.11581, 35.9958, -0.211802, 1.9024, 17.0939, -0.000201627, -0.000166026, 0.000573048, -0.000102574, -0.000102574, -0.000102574
8676, 1,0.000222699, 0.000138808, 9.77604E-05, 13.5445, 8.51543, 0.00163063, 101.078, -32.2363, 0, 0.000967787, 0.000361073, 0.000251453, 22.0407, -6.89629, 0, 0.00096739, 8.56374E-05, 6.18199E-05, 5.11796, -1.73687, 0, 0.000967309, -0.0183287, -1.00519, 21.7124, -0.0646597, 0.398075, 4.8772, -0.000108741, -0.000137544, 0.000358143, -2.84134E-05, -2.84134E-05, -2.84134E-05
8677, 1,0.000978134, 0.000218965, 0.000146082, 60.982, 13.8201, 0.00264885, 165.569, -54.223, 0, 0.00106911, 0.00119695, 0.000804437, 74.7807, -24.5698, 0, 0.0010686, 0.000759395, 0.00051404, 47.1957, -15.3778, 0, 0.00106844, -0.0322215, 3.68975, 70.0517, -0.0480205, 2.43268, 43.7487, -0.000387399, -0.000323535, 0.00110955, -0.000243126, -0.000243126, -0.000243126
8678, 1,0.000732624, 0.000194517, 0.000130768, 45.96, 12.2467, 0.00233664, 146.365, -48.246, 0, 0.00103541, 0.000926567, 0.00062055, 58.1516, -19.311, 0, 0.00103493, 0.000539106, 0.000364771, 33.8091, -11.2237, 0, 0.00103479, -0.155618, 4.40551, 53.6833, -0.210179, 3.44046, 30.4409, -0.000306926, -0.000224744, 0.000844961, -0.00018075, -0.00018075, -0.00018075
8679, 1,0.000491725, 0.000167677, 0.000113594, 30.851, 10.5167, 0.00202718, 126.775, -41.583, 0, 0.00100173, 0.0006586, 0.000442557, 41.3, -13.6981, 0, 0.00100127, 0.0003257, 0.00022322, 20.4747, -6.83695, 0, 0.00100116, -0.110414, 2.54273, 38.6619, -0.18239, 2.1559, 18.5373, -0.00021758, -0.000173695, 0.000613494, -0.000111017, -0.000111017, -0.000111017
8680, 1,0.000252767, 0.000146167, 0.000102252, 15.5704, 8.99609, 0.00172766, 107.218, -34.3272, 0, 0.000968068, 0.000398728, 0.000274403, 24.5426, -7.822, 0, 0.000967651, 0.000107336, 7.52639E-05, 6.67085, -2.30575, 0, 0.000967565, -0.0104899, -0.60924, 24.0857, -0.0526805, 0.659892, 6.31005, -0.000123156, -0.000143848, 0.000393882, -3.71275E-05, -3.71275E-05, -3.71275E-05
8681, 1,0.0010111, 0.000232578, 0.000155169, 63.112, 14.697, 0.00281261, 175.157, -56.6941, 0, 0.00106928, 0.00124355, 0.000834312, 77.7901, -25.693, 0, 0.00106874, 0.000778709, 0.000526635, 48.4452, -15.876, 0, 0.00106857, 0.0758049, 4.1194, 72.8837, 0.0627211, 2.61082, 44.9543, -0.000402809, -0.000333252, 0.0011529, -0.00024864, -0.00024864, -0.00024864
8682, 1,0.000768514, 0.00020659, 0.00013858, 48.2878, 13.0227, 0.00246147, 153.901, -50.4341, 0, 0.0010356, 0.000974646, 0.000651619, 61.2627, -20.4648, 0, 0.00103509, 0.000562727, 0.000379724, 35.3488, -11.8268, 0, 0.00103495, -0.0626077, 4.79274, 56.6644, -0.107203, 3.62067, 31.967, -0.000323119, -0.000235427, 0.000890559, -0.000188065, -0.000188065, -0.000188065
8683, 1,0.000526431, 0.000177726, 0.000119976, 33.0916, 11.1634, 0.00214505, 134.093, -43.9278, 0, 0.00100193, 0.000703446, 0.000471878, 44.1917, -14.7317, 0, 0.00100146, 0.00035016, 0.000239161, 22.0586, -7.40949, 0, 0.00100134, -0.10393, 2.93033, 41.3686, -0.164769, 2.38188, 20.0114, -0.000233711, -0.000182099, 0.000654801, -0.000119658, -0.000119658, -0.000119658
8684, 1,0.00028347, 0.000153514, 0.000106749, 17.6171, 9.47553, 0.00183622, 113.977, -36.5194, 0, 0.000968288, 0.000436861, 0.000297867, 27.062, -8.74474, 0, 0.000967852, 0.000130361, 9.0089E-05, 8.25205, -2.87356, 0, 0.00096776, -0.00432551, -0.244966, 26.4835, -0.0423162, 0.898195, 7.76479, -0.000137556, -0.000150676, 0.000430082, -4.5856E-05, -4.5856E-05, -4.5856E-05
8685, 1,0.00104669, 0.000246048, 0.000164301, 65.4536, 15.5676, 0.00311307, 193.828, -62.6931, 0, 0.00106957, 0.00129264, 0.00086581, 81.0057, -26.9499, 0, 0.00106895, 0.000800791, 0.000541155, 49.9109, -16.5091, 0, 0.00106877, 0.20549, 4.62188, 76.0224, 0.194134, 2.8733, 46.4598, -0.000419868, -0.000343886, 0.00120099, -0.000255851, -0.000255851, -0.000255851
8686, 1,0.00080141, 0.000218697, 0.000146488, 50.3257, 13.8001, 0.00263777, 163.914, -52.6735, 0, 0.00103585, 0.00101972, 0.000681385, 64.0824, -21.4409, 0, 0.00103533, 0.000583395, 0.000393292, 36.6023, -12.2533, 0, 0.00103518, -0.0426093, 5.00426, 59.3611, -0.0770403, 3.64446, 33.1926, -0.000338075, -0.000247444, 0.00093337, -0.000194163, -0.000194163, -0.000194163
8687, 1,0.000561382, 0.000187734, 0.000126365, 35.3403, 11.8079, 0.00226923, 141.458, -45.9301, 0, 0.0010022, 0.000748485, 0.000501168, 47.0896, -15.781, 0, 0.00100171, 0.000374926, 0.000254957, 23.6521, -7.99846, 0, 0.00100159, -0.0779317, 3.28777, 44.133, -0.128722, 2.58809, 21.536, -0.000249685, -0.000191551, 0.000697252, -0.000128178, -0.000128178, -0.000128178
8688, 1,0.000314902, 0.000160834, 0.000111222, 19.6887, 9.95344, 0.00195857, 121.491, -38.8508, 0, 0.000968574, 0.000475627, 0.000321916, 29.6051, -9.66423, 0, 0.000968115, 0.000154409, 0.000105982, 9.85655, -3.43858, 0, 0.000968017, -0.0131669, 0.0841045, 28.9217, -0.0473591, 1.10595, 9.25714, -0.000152221, -0.000158127, 0.000467118, -5.48657E-05, -5.48657E-05, -5.48657E-05
8689, 1,0.001082, 0.000259553, 0.000173477, 67.7848, 16.4401, 0.00355931, 222.594, -73.0028, 0, 0.00106986, 0.00134146, 0.000895746, 84.2113, -28.2042, 0, 0.00106908, 0.000822586, 0.000553745, 51.367, -17.1413, 0, 0.00106889, 0.261551, 5.19609, 79.1549, 0.250831, 3.23221, 47.9407, -0.000438438, -0.000353213, 0.00124924, -0.000264627, -0.000264627, -0.000264627
8690, 1,0.00083715, 0.000230759, 0.000154465, 52.5196, 14.5765, 0.00296901, 183.888, -58.4608, 0, 0.00103609, 0.0010676, 0.000714362, 67.0568, -22.47, 0, 0.00103548, 0.000606949, 0.000409886, 38.013, -12.7328, 0, 0.00103532, -0.168493, 5.31492, 62.2635, -0.192266, 3.78282, 34.6078, -0.000356964, -0.000258769, 0.000980282, -0.000204192, -0.000204192, -0.000204192
8691, 1,0.000594286, 0.00019775, 0.000132791, 37.3782, 12.4527, 0.00245636, 152.262, -48.5445, 0, 0.0010024, 0.000791494, 0.000529942, 49.7773, -16.7103, 0, 0.00100188, 0.000397631, 0.000270002, 25.0346, -8.46831, 0, 0.00100175, -0.0958084, 3.50137, 46.7253, -0.133048, 2.6622, 22.8758, -0.000264726, -0.000202654, 0.000738475, -0.000135712, -0.000135712, -0.000135712
8692, 1,0.000346892, 0.000168126, 0.000115682, 21.7741, 10.4292, 0.00208954, 129.199, -40.8864, 0, 0.00096878, 0.000514895, 0.000346623, 32.1615, -10.591, 0, 0.000968304, 0.000179133, 0.000122099, 11.4714, -4.01306, 0, 0.0009682, 0.0161965, 0.359715, 31.3972, -0.0135357, 1.2675, 10.7852, -0.000166205, -0.000166992, 0.000505005, -6.3216E-05, -6.3216E-05, -6.3216E-05
8693, 1,0.00111655, 0.000272947, 0.000182582, 70, 17.3074, 0.00407116, 254.968, -83.9909, 0, 0.00107027, 0.00138941, 0.000925099, 87.2958, -29.3418, 0, 0.00106932, 0.00084374, 0.000566194, 52.7117, -17.6578, 0, 0.00106912, 0.34918, 5.46322, 82.2131, 0.333541, 3.30314, 49.3367, -0.000454502, -0.000367199, 0.00129775, -0.000271031, -0.000271031, -0.000271031
8694, 1,0.000875287, 0.00024286, 0.000162541, 54.8976, 15.3558, 0.00345236, 213.85, -68.0196, 0, 0.00103646, 0.00111789, 0.000749178, 70.2163, -23.5931, 0, 0.00103571, 0.000632879, 0.00042758, 39.6082, -13.3059, 0, 0.00103554, -0.351433, 5.78156, 65.3492, -0.363871, 4.09767, 36.1838, -0.000378553, -0.000268658, 0.00102998, -0.000216898, -0.000216898, -0.000216898
8695, 1,0.000629585, 0.000207716, 0.000139258, 39.5784, 13.0966, 0.0028086, 173.935, -55.2808, 0, 0.00100275, 0.000836833, 0.000561506, 52.6251, -17.7388, 0, 0.00100214, 0.000422809, 0.000287819, 26.5828, -9.03653, 0, 0.001002, -0.17928, 3.88116, 49.5146, -0.203693, 2.91277, 24.4005, -0.000282739, -0.000212476, 0.000783002, -0.000146227, -0.000146227, -0.000146227
8696, 1,0.000377511, 0.000175382, 0.00012009, 23.7111, 10.9033, 0.00228068, 140.43, -43.8242, 0, 0.000969092, 0.000552772, 0.000371791, 34.5711, -11.4522, 0, 0.000968583, 0.000202476, 0.000137567, 12.9317, -4.52252, 0, 0.000968474, 0.0762973, 0.520202, 33.7601, 0.0549624, 1.31475, 12.1979, -0.000178527, -0.000177783, 0.000542093, -6.98371E-05, -6.98371E-05, -6.98371E-05
8697, 1,0.00114673, 0.000286254, 0.000191652, 71.9127, 18.1694, 0.00462124, 289.192, -95.0352, 0, 0.00107057, 0.00143289, 0.000952668, 90.0723, -30.3411, 0, 0.00106944, 0.000860637, 0.000576946, 53.7597, -18.0388, 0, 0.00106923, 0.382331, 5.60789, 85.0331, 0.365145, 3.2665, 50.4846, -0.000469542, -0.000381409, 0.00134321, -0.000276388, -0.000276388, -0.000276388
8698, 1,0.000913652, 0.000254907, 0.000170653, 57.2912, 16.1327, 0.00399849, 247.077, -77.9821, 0, 0.00103675, 0.00116839, 0.000783187, 73.391, -24.7151, 0, 0.00103586, 0.000659044, 0.000444623, 41.2174, -13.8784, 0, 0.00103567, -0.387156, 5.9974, 68.5351, -0.383401, 4.17632, 37.8422, -0.000397031, -0.000283782, 0.00108179, -0.000226396, -0.000226396, -0.000226396
8699, 1,0.000665456, 0.000217722, 0.000145822, 41.7534, 13.743, 0.00330498, 204.576, -64.9246, 0, 0.00100305, 0.000882737, 0.000593577, 55.4451, -18.6977, 0, 0.0010023, 0.000448615, 0.000305879, 28.1136, -9.53547, 0, 0.00100215, -0.383827, 4.23519, 52.2417, -0.39674, 3.15849, 25.8447, -0.000302238, -0.000222192, 0.000827774, -0.000158258, -0.000158258, -0.000158258
8700, 1,0.0004077, 0.000182522, 0.000124418, 25.7002, 11.3721, 0.00263801, 163.678, -52.3538, 0, 0.0009694, 0.000590095, 0.000395272, 37.0273, -12.4523, 0, 0.000968773, 0.000225525, 0.000152612, 14.4518, -5.17214, 0, 0.000968658, 0.226314, 0.93497, 36.1956, 0.208774, 1.61897, 13.6887, -0.000191147, -0.000186046, 0.000579205, -7.68759E-05, -7.68759E-05, -7.68759E-05
8701, 1,0.00118043, 0.000299488, 0.000200672, 74.2265, 19.027, 0.00522136, 326.867, -107.54, 0, 0.00107102, 0.00147981, 0.000982613, 93.2445, -31.6425, 0, 0.00106971, 0.000881122, 0.000589775, 55.2148, -18.7231, 0, 0.00106948, 0.686671, 6.00149, 88.2393, 0.666062, 3.5025, 52.0008, -0.000483601, -0.00039487, 0.00139185, -0.000280828, -0.000280828, -0.000280828
8702, 1,0.000948549, 0.00026679, 0.000178722, 59.4744, 16.9017, 0.00457185, 281.339, -87.5984, 0, 0.00103716, 0.00121524, 0.000814928, 76.3478, -25.7733, 0, 0.00103612, 0.000681944, 0.000460039, 42.6238, -14.3865, 0, 0.00103593, -0.382419, 6.10732, 71.5951, -0.366272, 4.1559, 39.37, -0.000413664, -0.000299908, 0.00113172, -0.000234125, -0.000234125, -0.000234125
8703, 1,0.000703414, 0.0002276, 0.00015239, 44.0572, 14.3838, 0.0038595, 237.958, -74.5658, 0, 0.00100346, 0.00093067, 0.000625989, 58.3941, -19.7069, 0, 0.00100257, 0.000476493, 0.000324198, 29.767, -10.0836, 0, 0.00100241, -0.479514, 4.39886, 55.2012, -0.478392, 3.21627, 27.513, -0.000320261, -0.000236726, 0.000876705, -0.000168739, -0.000168739, -0.000168739
8704, 1,0.00044082, 0.00018976, 0.000128844, 28.0132, 11.8452, 0.00312439, 195.379, -64.0587, 0, 0.00096985, 0.000630344, 0.000420053, 39.798, -13.6942, 0, 0.000969058, 0.000251675, 0.000168548, 16.327, -6.06547, 0, 0.000968938, 0.605257, 1.59645, 38.8808, 0.593524, 2.18932, 15.4136, -0.000202752, -0.000193371, 0.000618286, -8.28822E-05, -8.28822E-05, -8.28822E-05
8705, 1,0.00121168, 0.000312445, 0.000209563, 76.3599, 19.8695, 0.00587191, 367.074, -120.249, 0, 0.00107137, 0.00152396, 0.00101187, 96.222, -32.8648, 0, 0.00106985, 0.000899513, 0.000599868, 56.5031, -19.3323, 0, 0.00106961, 0.835097, 6.3263, 91.433, 0.814423, 3.67114, 53.5113, -0.000499712, -0.000408214, 0.00144114, -0.000287317, -0.000287317, -0.000287317
8706, 1,0.00098128, 0.000278697, 0.000186851, 61.5616, 17.6708, 0.00516588, 317.066, -97.8662, 0, 0.00103748, 0.00125992, 0.000845762, 79.2074, -26.8349, 0, 0.00103628, 0.000702682, 0.000474786, 43.9361, -14.8982, 0, 0.00103608, -0.352012, 6.26925, 74.5874, -0.316709, 4.20175, 40.8095, -0.000429813, -0.000314661, 0.00117985, -0.000241234, -0.000241234, -0.000241234
8707, 1,0.000738336, 0.000237344, 0.000158941, 46.2668, 15.0173, 0.00442153, 271.104, -83.4058, 0, 0.00100378, 0.00097536, 0.000654893, 61.2382, -20.7682, 0, 0.00100276, 0.00050162, 0.000339321, 31.3404, -10.6851, 0, 0.0010026, -0.341134, 4.5503, 58.0955, -0.333465, 3.27119, 29.1175, -0.000334174, -0.000251963, 0.000923075, -0.00017528, -0.00017528, -0.00017528
8708, 1,0.00047171, 0.00019672, 0.000133008, 29.9394, 12.3038, 0.00364885, 227.933, -74.5144, 0, 0.000970215, 0.000668194, 0.000445193, 42.1801, -14.5584, 0, 0.000969271, 0.000275579, 0.000184422, 17.7954, -6.58557, 0, 0.000969146, 0.655391, 1.74264, 41.2771, 0.653133, 2.23257, 16.871, -0.000215395, -0.000205158, 0.000656736, -8.9915E-05, -8.9915E-05, -8.9915E-05
8709, 1,0.00124448, 0.000325245, 0.000218353, 78.6132, 20.7026, 0.00653066, 410.104, -136.248, 0, 0.00107189, 0.00156949, 0.00104298, 99.3098, -34.1159, 0, 0.00107011, 0.000919629, 0.000611409, 57.921, -19.9725, 0, 0.00106986, 0.974091, 6.5943, 94.7794, 0.950345, 3.80028, 55.1669, -0.000516479, -0.000422346, 0.00149234, -0.000294567, -0.000294567, -0.000294567
8710, 1,0.0010123, 0.00029043, 0.000194945, 63.5883, 18.4311, 0.00578455, 352.978, -106.829, 0, 0.00103788, 0.00130273, 0.000876004, 82.002, -27.9365, 0, 0.00103655, 0.000721884, 0.000488721, 45.189, -15.4491, 0, 0.00103634, -0.346014, 6.45835, 77.6971, -0.28692, 4.27019, 42.364, -0.000447071, -0.000329042, 0.00122936, -0.000249345, -0.000249345, -0.000249345
8711, 1,0.000764041, 0.00024678, 0.00016542, 47.9579, 15.6364, 0.00505997, 307.874, -92.269, 0, 0.00100419, 0.0010106, 0.000678332, 63.5606, -21.7182, 0, 0.00100304, 0.000517703, 0.000349589, 32.3886, -11.1738, 0, 0.00100287, -0.176966, 4.6228, 60.7087, -0.159144, 3.22382, 30.4568, -0.000345795, -0.000266423, 0.00096457, -0.000179433, -0.000179433, -0.000179433
8712, 1,0.000502411, 0.000203461, 0.000136975, 32.1202, 12.7522, 0.00429679, 266.962, -85.8399, 0, 0.000970676, 0.000705688, 0.000468454, 44.8116, -15.6941, 0, 0.000969572, 0.000299392, 0.000198881, 19.5171, -7.37972, 0, 0.000969441, 0.994021, 2.11463, 43.9737, 1.00159, 2.49369, 18.6439, -0.000226248, -0.000215025, 0.000695882, -9.51913E-05, -9.51913E-05, -9.51913E-05
8713, 1,0.00126244, 0.000337322, 0.000226729, 80.3938, 21.5031, 0.00731874, 448.437, -137.711, 0, 0.00107208, 0.00159921, 0.00106462, 101.893, -35.7779, 0, 0.00107031, 0.000926067, 0.000612227, 58.8967, -21.0219, 0, 0.00107005, 1.59589, 7.71205, 98.0258, 1.54779, 4.74139, 56.7765, -0.000529337, -0.000425666, 0.00153549, -0.000298366, -0.000298366, -0.000298366
8714, 1,0.0010455, 0.000302163, 0.000203091, 65.9616, 19.1926, 0.00657889, 394.241, -111.83, 0, 0.00103814, 0.00134765, 0.000907457, 85.1424, -29.4186, 0, 0.00103675, 0.000743355, 0.000503885, 46.7907, -16.3778, 0, 0.00103653, -0.0520335, 7.11327, 81.1947, 0.037119, 4.81327, 44.2829, -0.00046423, -0.000340263, 0.00128179, -0.000257198, -0.000257198, -0.000257198
8715, 1,0.000800047, 0.000256178, 0.000171834, 50.2887, 16.2543, 0.00592729, 358.594, -105.344, 0, 0.00100458, 0.00105592, 0.000707033, 66.5083, -22.8535, 0, 0.00100324, 0.000544463, 0.000364838, 34.1027, -11.8471, 0, 0.00100306, 0.0988457, 4.65217, 63.8095, 0.11124, 3.16212, 32.2678, -0.000358026, -0.000284829, 0.00101363, -0.000184514, -0.000184514, -0.000184514
8716, 1,0.000544223, 0.000209761, 0.00014055, 34.8265, 13.1813, 0.00528421, 326.788, -103.541, 0, 0.000971188, 0.000753931, 0.000502154, 47.9674, -16.8457, 0, 0.000969823, 0.00033458, 0.000223131, 21.7386, -8.19049, 0, 0.000969687, 1.31232, 1.90744, 47.3173, 1.32584, 2.15154, 21.0941, -0.000237809, -0.000236604, 0.000747709, -0.000101277, -0.000101277, -0.000101277
8717, 1,0.00129854, 0.000350199, 0.000235635, 83.0767, 22.3624, 0.0107704, 463.061, -150.814, 0.0666623, 0.00107265, 0.00164813, 0.0010878, 105.433, -37.5251, 0, 0.00107058, 0.000949387, 0.000627096, 60.7243, -22.1505, 0, 0.00107031, 2.95693, 8.13368, 101.485, 2.93303, 5.08923, 58.4291, -0.00052744, -0.0004527, 0.00158898, -0.000286401, -0.000286401, -0.000286401
8718, 1,0.00103995, 0.00031333, 0.000210877, 64.9764, 19.9353, 0.00843603, 437.678, -114.251, 0.0195321, 0.00103844, 0.00135309, 0.000915297, 84.9082, -29.2224, 7.2876E-07, 0.00103699, 0.000726978, 0.000494573, 45.0476, -15.6237, 7.2876E-07, 0.00103676, -0.812548, 6.90665, 81.573, -0.719846, 4.46572, 43.1254, -0.000477337, -0.000349501, 0.00130096, -0.000261552, -0.000261552, -0.000261552
8719, 1,0.000815844, 0.000265063, 0.000178041, 50.8939, 16.8505, 0.00716424, 416.997, -105.237, 0, 0.00100485, 0.00108032, 0.000733175, 67.7144, -23.2366, 0, 0.00100352, 0.00055192, 0.000379131, 34.1027, -11.7652, 0, 0.00100333, -0.904796, 5.11788, 65.4967, -0.901703, 3.48879, 32.7084, -0.000385635, -0.000285169, 0.0010478, -0.000205036, -0.000205036, -0.000205036
8720, 1,0.000571127, 0.000215797, 0.000143994, 37.0269, 13.5969, 0.00656141, 398.461, -118.681, 0, 0.000971673, 0.000786759, 0.000519737, 50.6039, -18.4074, 0, 0.000970093, 0.000355705, 0.000233011, 23.4753, -9.41441, 0, 0.000969952, 2.52561, 2.50911, 50.1874, 2.54878, 2.59278, 23.1017, -0.000237064, -0.000248504, 0.000784204, -9.50248E-05, -9.50248E-05, -9.50248E-05
8721, 1,0.00135579, 0.000361636, 0.00024395, 84.1248, 23.1694, 0.0169889, 467.81, -151.655, 0.187071, 0.00107303, 0.00171588, 0.00114656, 107.281, -36.0757, 0, 0.00107071, 0.000996796, 0.000674053, 60.9782, -20.0809, 0, 0.00107043, -0.44193, 4.92255, 103.747, -0.436808, 1.74294, 58.9365, -0.000575734, -0.00051271, 0.00167376, -0.000324536, -0.000324536, -0.000324536
8722, 1,0.00111863, 0.000325021, 0.000219017, 67.7609, 20.7298, 0.0142313, 461.017, -143.051, 0.133285, 0.00103929, 0.00144359, 0.00097672, 88.4621, -29.1476, 0, 0.00103718, 0.000793719, 0.000547502, 47.0839, -14.9819, 0, 0.00103694, -1.83629, 4.70636, 84.5729, -1.70516, 2.25837, 44.3924, -0.000497481, -0.00041988, 0.00139026, -0.000272167, -0.000272167, -0.000272167
8723, 1,0.00087336, 0.000274667, 0.000184847, 52.5546, 17.5027, 0.011542, 453.275, -133.57, 0.0806438, 0.00100562, 0.00114766, 0.000775604, 70.0293, -22.9182, 0, 0.00100372, 0.000599388, 0.000406765, 35.1066, -10.9724, 0, 0.00100352, -1.89928, 2.91803, 67.7358, -1.83944, 1.21485, 33.5417, -0.000402441, -0.000344591, 0.00111886, -0.000213321, -0.000213321, -0.000213321
8724, 1,0.000580189, 0.000221859, 0.000147836, 37.4116, 14.0216, 0.00944164, 453.181, -135.845, 0.0397043, 0.000972256, 0.000802031, 0.000529792, 51.3801, -18.719, 0, 0.000970361, 0.00035837, 0.000235152, 23.5148, -9.38757, 0, 0.000970215, 1.95027, 3.35449, 50.8522, 1.9563, 3.31949, 22.8869, -0.00025472, -0.000241315, 0.000799727, -0.000107784, -0.000107784, -0.000107784
8725, 1,0.00139551, 0.000371545, 0.000251112, 86.1548, 23.8953, 0.0251509, 481.284, -167.972, 0.344088, 0.00107382, 0.00176481, 0.00118868, 110.045, -36.9071, 0, 0.00107085, 0.00102778, 0.0006937, 62.2691, -20.3035, 0, 0.00107056, -1.61722, 5.58111, 106.757, -1.66409, 2.2422, 60.3325, -0.000612355, -0.000524422, 0.00173557, -0.000352781, -0.000352781, -0.000352781
8726, 1,0.00122145, 0.000334436, 0.00022636, 71.9235, 21.4273, 0.0223664, 478.577, -165.535, 0.291189, 0.00104021, 0.0015545, 0.00106761, 93.3452, -29.7232, 0, 0.00103738, 0.000889393, 0.000629162, 50.506, -14.9789, 0, 0.00103714, -4.22469, 2.83, 90.5642, -4.03537, 0.166381, 48.8057, -0.000557136, -0.000489123, 0.00152849, -0.000321676, -0.000321676, -0.000321676
8727, 1,0.00093453, 0.000283025, 0.000191306, 53.6371, 18.1144, 0.0187961, 473.047, -159.556, 0.222852, 0.00100656, 0.00121669, 0.000841972, 71.7411, -22.0552, -8.47033E-22, 0.00100395, 0.000653026, 0.000477667, 35.5425, -9.62423, -8.47033E-22, 0.00100375, -2.62589, -1.11533, 69.9067, -2.47646, -2.99396, 34.3431, -0.000404957, -0.000439075, 0.00120185, -0.000206602, -0.000206602, -0.000206602
8728, 1,0.000615698, 0.000227347, 0.000151863, 39.1248, 14.4318, 0.015522, 471.588, -159.261, 0.159301, 0.000973109, 0.000842963, 0.000561858, 53.4267, -19.5367, 5.42101E-20, 0.00097066, 0.00038853, 0.000258558, 24.996, -9.87466, 5.42101E-20, 0.000970508, 1.53036, 4.33464, 52.7451, 1.569, 4.13146, 23.9235, -0.000276982, -0.000247812, 0.000841749, -0.000124371, -0.000124371, -0.000124371
8729, 1,0.00137063, 0.000378374, 0.000256408, 84.7136, 24.4465, 0.0314689, 487.014, -173.746, 0.462915, 0.0010743, 0.00174508, 0.00117084, 109.158, -37.1841, 0, 0.00107087, 0.000998976, 0.000675718, 60.2701, -19.9959, 0, 0.00107057, -0.64267, 5.5968, 106.598, -0.799918, 1.93564, 58.852, -0.000594918, -0.000531195, 0.00172936, -0.000328406, -0.000328406, -0.000328406
8730, 1,0.00125368, 0.000343972, 0.00023388, 76.095, 22.1177, 0.0292398, 492.054, -183.504, 0.422158, 0.00104095, 0.00159409, 0.00108482, 98.2021, -34.0165, 0, 0.00103748, 0.000915886, 0.00062736, 53.9967, -18.6721, 0, 0.00103722, -1.74504, 7.4878, 96.3068, -1.49378, 4.51656, 52.9936, -0.000572297, -0.000460073, 0.00158425, -0.000326173, -0.000326173, -0.000326173
8731, 1,0.00101042, 0.000289852, 0.000196576, 58.3172, 18.644, 0.0258359, 483.13, -171.313, 0.357871, 0.00100722, 0.00129806, 0.000893655, 76.942, -24.4083, 0, 0.00100412, 0.00072438, 0.000520983, 39.7095, -11.4734, 0, 0.00100391, -3.39528, 0.998633, 75.6215, -3.27144, -1.15102, 38.8426, -0.000458248, -0.000437753, 0.00129199, -0.000252737, -0.000252737, -0.000252737
8732, 1,0.000644669, 0.000232519, 0.000156254, 38.7592, 14.809, 0.0216145, 473.991, -158.667, 0.276641, 0.000973661, 0.000875693, 0.00059069, 53.2302, -17.4812, 0, 0.000970977, 0.00041533, 0.000286582, 24.6763, -7.50714, 0, 0.000970819, -0.728593, 0.99468, 52.1775, -0.559518, 0.514606, 22.5663, -0.000292166, -0.000295724, 0.000871483, -0.000132196, -0.000132196, -0.000132196
8733, 1,0.00143142, 0.000382702, 0.000260522, 90.113, 24.835, 0.033636, 480.191, -161.181, 0.501918, 0.00107426, 0.00181031, 0.001214, 114.946, -40.6555, 0, 0.00107107, 0.00105513, 0.000712073, 65.282, -22.945, 0, 0.00107077, 1.0586, 7.95844, 112.949, 0.861737, 3.85649, 64.1167, -0.000613529, -0.00052779, 0.00180086, -0.000339508, -0.000339508, -0.000339508
8734, 1,0.00121077, 0.000352839, 0.000240952, 73.4748, 22.7628, 0.0318145, 480.145, -162.277, 0.468357, 0.00104082, 0.00156033, 0.00105385, 96.2204, -33.1146, 0, 0.00103767, 0.000863778, 0.000586847, 50.7442, -17.1536, 0, 0.0010374, -1.18739, 6.00716, 94.5241, -0.895093, 2.67337, 49.6826, -0.000545594, -0.000471485, 0.00155429, -0.000288848, -0.000288848, -0.000288848
8735, 1,0.00107868, 0.000295312, 0.000201201, 63.2422, 19.1021, 0.0298157, 481.585, -165.654, 0.431365, 0.00100764, 0.0013695, 0.000935026, 82.3083, -27.506, 0, 0.00100453, 0.000790998, 0.000541345, 44.2053, -14.0396, 0, 0.00100431, -2.99247, 3.86432, 81.6461, -2.91637, 1.2583, 43.7768, -0.000497663, -0.000423343, 0.00136724, -0.000284873, -0.000284873, -0.000284873
8736, 1,0.000675845, 0.000233843, 0.00015818, 40.1222, 14.9693, 0.0261125, 477.822, -161.758, 0.361996, 0.000974448, 0.000907113, 0.000620429, 54.672, -17.9311, 0, 0.000971531, 0.000447268, 0.000315557, 26.0315, -7.693, 0, 0.00097137, -1.32874, 1.35408, 53.768, -1.10989, 0.35105, 23.8378, -0.000311762, -0.000298013, 0.00090066, -0.000146751, -0.000146751, -0.000146751
8737, 1,0.00139993, 0.000381155, 0.00026108, 87.4765, 24.8916, 0.0334497, 479.255, -159.547, 0.498178, 0.00107448, 0.00177525, 0.00119889, 112.351, -39.8488, 0, 0.00107133, 0.00102862, 0.000688263, 62.6143, -21.7255, 0, 0.00107101, 0.228175, 7.80917, 111.509, -0.0667696, 2.98489, 62.2583, -0.00061893, -0.000507084, 0.00177246, -0.000340375, -0.000340375, -0.000340375
8738, 1,0.00127236, 0.000358274, 0.000245823, 81.6353, 23.2378, 0.0319131, 480.272, -162.215, 0.469955, 0.00104111, 0.00162721, 0.00109807, 104.851, -40.11, 0, 0.00103807, 0.000920209, 0.00061445, 58.4389, -23.5084, 0, 0.00103779, 2.95875, 13.5656, 103.806, 3.14166, 9.65601, 57.7276, -0.000567876, -0.000406891, 0.00162547, -0.000303139, -0.000303139, -0.000303139
8739, 1,0.00109437, 0.000298397, 0.000204132, 66.678, 19.4496, 0.0304743, 481.95, -165.71, 0.443403, 0.00100797, 0.00138571, 0.000931342, 86.032, -31.5408, 0, 0.00100489, 0.000807915, 0.000541778, 47.4035, -17.4988, 0, 0.00100466, 1.20344, 7.68798, 85.7308, 1.09651, 4.42422, 46.9758, -0.000471113, -0.000394359, 0.00137715, -0.000253029, -0.000253029, -0.000253029
8740, 1,0.000694782, 0.00023271, 0.00015867, 43.0304, 14.9892, 0.0283985, 482.329, -167.448, 0.404938, 0.000975094, 0.00092137, 0.000635907, 57.2145, -20.135, 0, 0.000971995, 0.00047416, 0.000335384, 29.6235, -9.68603, 0, 0.00097183, -0.571687, 5.08218, 55.8945, -0.309179, 3.34179, 26.0255, -0.000329744, -0.000251169, 0.000907542, -0.000160572, -0.000160572, -0.000160572
8741, 1,0.00132416, 0.000378674, 0.000260315, 85.6682, 24.7366, 0.0326902, 474.139, -151.595, 0.483735, 0.00107469, 0.00169691, 0.00112431, 110.377, -42.5836, 0, 0.00107181, 0.000955822, 0.000624202, 60.9822, -24.4678, 0, 0.0010715, 5.81987, 11.8566, 110.074, 5.55235, 6.93562, 60.9154, -0.000544643, -0.000459551, 0.00169504, -0.000265367, -0.000265367, -0.000265367
8742, 1,0.00121239, 0.000360863, 0.000247354, 77.7035, 23.4729, 0.0315987, 471.259, -147.492, 0.463227, 0.00104114, 0.00156984, 0.00108087, 101.176, -38.5587, 0, 0.00103844, 0.000857916, 0.000592424, 54.2322, -21.5737, 0, 0.00103815, 0.738559, 14.1062, 100.831, 0.561153, 10.1044, 54.0557, -0.000590307, -0.000353597, 0.00156945, -0.00032693, -0.00032693, -0.00032693
8743, 1,0.00104127, 0.000302584, 0.000207133, 65.0889, 19.7513, 0.0298243, 470.782, -147.535, 0.430058, 0.00100799, 0.00133416, 0.000911142, 84.7331, -33.044, 0, 0.00100536, 0.000755967, 0.0005106, 45.5493, -18.6503, 0, 0.00100512, 1.76095, 12.7838, 84.5873, 1.55341, 9.29429, 45.1032, -0.000482097, -0.000292263, 0.00131044, -0.000260356, -0.000260356, -0.000260356
8744, 1,0.000591128, 0.000227695, 0.000155333, 40.0166, 14.6955, 0.0273496, 473.85, -154.172, 0.384448, 0.000975278, 0.000815618, 0.000526585, 54.2929, -24.0826, 0, 0.000972557, 0.000371307, 0.000236556, 26.3198, -13.7247, 0, 0.000972393, 7.94237, 10.3905, 53.915, 8.10686, 8.16222, 24.905, -0.000209495, -0.000193897, 0.00079408, -4.36577E-05, -4.36577E-05, -4.36577E-05
8745, 1,0.00141287, 0.000381889, 0.000261004, 89.1701, 24.9117, 0.0357347, 470.758, -144.916, 0.539733, 0.00107503, 0.0017916, 0.00120519, 114.068, -41.104, 0, 0.00107214, 0.00103633, 0.000691428, 64.2833, -22.8443, 0, 0.00107182, 2.1133, 7.87099, 113.328, 1.37491, 3.21174, 63.9463, -0.000599163, -0.000522244, 0.00178826, -0.000327393, -0.000327393, -0.000327393
8746, 1,0.00127019, 0.000365737, 0.000249513, 84.2587, 23.8394, 0.0334374, 474.802, -156.81, 0.500897, 0.0010418, 0.00163162, 0.00107847, 108.035, -43.3167, 0, 0.00103885, 0.000912327, 0.000588992, 60.5387, -25.884, 0, 0.00103856, 7.95422, 14.2837, 107.712, 7.0827, 10.4126, 60.1566, -0.000513164, -0.000411336, 0.00162727, -0.000257253, -0.000257253, -0.000257253
8747, 1,0.00102631, 0.000304116, 0.00020483, 69.6575, 19.9681, 0.0317628, 476.115, -158.929, 0.469318, 0.00100868, 0.00132381, 0.000886775, 89.486, -38.514, 0, 0.00100579, 0.00073471, 0.000489288, 49.9574, -23.6587, 0, 0.00100555, 8.74172, 17.7903, 89.0099, 7.61133, 14.2885, 49.0763, -0.000419006, -0.000259891, 0.00130374, -0.000209364, -0.000209364, -0.000209364
8748, 1,0.000827039, 0.00022432, 0.00015315, 50.8869, 14.5738, 0.0309158, 464.552, -138.077, 0.450723, 0.000975484, 0.00104594, 0.000732803, 64.9726, -23.2541, 0, 0.000972935, 0.000611961, 0.000449701, 37.1306, -12.7442, 0, 0.000972769, 1.54272, 3.68471, 64.5348, 1.42351, 0.964982, 35.8442, -0.000330207, -0.000322845, 0.00103031, -0.000167924, -0.000167924, -0.000167924
8749, 1,0.00152612, 0.000433747, 0.000304721, 98.0995, 26.4321, 0.0381191, 475.47, -153.907, 0.586787, 0.00107639, 0.00195568, 0.00138812, 124.422, -43.9975, 0, 0.00107316, 0.00110012, 0.000791673, 71.8764, -28.1558, 0, 0.00107289, 13.0743, -3.08535, 122.003, 13.8637, 0.186635, 70.4171, -0.000414078, -0.000795322, 0.00192322, -0.000147801, -0.000147801, -0.000147801
8750, 1,0.00137362, 0.000397602, 0.000283788, 83.6199, 24.2376, 0.0355533, 465.445, -141.204, 0.542191, 0.00104278, 0.00177019, 0.00124046, 107.835, -33.0346, 0, 0.00103992, 0.00097787, 0.000679849, 59.4224, -18.5032, 0, 0.00103967, -0.305066, -7.54587, 106.955, -0.259711, -3.03648, 58.8059, -0.00052471, -0.000701675, 0.00176231, -0.000295035, -0.000295035, -0.000295035
8751, 1,0.0010879, 0.000345938, 0.000246296, 68.3562, 20.8106, 0.0340877, 471.765, -150.83, 0.514039, 0.00100989, 0.00143097, 0.00101021, 88.9515, -28.9325, 0, 0.00100691, 0.000747525, 0.000541763, 47.983, -17.0499, 0, 0.00100671, 1.70884, -2.9929, 88.0815, 2.62934, 1.98687, 46.5333, -0.000417501, -0.000535492, 0.00142236, -0.000211157, -0.000211157, -0.000211157
8752, 1,0.000883655, 0.000247559, 0.000183294, 56.1694, 14.5729, 0.0329437, 485.264, -172.407, 0.492942, 0.00097744, 0.00111863, 0.00081367, 70.1381, -24.4633, 0, 0.000974061, 0.000658583, 0.000465657, 42.6907, -16.865, 0, 0.000973941, 9.72394, -3.88051, 67.5466, 10.602, 1.56318, 38.4298, -0.000173949, -0.000490987, 0.00106182, -3.641E-05, -3.641E-05, -3.641E-05
8753, 1,0.00136167, 0.000200217, 0.000144891, 89.0534, 12.4957, 0.0347739, 470.224, -147.233, 0.525573, 0.00112242, 0.00155619, 0.00105708, 101.122, -37.5619, 0, 0.00111931, 0.00116923, 0.000781309, 77.138, -29.4466, 0, 0.00111916, 7.14644, 6.93911, 98.6001, 6.69303, 7.91234, 73.7345, -0.000436217, -0.000478847, 0.00152448, -0.000318141, -0.000318141, -0.000318141
8754, 1,0.00103666, 0.000288056, 0.000199662, 66.5421, 18.1822, 0.0336828, 456.717, -128.153, 0.507094, 0.00108656, 0.00132463, 0.000896779, 84.6459, -30.1556, 0, 0.00108395, 0.000748747, 0.000499541, 48.5021, -17.9085, 0, 0.00108373, 3.16866, 3.2243, 84.0738, 2.18879, 3.80166, 47.7349, -0.000406554, -0.000426321, 0.00132209, -0.000234367, -0.000234367, -0.000234367
8755, 1,0.000751034, 0.000347737, 0.000236711, 48.1421, 22.0593, 0.0332628, 456.773, -127.62, 0.4983, 0.0010514, 0.00109505, 0.000747016, 70.1846, -25.5277, 0, 0.00104882, 0.000413681, 0.000309231, 26.1264, -10.4383, 0, 0.00104856, 2.19862, 4.45424, 69.9303, 0.78359, 4.41993, 26.1113, -0.000354728, -0.000324398, 0.00109325, -0.000146903, -0.000146903, -0.000146903
8756, 1,0.000388394, 0.000382471, 0.000260889, 21.9501, 24.2716, 0.032305, 464.177, -138.325, 0.479019, 0.00101662, 0.000749854, 0.000542153, 45.8973, -15.1153, 0, 0.00101376, 0.00012396, 0.000163567, 2.5507, 1.51557, 0, 0.00101349, 3.11688, -2.83395, 45.0629, 2.06312, -4.71744, -1.89239, -0.00016896, -0.000326326, 0.000740463, 7.09722E-05, 7.09722E-05, 7.09722E-05
8757, 1,0.00118802, 0.000181211, 0.000126617, 78.5642, 11.5021, 0.0304912, 468.814, -144.606, 0.443198, 0.00112154, 0.00135636, 0.000900722, 89.1027, -35.5358, 0, 0.00111869, 0.00102414, 0.000674677, 68.3562, -27.6929, 0, 0.00111855, 6.72804, 10.8241, 89.0553, 6.9477, 8.66133, 67.4697, -0.000412163, -0.000363816, 0.0013525, -0.000284124, -0.000284124, -0.000284124
8758, 1,0.00104857, 0.00026177, 0.000178086, 69.3913, 17.0922, 0.0298659, 465.686, -151.47, 0.435915, 0.00108603, 0.00130852, 0.000873782, 86.4826, -35.7783, 0, 0.00108314, 0.000789858, 0.000524028, 52.3008, -23.1716, 0, 0.00108292, 5.93436, 15.0565, 86.344, 5.42275, 11.867, 52.225, -0.000435689, -0.000271999, 0.00128812, -0.000248057, -0.000248057, -0.000248057
8759, 1,0.000823652, 0.000319211, 0.000218117, 55.5515, 20.8421, 0.0291405, 468.483, -155.227, 0.421881, 0.0010509, 0.00111093, 0.000747476, 75.6676, -35.1325, 0, 0.00104804, 0.000573398, 0.000386826, 36.726, -19.7434, 0, 0.00104778, 8.50413, 22.1984, 74.6948, 7.68593, 18.4525, 33.0917, -0.000373155, -0.00011016, 0.00105328, -0.0001481, -0.0001481, -0.0001481
8760, 1,0.000592327, 0.000335266, 0.000231935, 38.5168, 21.8619, 0.0279686, 470.282, -150.767, 0.396939, 0.00101613, 0.000826094, 0.000544824, 56.5761, -28.5229, -1.0842E-19, 0.00101341, 0.000448857, 0.000401885, 25.8584, -12.4274, -1.0842E-19, 0.00101314, 14.903, 16.6192, 54.0466, 14.5329, 11.9604, 10.789, -0.000131492, -0.000126434, 0.000720649, 0.000114213, 0.000114213, 0.000114213
8761, 1,0.00118789, 0.000183122, 0.00012679, 75.6352, 11.8419, 0.0292229, 474.918, -154.795, 0.419595, 0.00112082, 0.00135413, 0.000912775, 86.2048, -31.9386, 0, 0.00111773, 0.00102723, 0.000685222, 65.4748, -23.4687, 0, 0.00111758, 1.52971, 8.38335, 85.9027, 1.68021, 4.81492, 63.911, -0.000466833, -0.000360466, 0.00134543, -0.000330683, -0.000330683, -0.000330683
8762, 1,0.00106624, 0.000252826, 0.00017515, 67.1268, 16.7714, 0.0290782, 473.097, -151.865, 0.416523, 0.00108512, 0.00131654, 0.000894601, 83.8385, -32.4795, 0, 0.00108221, 0.000817492, 0.000549698, 50.4544, -19.6641, 0, 0.00108198, 2.03642, 11.694, 83.708, 1.72184, 7.087, 50.1835, -0.000466329, -0.000308712, 0.00130194, -0.000271509, -0.000271509, -0.000271509
8763, 1,0.000838393, 0.000314176, 0.000218512, 51.0059, 20.6559, 0.0282087, 474.622, -154.906, 0.400419, 0.00105, 0.00112214, 0.00075085, 70.9586, -29.1241, 0, 0.0010471, 0.000582095, 0.000408222, 31.9979, -13.6573, 0, 0.00104683, 4.39519, 12.9753, 70.0017, 4.3294, 7.80221, 28.8403, -0.000365523, -0.000229564, 0.00106753, -0.000123519, -0.000123519, -0.000123519
8764, 1,0.000398528, 0.000326836, 0.000225831, 22.1856, 21.5821, 0.0272768, 476.727, -158.843, 0.383292, 0.00101537, 0.000677373, 0.000465244, 42.7189, -17.1653, 0, 0.00101233, 0.000231075, 0.000213433, 7.70137, -0.806305, 0, 0.00101206, 2.25156, 7.06782, 42.1765, 1.67974, 1.31674, -0.577574, -0.000220704, -0.000156102, 0.000655202, 2.46991E-05, 2.46991E-05, 2.46991E-05
8765, 1,0.00117136, 0.000186734, 0.000128606, 75.8476, 12.1404, 0.0295056, 478.4, -160.342, 0.42519, 0.0011203, 0.00134768, 0.000903172, 87.0418, -33.3479, 0, 0.00111709, 0.000998826, 0.00066541, 64.9898, -24.596, 0, 0.00111693, 3.7338, 9.71488, 86.595, 3.82991, 6.74091, 63.2173, -0.000444336, -0.000358742, 0.00134409, -0.000305095, -0.000305095, -0.000305095
8766, 1,0.00104732, 0.000256372, 0.000178289, 67.1224, 16.8819, 0.0294643, 479.368, -162.015, 0.424312, 0.00108474, 0.00130291, 0.000897298, 83.96, -33.1505, 0, 0.00108159, 0.000792235, 0.000545217, 50.3162, -20.5475, 0, 0.00108137, 2.04985, 13.9167, 83.4849, 2.15295, 9.72445, 49.765, -0.000478192, -0.000286794, 0.00130278, -0.000278086, -0.000278086, -0.000278086
8767, 1,0.000839714, 0.000314194, 0.000218155, 49.9744, 20.5525, 0.0289223, 479.455, -162.431, 0.414179, 0.00104966, 0.0011311, 0.000772495, 70.1366, -27.175, 0, 0.00104653, 0.000570402, 0.000387092, 30.3794, -12.0438, 0, 0.00104627, 0.759483, 10.8058, 69.9597, 0.959577, 5.9211, 29.2506, -0.000411431, -0.000259491, 0.00111175, -0.000169311, -0.000169311, -0.000169311
8768, 1,0.000386334, 0.000333255, 0.000228805, 23.5545, 21.8793, 0.0275226, 479.626, -163.48, 0.388247, 0.00101489, 0.000681898, 0.00047124, 44.4366, -18.2578, 0, 0.00101176, 0.000197759, 0.000192637, 7.44032, -1.96413, 0, 0.00101149, 1.91531, 9.76183, 43.0964, 1.42776, 4.46365, 0.000985824, -0.000244831, -0.00012467, 0.000665636, 1.11555E-06, 1.11555E-06, 1.11555E-06
8769, 1,0.00119243, 0.000191923, 0.000131309, 76.233, 12.3989, 0.0298025, 476.969, -157.959, 0.430692, 0.00111932, 0.00137773, 0.000920323, 87.9598, -32.6801, 0, 0.00111614, 0.00100961, 0.000677898, 64.7586, -23.9414, 0, 0.00111598, 3.83444, 7.0148, 87.1911, 3.99334, 5.06023, 62.7706, -0.000432817, -0.000411665, 0.00137468, -0.000292559, -0.000292559, -0.000292559
8770, 1,0.00100882, 0.000255253, 0.000176119, 58.6127, 16.6681, 0.029561, 474.682, -154.424, 0.425837, 0.00108383, 0.00126185, 0.00087629, 75.2526, -24.4212, 0, 0.0010807, 0.000757215, 0.000530686, 41.9925, -12.2843, 0, 0.00108049, -4.58807, 3.2527, 74.599, -4.44719, -0.147941, 41.4481, -0.000482267, -0.000382431, 0.00126088, -0.000288777, -0.000288777, -0.000288777
8771, 1,0.000865634, 0.000313318, 0.000216551, 48.2952, 20.3202, 0.0287795, 478.13, -160.499, 0.411633, 0.00104888, 0.00115925, 0.000791776, 68.2307, -22.5847, 0, 0.00104572, 0.000589526, 0.000430548, 28.8324, -7.99944, 0, 0.00104547, -3.0057, 2.88383, 67.8759, -2.58572, -1.33756, 27.9216, -0.000419043, -0.000363193, 0.00114862, -0.000180966, -0.000180966, -0.000180966
8772, 1,0.000370319, 0.000338976, 0.000230946, 20.8543, 22.0565, 0.0265567, 480.008, -164.948, 0.370458, 0.00101408, 0.000682944, 0.000483509, 41.9743, -14.3027, 3.38813E-21, 0.00101089, 0.000145909, 0.000169399, 4.45037, 1.70784, 3.38813E-21, 0.00101063, -2.07235, 5.00681, 39.9736, -2.45385, 0.472772, -3.14244, -0.000266959, -0.000169102, 0.000668046, -2.33465E-05, -2.33465E-05, -2.33465E-05
8773, 1,0.00121616, 0.000195195, 0.000132632, 76.3985, 12.5252, 0.028455, 487.757, -176.789, 0.407053, 0.00111885, 0.00140656, 0.000944497, 88.4085, -31.3063, 0, 0.00111527, 0.00102759, 0.00069159, 64.5861, -22.6754, 0, 0.00111512, 1.35081, 5.31569, 87.2524, 1.52799, 4.16428, 62.3338, -0.000464471, -0.000429263, 0.00140167, -0.000325498, -0.000325498, -0.000325498
8774, 1,0.00107334, 0.000253784, 0.000173887, 63.6023, 16.4455, 0.0280449, 493.127, -186.005, 0.399984, 0.00108386, 0.00132569, 0.000915739, 80.0401, -26.7154, 0, 0.00108013, 0.00082184, 0.000574138, 47.1696, -15.0152, 0, 0.00107992, -3.28758, 4.564, 78.8699, -3.09789, 1.8074, 46.336, -0.000491741, -0.000396532, 0.00132173, -0.000304104, -0.000304104, -0.000304104
8775, 1,0.00080436, 0.000309356, 0.000212119, 43.2383, 19.9451, 0.0259669, 487.366, -178.107, 0.360684, 0.0010486, 0.00109992, 0.000772777, 62.9683, -18.8294, 0, 0.00104513, 0.00052173, 0.000412121, 23.7739, -4.77121, 0, 0.00104489, -3.98848, -1.84878, 62.3254, -3.62343, -5.50938, 23.4464, -0.00038071, -0.000410214, 0.0010964, -0.000152138, -0.000152138, -0.000152138
8776, 1,0.00039814, 0.000339609, 0.000230208, 21.3201, 21.9662, 0.0225997, 477.322, -163.477, 0.295735, 0.00101328, 0.000697185, 0.00048456, 42.3815, -15.0343, 0, 0.00101031, 0.000195261, 0.000215948, 4.76061, 0.626694, 0, 0.00101006, -0.334845, 4.06897, 41.3689, -0.672631, 0.0124148, -1.21987, -0.000241899, -0.000199923, 0.000685704, -3.02287E-06, -3.02287E-06, -3.02287E-06
8777, 1,0.00123871, 0.00019603, 0.000132178, 76.422, 12.5049, 0.0226832, 478.219, -164.54, 0.297054, 0.00111733, 0.00143011, 0.000965482, 88.4515, -29.3667, 0, 0.00111429, 0.00104902, 0.000710522, 64.569, -20.8928, 0, 0.00111414, -1.41762, 3.01555, 86.5023, -1.32933, 2.47016, 61.5374, -0.000493822, -0.000446346, 0.00141664, -0.000358965, -0.000358965, -0.000358965
8778, 1,0.001028, 0.00025107, 0.000170775, 60.0304, 16.1608, 0.0211781, 480.799, -170.04, 0.268798, 0.00108236, 0.00127875, 0.000889621, 76.1651, -24.1498, 0, 0.00107928, 0.000777461, 0.000557224, 43.913, -12.8518, 0, 0.00107908, -3.74573, 2.18539, 74.0097, -3.5905, -0.0841154, 42.2301, -0.000461775, -0.000407053, 0.00126065, -0.000281054, -0.000281054, -0.000281054
8779, 1,0.000765531, 0.000303095, 0.000206247, 42.2899, 19.4632, 0.0188974, 475.661, -163.656, 0.22496, 0.00104736, 0.00106029, 0.000742004, 61.653, -18.9098, 0, 0.00104451, 0.000479303, 0.000377206, 23.0565, -5.33529, 0, 0.00104428, -1.92431, -1.98252, 60.6363, -1.70987, -5.26449, 22.9802, -0.000338409, -0.000409758, 0.00105496, -0.000120659, -0.000120659, -0.000120659
8780, 1,0.000383163, 0.00033919, 0.000229312, 21.7478, 21.8, 0.0167127, 471.236, -157.641, 0.182212, 0.00101244, 0.00069613, 0.000470922, 43.2715, -15.5747, 0, 0.00100982, 0.000158713, 0.000166576, 3.1098, -0.304438, 0, 0.00100957, 0.533827, 3.61045, 42.58, 0.38548, -0.0907889, 0.618622, -0.000232452, -0.000209807, 0.000694921, 4.14116E-06, 4.14116E-06, 4.14116E-06
8781, 1,0.00119944, 0.000194939, 0.000130945, 76.1411, 12.356, 0.0143134, 466.409, -151.922, 0.135454, 0.00111602, 0.00138937, 0.000917988, 88.0796, -30.8958, 1.35525E-20, 0.0011136, 0.00101143, 0.000669469, 64.3627, -22.6271, 1.35525E-20, 0.00111345, 2.00391, 5.07755, 85.6059, 2.05888, 4.90502, 60.9175, -0.000445961, -0.000413736, 0.00136099, -0.000314852, -0.000314852, -0.000314852
8782, 1,0.000932504, 0.000247744, 0.000167723, 55.6718, 15.8278, 0.0123819, 451.913, -130.105, 0.0966745, 0.00108067, 0.00118017, 0.000811945, 71.4379, -22.8091, 0, 0.00107866, 0.000684901, 0.000482776, 39.9523, -11.9083, 0, 0.00107847, -2.88567, 2.9488, 68.364, -2.70839, 1.01176, 37.4216, -0.000422303, -0.000346039, 0.00113841, -0.000247198, -0.000247198, -0.000247198
8783, 1,0.000667124, 0.000297455, 0.00020144, 38.5489, 18.9963, 0.0111098, 448.521, -126.212, 0.0717725, 0.00104587, 0.00096167, 0.000652007, 57.5252, -17.966, 0, 0.00104395, 0.000376635, 0.000276017, 19.6059, -4.86786, 0, 0.00104373, -2.3662, 0.654836, 55.6095, -2.16756, -2.34898, 19.1201, -0.000333253, -0.000314318, 0.000939049, -0.000123264, -0.000123264, -0.000123264
8784, 1,0.000405637, 0.000334201, 0.000225519, 24.3181, 21.3823, 0.010637, 458.575, -143.208, 0.0634849, 0.00101152, 0.0007082, 0.000473602, 45.0269, -16.7611, 0, 0.00100936, 0.000197517, 0.000182244, 7.62099, -1.9318, 0, 0.00100912, 1.27001, 4.28949, 44.7239, 1.19977, 0.764427, 3.83119, -0.000236353, -0.000199744, 0.000708017, -4.96833E-06, -4.96833E-06, -4.96833E-06
8785, 1,0.00115018, 0.000191631, 0.000128619, 74.6652, 12.0858, 0.00825516, 448.699, -131.673, 0.0167067, 0.00111478, 0.00133738, 0.000881345, 86.4409, -31.5653, 0, 0.00111294, 0.000964776, 0.00063203, 63.0152, -23.5493, 0, 0.0011128, 3.50135, 7.06254, 84.132, 3.57968, 7.06876, 59.9995, -0.000424211, -0.000366934, 0.0013033, -0.000296566, -0.000296566, -0.000296566
8786, 1,0.00086666, 0.000240924, 0.000162623, 54.7007, 15.3406, 0.00723468, 417.02, -100.777, 0, 0.00107944, 0.00110752, 0.000751538, 70.0277, -24.7048, 0, 0.00107811, 0.00062584, 0.000428287, 39.3852, -14.201, 0, 0.00107793, 0.246493, 6.27962, 67.5883, 0.397406, 4.45146, 37.754, -0.000385225, -0.00028402, 0.00107007, -0.000216892, -0.000216892, -0.000216892
8787, 1,0.000630338, 0.000289058, 0.000195239, 38.9591, 18.4093, 0.0069302, 401.124, -98.7535, 0, 0.00104471, 0.000915353, 0.000626504, 57.3011, -19.862, 0, 0.00104338, 0.000352058, 0.000243787, 20.7448, -7.23753, 0, 0.00104316, -1.07827, 4.98075, 55.6835, -0.913374, 2.07091, 20.5551, -0.000336062, -0.000235373, 0.000893674, -0.000134173, -0.000134173, -0.000134173
8788, 1,0.000384631, 0.000326339, 0.000219609, 23.4135, 20.8178, 0.0068847, 416.19, -121.961, 0, 0.00101044, 0.000680493, 0.000455086, 43.412, -15.9462, 0, 0.00100871, 0.000179284, 0.000178604, 7.27933, -1.59867, 0, 0.00100847, 2.57091, 2.12029, 43.1473, 2.47686, -1.24725, 3.56642, -0.000196717, -0.000224475, 0.000679886, 2.6729E-05, 2.6729E-05, 2.6729E-05
8789, 1,0.00113828, 0.000187554, 0.000126182, 73.0401, 11.7869, 0.00652715, 405.944, -130.876, 0, 0.00111424, 0.00132099, 0.000872311, 84.5132, -29.8533, 0, 0.00111242, 0.000957469, 0.000630498, 61.6905, -22.1157, 0, 0.00111228, 2.41853, 5.34838, 81.793, 2.53238, 5.53317, 58.2814, -0.000419691, -0.000372978, 0.00127705, -0.000295708, -0.000295708, -0.000295708
8790, 1,0.000893191, 0.000234009, 0.000157423, 56.0158, 14.8668, 0.00604286, 364.779, -106.298, 0, 0.00107904, 0.00112712, 0.000760401, 70.8526, -24.217, 0, 0.0010776, 0.000659319, 0.000448287, 41.2009, -14.1071, 0, 0.00107743, -0.0320277, 5.01069, 67.6723, 0.0870185, 3.39286, 38.8414, -0.000382973, -0.000298813, 0.0010747, -0.000221535, -0.000221535, -0.000221535
8791, 1,0.000616884, 0.000280439, 0.000188958, 38.3687, 17.8259, 0.00573677, 346.249, -100.844, 0, 0.00104422, 0.00089521, 0.000600615, 56.1689, -19.2922, 0, 0.00104284, 0.000341941, 0.00022861, 20.6136, -7.13699, 0, 0.00104264, 0.00149739, 3.92893, 53.9461, 0.145496, 1.1776, 20.0879, -0.000304298, -0.000244838, 0.000862128, -0.000110193, -0.000110193, -0.000110193
8792, 1,0.000366564, 0.000317729, 0.000213345, 22.3799, 20.2222, 0.0056166, 348.619, -111.769, 0, 0.0010097, 0.000662711, 0.000445567, 42.0693, -15.045, 0, 0.00100812, 0.000150643, 0.000147392, 5.90572, -1.19624, 0, 0.00100789, 1.78562, 1.83338, 41.516, 1.69773, -1.34843, 3.23942, -0.000199429, -0.000215227, 0.000658725, 1.63879E-05, 1.63879E-05, 1.63879E-05
8793, 1,0.0011136, 0.000182481, 0.000123147, 70.6335, 11.4383, 0.00562886, 351.189, -114.356, 0, 0.00111341, 0.00129091, 0.000856995, 81.7475, -28.0515, 0, 0.00111185, 0.000938306, 0.000622227, 59.646, -20.6029, 0, 0.00111172, 1.06607, 4.48042, 78.608, 1.17929, 4.81335, 55.816, -0.000419777, -0.000362957, 0.00123787, -0.00030036, -0.00030036, -0.00030036
8794, 1,0.000863041, 0.000226694, 0.000152303, 54.1563, 14.3753, 0.00522662, 318.7, -96.2231, 0, 0.0010783, 0.00108956, 0.000733795, 68.4959, -23.3587, 0, 0.00107702, 0.000636651, 0.000431693, 39.8432, -13.6393, 0, 0.00107685, 0.0276808, 4.93367, 65.1149, 0.160174, 3.43522, 37.3226, -0.000367955, -0.000285561, 0.0010325, -0.000212372, -0.000212372, -0.000212372
8795, 1,0.000593964, 0.000271027, 0.000182317, 36.9512, 17.2075, 0.00487724, 297.081, -89.3776, 0, 0.00104344, 0.000863078, 0.000579783, 54.1355, -18.5544, 0, 0.00104224, 0.000327956, 0.000220034, 19.8078, -6.86158, 0, 0.00104204, -0.0697956, 3.92724, 51.8057, 0.0507591, 1.2703, 19.2637, -0.000294146, -0.000231998, 0.000827163, -0.00010777, -0.00010777, -0.00010777
8796, 1,0.000332585, 0.000308252, 0.000206704, 20.0254, 19.587, 0.00458786, 284.74, -91.2696, 0, 0.0010088, 0.000621664, 0.000416753, 39.1371, -13.7225, 0, 0.00100753, 0.000126568, 0.00013077, 4.39678, -0.368983, 0, 0.00100731, 1.13753, 1.551, 38.479, 1.05822, -1.50142, 1.55015, -0.000192355, -0.000200739, 0.000615702, 1.59214E-05, 1.59214E-05, 1.59214E-05
8797, 1,0.00108539, 0.000176887, 0.000119723, 68.6928, 11.0651, 0.00487272, 304.721, -99.9237, 0, 0.00111264, 0.00125715, 0.000833904, 79.4435, -27.1269, 0, 0.00111133, 0.00091562, 0.000606829, 58.0642, -19.9657, 0, 0.0011112, 1.08796, 4.1659, 76.1267, 1.19681, 4.60115, 54.0992, -0.000404696, -0.000354646, 0.00119948, -0.000289886, -0.000289886, -0.000289886
8798, 1,0.00083374, 0.00021933, 0.00014716, 52.2216, 13.8828, 0.00455795, 279.237, -85.661, 0, 0.00107759, 0.00105268, 0.000708423, 66.0531, -22.3509, 0, 0.00107649, 0.000615074, 0.000416546, 38.4281, -13.0161, 0, 0.00107633, -0.13423, 4.85654, 62.3305, 0.00513238, 3.48185, 35.5613, -0.000355423, -0.0002701, 0.000988154, -0.000205726, -0.000205726, -0.000205726
8799, 1,0.000572646, 0.0002618, 0.000175865, 35.5238, 16.601, 0.00421193, 257.821, -78.8726, 0, 0.00104275, 0.000833087, 0.000559561, 52.1096, -17.6638, 0, 0.00104171, 0.00031442, 0.000212746, 18.9643, -6.42396, 0, 0.00104152, -0.188303, 3.65141, 49.5283, -0.0773005, 1.10315, 18.246, -0.000282562, -0.000222525, 0.000791655, -0.000103471, -0.000103471, -0.000103471
8800, 1,0.000313654, 0.000298557, 0.000199949, 18.8126, 18.9434, 0.00384571, 239.701, -77.8517, 0, 0.00100803, 0.000595854, 0.000400574, 37.3529, -12.9286, 0, 0.00100696, 0.000109788, 0.000117906, 3.56043, -0.0666812, 0, 0.00100675, 0.997824, 1.20714, 36.5809, 0.92699, -1.70107, 0.974121, -0.000182762, -0.000195173, 0.000587663, 1.80124E-05, 1.80124E-05, 1.80124E-05
8801, 1,0.00106147, 0.000171324, 0.000116356, 67.017, 10.6944, 0.00425874, 266.308, -87.2926, 0, 0.00111183, 0.00122757, 0.000816443, 77.3988, -26.2349, 0, 0.00111073, 0.000897359, 0.000596245, 56.7553, -19.3593, 0, 0.00111061, 0.896927, 3.90166, 73.9061, 1.00917, 4.43379, 52.6348, -0.000394633, -0.000345165, 0.00116546, -0.000284234, -0.000284234, -0.000284234
8802, 1,0.000806793, 0.000211482, 0.000141729, 50.4638, 13.3683, 0.00395694, 243.008, -75.1519, 0, 0.00107683, 0.00101786, 0.000683673, 63.7828, -21.4543, 0, 0.0010759, 0.000596022, 0.00040278, 37.181, -12.5008, 0, 0.00107574, -0.114667, 4.42916, 60.0484, 0.0206691, 3.15523, 34.3264, -0.000340796, -0.00026318, 0.000952058, -0.000197163, -0.000197163, -0.000197163
8803, 1,0.000546545, 0.000252381, 0.000169334, 33.899, 15.9859, 0.00361999, 222.797, -69.4012, 0, 0.001042, 0.000797725, 0.000535408, 49.8705, -16.8202, 0, 0.00104111, 0.000297353, 0.000202004, 17.9528, -6.03098, 0, 0.00104093, -0.170639, 3.41041, 47.2208, -0.0681925, 0.964817, 17.1963, -0.000268826, -0.000212433, 0.000754141, -9.69728E-05, -9.69728E-05, -9.69728E-05
8804, 1,0.000288705, 0.00028881, 0.000193162, 17.3804, 18.2983, 0.00325391, 203.305, -66.52, 0, 0.00100725, 0.000563148, 0.000377305, 35.3364, -12.2112, 0, 0.00100636, 9.52581E-05, 0.000105521, 2.88703, 0.160776, 0, 0.00100616, 0.826314, 1.33974, 34.4675, 0.760435, -1.41523, 0.172466, -0.00017507, -0.000179898, 0.000553056, 1.81417E-05, 1.81417E-05, 1.81417E-05
8805, 1,0.0010334, 0.000165526, 0.000112768, 64.989, 10.3125, 0.00369978, 231.105, -75.4861, 0, 0.0011111, 0.00119391, 0.000797342, 75.0062, -25.12, 0, 0.00111019, 0.000874791, 0.00058383, 55.0844, -18.5292, 0, 0.00111007, 0.576474, 3.26201, 71.5214, 0.688839, 3.87417, 51.0247, -0.00038379, -0.000339554, 0.00113092, -0.00027786, -0.00027786, -0.00027786
8806, 1,0.000777092, 0.000203795, 0.000136422, 48.6805, 12.8609, 0.0033762, 208.297, -65.3984, 0, 0.00107615, 0.000980337, 0.000657127, 61.4853, -20.6616, 0, 0.00107537, 0.000574242, 0.000386775, 35.9167, -12.0883, 0, 0.00107522, -0.0432284, 4.40249, 57.6255, 0.0903744, 3.24611, 32.9284, -0.00032671, -0.000249023, 0.000910957, -0.000189078, -0.000189078, -0.000189078
8807, 1,0.00051634, 0.000242928, 0.000162804, 32.1591, 15.3692, 0.00302303, 186.828, -58.9835, 0, 0.0010413, 0.000758126, 0.00050919, 47.5121, -16.0574, 0, 0.00104058, 0.000276509, 0.000189081, 16.8352, -5.7182, 0, 0.0010404, -0.0233893, 3.3351, 44.8606, 0.0732984, 0.997559, 16.0837, -0.000253656, -0.000199498, 0.000713661, -8.89814E-05, -8.89814E-05, -8.89814E-05
8808, 1,0.00026471, 0.000278601, 0.00018614, 15.6386, 17.6303, 0.00270814, 167.935, -53.6657, 0, 0.00100649, 0.000527429, 0.000354921, 32.8653, -11.0857, 0, 0.0010058, 9.10778E-05, 0.000107306, 2.36667, 0.792727, 0, 0.00100561, 0.416973, 0.749052, 32.0911, 0.352922, -1.8626, -0.868503, -0.000165992, -0.000172695, 0.000518512, 1.95167E-05, 1.95167E-05, 1.95167E-05
8809, 1,0.001006, 0.00015978, 0.000109268, 63.2522, 9.93231, 0.00318039, 198.627, -64.833, 0, 0.00111034, 0.00116077, 0.000776134, 72.8952, -24.3368, 0, 0.00110961, 0.000853127, 0.00056972, 53.7187, -18.032, 0, 0.00110949, 0.50962, 3.13442, 69.3664, 0.620796, 3.8378, 49.6374, -0.000372816, -0.000328176, 0.00109586, -0.000271401, -0.000271401, -0.000271401
8810, 1,0.000746876, 0.000195789, 0.000130946, 46.8406, 12.3386, 0.00282502, 174.33, -54.7595, 0, 0.00107539, 0.000942117, 0.000631331, 59.1274, -19.8363, 0, 0.00107478, 0.00055203, 0.000371986, 34.5917, -11.6432, 0, 0.00107464, 0.0407826, 4.08451, 55.3835, 0.170162, 3.03339, 31.7261, -0.00031188, -0.00024027, 0.000873983, -0.000180311, -0.000180311, -0.000180311
8811, 1,0.000489067, 0.000233217, 0.000156126, 30.4422, 14.7405, 0.0024874, 152.893, -47.4134, 0, 0.00104051, 0.000721018, 0.000484481, 45.1621, -15.1595, 0, 0.00103996, 0.000259311, 0.000179078, 15.7596, -5.27109, 0, 0.0010398, 0.0459822, 2.80573, 42.6269, 0.134377, 0.58337, 15.0955, -0.000238023, -0.000194116, 0.000678077, -8.06072E-05, -8.06072E-05, -8.06072E-05
8812, 1,0.000239845, 0.00026844, 0.000179132, 13.9791, 16.9644, 0.00227214, 138.992, -42.4868, 0, 0.00100571, 0.000492503, 0.000332813, 30.543, -10.1068, 0, 0.00100518, 8.23525E-05, 0.000103891, 1.7219, 1.27563, 0, 0.00100499, 0.174833, 0.365767, 29.7798, 0.11534, -2.07437, -1.86785, -0.000155686, -0.00016396, 0.000483587, 2.21268E-05, 2.21268E-05, 2.21268E-05
8813, 1,0.000983278, 0.000153816, 0.000105586, 61.6202, 9.5412, 0.00271423, 168.314, -53.7031, 0, 0.00110962, 0.00113226, 0.000760614, 70.8865, -23.3987, 0, 0.00110908, 0.000836088, 0.000560909, 52.4561, -17.3829, 0, 0.00110897, 0.327143, 2.42624, 67.4428, 0.435094, 3.21853, 48.495, -0.000361868, -0.000326653, 0.00106817, -0.000265066, -0.000265066, -0.000265066
8814, 1,0.000719481, 0.00018785, 0.000125587, 45.1023, 11.8203, 0.00237424, 145.8, -45.0572, 0, 0.00107469, 0.000906705, 0.000607722, 56.8676, -18.9612, 0, 0.00107424, 0.000532706, 0.000359462, 33.3769, -11.1487, 0, 0.0010741, 0.131792, 3.62942, 53.1225, 0.256328, 2.70874, 30.481, -0.000296132, -0.000234062, 0.000837829, -0.000170656, -0.000170656, -0.000170656
8815, 1,0.000460701, 0.000223596, 0.000149514, 28.6803, 14.1175, 0.00214132, 131.61, -40.8166, 0, 0.00103988, 0.000683126, 0.000458454, 42.7778, -14.2732, 0, 0.00103944, 0.000240369, 0.000166159, 14.6201, -4.83492, 0, 0.00103928, 0.0668549, 2.4951, 40.2578, 0.15121, 0.410088, 13.9435, -0.000223615, -0.000185012, 0.000640184, -7.33717E-05, -7.33717E-05, -7.33717E-05
8816, 1,0.000218276, 0.000258041, 0.000172033, 12.5507, 16.2872, 0.00203894, 125.361, -39.0037, 0, 0.00100515, 0.000458973, 0.000310759, 28.3853, -9.32095, 0, 0.00100466, 8.08895E-05, 0.000106203, 1.53644, 1.56299, 0, 0.00100449, 0.0841513, 0.171717, 27.707, 0.0304564, -2.09459, -2.62484, -0.000145228, -0.000154917, 0.000451333, 2.48741E-05, 2.48741E-05, 2.48741E-05
8817, 1,0.000954583, 0.000148068, 0.00010217, 59.6939, 9.15952, 0.0023577, 145.502, -45.6892, 0, 0.00110893, 0.00109753, 0.000739663, 68.5666, -22.4327, 0, 0.00110851, 0.000813515, 0.000547279, 50.9263, -16.7096, 0, 0.00110841, 0.178428, 2.10372, 65.016, 0.285864, 3.01485, 46.8282, -0.000349778, -0.000316951, 0.0010307, -0.000257601, -0.000257601, -0.000257601
8818, 1,0.00069055, 0.000179873, 0.000120354, 43.3369, 11.3012, 0.00212628, 131.681, -41.8458, 0, 0.00107408, 0.000869699, 0.000582603, 54.5778, -18.1609, 0, 0.00107367, 0.000511919, 0.000344959, 32.1394, -10.7292, 0, 0.00107354, 0.187619, 3.43314, 50.862, 0.311959, 2.64847, 29.2272, -0.000282333, -0.000224153, 0.000801134, -0.000162864, -0.000162864, -0.000162864
8819, 1,0.000435557, 0.000213777, 0.0001428, 27.1517, 13.4859, 0.00198525, 123.398, -39.7163, 0, 0.00103932, 0.000648033, 0.000435147, 40.614, -13.5522, 0, 0.00103888, 0.000225445, 0.000156443, 13.734, -4.56469, 0, 0.00103873, 0.164526, 2.26757, 38.2244, 0.243848, 0.325197, 13.125, -0.000210188, -0.000177513, 0.000607556, -6.71455E-05, -6.71455E-05, -6.71455E-05
8820, 1,0.00019808, 0.000247494, 0.000164918, 11.1565, 15.6027, 0.00190381, 117.758, -37.3792, 0, 0.00100457, 0.000426417, 0.000290867, 26.2463, -8.53066, 0, 0.0010041, 7.88429E-05, 0.000108983, 1.29733, 1.85263, 0, 0.00100393, 0.0965613, -0.163966, 25.6594, 0.047297, -2.24148, -3.3637, -0.000132502, -0.000149316, 0.000420183, 2.98273E-05, 2.98273E-05, 2.98273E-05
8821, 1,0.000926523, 0.000142053, 9.84846E-05, 57.9295, 8.76516, 0.00218439, 135.887, -43.7837, 0, 0.00110839, 0.00106346, 0.000718024, 66.41, -21.6588, 0, 0.00110799, 0.000791431, 0.000532893, 49.552, -16.2312, 0, 0.0011079, 0.186543, 1.8342, 62.9557, 0.296283, 2.84988, 45.5475, -0.000337423, -0.000309464, 0.000998302, -0.000249856, -0.000249856, -0.000249856
8822, 1,0.000662343, 0.00017176, 0.000115141, 41.5525, 10.7763, 0.00201474, 125.871, -41.1367, 0, 0.00107357, 0.000833332, 0.000558889, 52.2658, -17.322, 0, 0.00107316, 0.000491903, 0.000331778, 30.8842, -10.2717, 0, 0.00107303, 0.19289, 3.12044, 48.6528, 0.314157, 2.47801, 28.0229, -0.000268999, -0.000216753, 0.000766788, -0.000155603, -0.000155603, -0.000155603
8823, 1,0.000408306, 0.00020396, 0.000136104, 25.3562, 12.8544, 0.0018859, 117.717, -38.4002, 0, 0.00103877, 0.000610888, 0.000411383, 38.1848, -12.633, 0, 0.00103833, 0.000208288, 0.000146029, 12.5777, -4.09652, 0, 0.00103819, 0.121013, 1.8622, 35.9157, 0.196118, 0.078358, 12.0151, -0.000196606, -0.000171212, 0.000572758, -6.07455E-05, -6.07455E-05, -6.07455E-05
8824, 1,0.000177971, 0.000236845, 0.000157984, 9.71862, 14.9124, 0.00178779, 110.699, -35.259, 0, 0.001004, 0.00039328, 0.00027086, 24.0364, -7.70399, 0, 0.00100355, 7.72431E-05, 0.000112608, 1.05465, 2.17631, 0, 0.00100339, 0.0933061, -0.534377, 23.553, 0.0477412, -2.40916, -4.1675, -0.000119523, -0.000144114, 0.000388588, 3.49807E-05, 3.49807E-05, 3.49807E-05
8825, 1,0.000897445, 0.000136063, 9.48581E-05, 56.0137, 8.37167, 0.00208451, 129.881, -42.0617, 0, 0.00110781, 0.0010283, 0.000696922, 64.0966, -20.7552, 0, 0.00110743, 0.000768448, 0.000519196, 48.034, -15.625, 0, 0.00110734, 0.14996, 1.3944, 60.7213, 0.259575, 2.52843, 44.0869, -0.000323975, -0.000303904, 0.000964632, -0.000241094, -0.000241094, -0.000241094
8826, 1,0.000632596, 0.000163651, 0.000110018, 39.6115, 10.2512, 0.00192802, 120.549, -39.4956, 0, 0.00107299, 0.000795408, 0.000534692, 49.7958, -16.3944, 0, 0.00107259, 0.000470378, 0.000317947, 29.4748, -9.72582, 0, 0.00107247, 0.151449, 2.72878, 46.3031, 0.27018, 2.23887, 26.6684, -0.000255251, -0.000210012, 0.000731247, -0.000147916, -0.000147916, -0.000147916
8827, 1,0.000381451, 0.000194082, 0.000129423, 23.6036, 12.2199, 0.0017924, 111.891, -36.51, 0, 0.00103817, 0.000573976, 0.00038764, 35.7928, -11.7691, 0, 0.00103775, 0.000191895, 0.000135912, 11.4764, -3.68352, 0, 0.00103762, 0.121985, 1.48811, 33.6971, 0.19437, -0.128841, 10.985, -0.000182951, -0.000165274, 0.000539147, -5.42398E-05, -5.42398E-05, -5.42398E-05
8828, 1,0.00015922, 0.000226088, 0.000151165, 8.33406, 14.2169, 0.00168624, 104.326, -33.1412, 0, 0.00100336, 0.000360417, 0.000251126, 21.8333, -6.87669, 0, 0.00100293, 7.70501E-05, 0.000117546, 0.870482, 2.50006, 0, 0.00100278, 0.0840042, -0.921291, 21.4674, 0.0408015, -2.58434, -4.95665, -0.000106664, -0.000139172, 0.000357363, 3.99743E-05, 3.99743E-05, 3.99743E-05
8829, 1,0.000869054, 0.000130046, 9.12211E-05, 54.1647, 7.97601, 0.00199073, 123.834, -39.8915, 0, 0.00110732, 0.00099381, 0.000675956, 61.8484, -19.9149, 0, 0.00110696, 0.000746159, 0.000505636, 46.5839, -15.0839, 0, 0.00110687, 0.156624, 0.980527, 58.6075, 0.265748, 2.23766, 42.7482, -0.000310604, -0.000299015, 0.000932735, -0.000232446, -0.000232446, -0.000232446
8830, 1,0.000603063, 0.000155486, 0.000104883, 37.7097, 9.7229, 0.00183721, 114.691, -37.3923, 0, 0.00107249, 0.000757665, 0.000510715, 47.3634, -15.5165, 0, 0.00107211, 0.000449083, 0.000304253, 28.105, -9.23038, 0, 0.001072, 0.164185, 2.33642, 44.0488, 0.279808, 2.00591, 25.4054, -0.000241145, -0.000204092, 0.000696975, -0.000139896, -0.000139896, -0.000139896
8831, 1,0.0003546, 0.000184181, 0.00012289, 21.8352, 11.5837, 0.00170113, 106.053, -34.4616, 0, 0.00103768, 0.000537001, 0.000364247, 33.3818, -10.886, 0, 0.00103728, 0.000175678, 0.000126221, 10.3664, -3.25233, 0, 0.00103715, 0.114872, 1.06089, 31.4822, 0.185513, -0.375694, 9.94717, -0.000169172, -0.000160091, 0.000505857, -4.76066E-05, -4.76066E-05, -4.76066E-05
8832, 1,0.00014208, 0.000215272, 0.000144358, 7.02261, 13.5176, 0.00159554, 98.5192, -31.096, 0, 0.00100286, 0.000328039, 0.0002319, 19.6487, -6.04861, 0, 0.00100245, 7.77461E-05, 0.000123355, 0.72007, 2.8222, 0, 0.0010023, 0.0743979, -1.32947, 19.4009, 0.034634, -2.76689, -5.73434, -9.38029E-05, -0.000134547, 0.000326441, 4.49528E-05, 4.49528E-05, 4.49528E-05
8833, 1,0.000840451, 0.000124068, 8.76407E-05, 52.2863, 7.58127, 0.00189632, 117.713, -37.6616, 0, 0.00110669, 0.000959088, 0.000655031, 59.5688, -19.047, 0, 0.00110636, 0.000723698, 0.000492141, 45.1073, -14.5171, 0, 0.00110628, 0.146605, 0.512295, 56.4821, 0.255378, 1.90164, 41.3944, -0.000297149, -0.000294799, 0.000900982, -0.000223742, -0.000223742, -0.000223742
8834, 1,0.000573651, 0.000147315, 9.97682E-05, 35.8066, 9.19371, 0.00174244, 108.565, -35.1797, 0, 0.00107187, 0.000720035, 0.000487012, 44.9287, -14.6296, 0, 0.00107152, 0.000427921, 0.000290768, 26.735, -8.72717, 0, 0.00107141, 0.16766, 1.90135, 41.8199, 0.280429, 1.74032, 24.1608, -0.000227098, -0.00019887, 0.000663317, -0.000131947, -0.000131947, -0.000131947
8835, 1,0.000327963, 0.000174252, 0.00011652, 20.0825, 10.9458, 0.00160919, 100.125, -32.3353, 0, 0.00103704, 0.000500146, 0.000341096, 30.9826, -10.0131, 0, 0.00103666, 0.000159924, 0.000116995, 9.28178, -2.83202, 0, 0.00103654, 0.119293, 0.61597, 29.3042, 0.18831, -0.628275, 8.93604, -0.000155318, -0.000155349, 0.000473098, -4.09058E-05, -4.09058E-05, -4.09058E-05
8836, 1,0.000126815, 0.000204399, 0.000137521, 5.80154, 12.815, 0.00151089, 93.0481, -29.1204, 0, 0.00100221, 0.000296242, 0.000213337, 17.4837, -5.21725, 0, 0.00100182, 7.90975E-05, 0.00012987, 0.591569, 3.14639, 0, 0.00100169, 0.0669594, -1.75874, 17.3435, 0.0304295, -2.95907, -6.51053, -8.08484E-05, -0.000130199, 0.00029565, 5.00001E-05, 5.00001E-05, 5.00001E-05
8837, 1,0.000811712, 0.00011812, 8.41082E-05, 50.406, 7.18703, 0.00179998, 111.443, -35.3527, 0, 0.00110617, 0.000924219, 0.000633944, 57.2861, -18.1832, 0, 0.00110586, 0.000701121, 0.000478488, 43.6307, -13.9565, 0, 0.00110579, 0.140536, 0.0275713, 54.3814, 0.248863, 1.5562, 40.0644, -0.000283674, -0.000290931, 0.000869622, -0.00021505, -0.00021505, -0.00021505
8838, 1,0.000544278, 0.000139145, 9.46704E-05, 33.9082, 8.66405, 0.00164538, 102.308, -32.9358, 0, 0.00107133, 0.000682444, 0.000463402, 42.4982, -13.746, 0, 0.001071, 0.000406798, 0.000277348, 25.3701, -8.22801, 0, 0.0010709, 0.172165, 1.44295, 39.6228, 0.282351, 1.46027, 22.9414, -0.000213081, -0.000194113, 0.000630205, -0.000124036, -0.000124036, -0.000124036
8839, 1,0.000301642, 0.000164306, 0.00011019, 18.3422, 10.3067, 0.00151662, 94.1699, -30.2128, 0, 0.00103649, 0.000463518, 0.000318273, 28.5919, -9.13869, 0, 0.00103614, 0.000144749, 0.000108381, 8.2208, -2.41058, 0, 0.00103603, 0.12205, 0.143805, 27.1502, 0.189509, -0.896889, 7.93913, -0.000141477, -0.000151065, 0.000440785, -3.42255E-05, -3.42255E-05, -3.42255E-05
8840, 1,0.000113949, 0.000193486, 0.000130663, 4.70639, 12.1097, 0.00142909, 87.7349, -27.1766, 0, 0.00100169, 0.000265443, 0.000195834, 15.3564, -4.38338, 0, 0.00100132, 8.10387E-05, 0.000137003, 0.483382, 3.47149, 0, 0.00100119, 0.0609108, -2.20986, 15.2991, 0.0277134, -3.16112, -7.28108, -6.78276E-05, -0.00012617, 0.000265071, 5.50896E-05, 5.50896E-05, 5.50896E-05
8841, 1,0.000782873, 0.000112226, 8.06474E-05, 48.5201, 6.7944, 0.00170259, 105.109, -33.0262, 0, 0.00110561, 0.000889254, 0.000612821, 54.9968, -17.3149, 0, 0.00110533, 0.000678457, 0.000464779, 42.15, -13.3934, 0, 0.00110526, 0.132764, -0.485753, 52.2977, 0.240448, 1.19012, 38.7497, -0.000270163, -0.000287522, 0.000838615, -0.00020636, -0.00020636, -0.00020636
8842, 1,0.000514971, 0.000130991, 8.95986E-05, 32.0131, 8.13458, 0.00154742, 96.0036, -30.6847, 0, 0.00107074, 0.000644928, 0.000439922, 40.0711, -12.8615, 0, 0.00107043, 0.000385732, 0.000264024, 24.0084, -7.72885, 0, 0.00107034, 0.174853, 0.957395, 37.4524, 0.282497, 1.16163, 21.7424, -0.000199091, -0.000189842, 0.000597594, -0.000116165, -0.000116165, -0.000116165
8843, 1,0.000275755, 0.000154352, 0.000103872, 16.6202, 9.66656, 0.00142402, 88.2109, -28.0869, 0, 0.00103592, 0.000427216, 0.000295842, 26.2148, -8.26364, 0, 0.00103558, 0.000130343, 0.000100548, 7.19349, -1.98978, 0, 0.00103548, 0.123966, -0.353792, 25.0207, 0.190259, -1.17847, 6.95754, -0.000127647, -0.000147223, 0.000408916, -2.75671E-05, -2.75671E-05, -2.75671E-05
8844, 1,0.000103838, 0.000182532, 0.000123783, 3.76401, 11.4016, 0.00134848, 82.4786, -25.2337, 0, 0.0010011, 0.000236076, 0.00017983, 13.2851, -3.54508, 0, 0.00100075, 8.34827E-05, 0.000144672, 0.390737, 3.79921, 0, 0.00100063, 0.0539081, -2.68382, 13.2652, 0.0242118, -3.3746, -8.04724, -5.47586E-05, -0.00012246, 0.000234691, 6.02013E-05, 6.02013E-05, 6.02013E-05
8845, 1,0.000753964, 0.000106398, 7.72737E-05, 46.6319, 6.40389, 0.00160489, 98.746, -30.6792, 0, 0.00110508, 0.000854227, 0.000591677, 52.7047, -16.4447, 0, 0.00110483, 0.00065573, 0.000451008, 40.6683, -12.8308, 0, 0.00110476, 0.125157, -1.02285, 50.2318, 0.232062, 0.807978, 37.4524, -0.000256617, -0.000284517, 0.000807945, -0.000197674, -0.000197674, -0.000197674
8846, 1,0.000485741, 0.000122863, 8.45654E-05, 30.122, 7.60569, 0.0014493, 89.6838, -28.4238, 0, 0.00107023, 0.000607512, 0.000416589, 37.6484, -11.9762, 0, 0.00106994, 0.000364723, 0.00025079, 22.6505, -7.23012, 0, 0.00106986, 0.176487, 0.446001, 35.3062, 0.281751, 0.846061, 20.5625, -0.000185109, -0.000186032, 0.000565439, -0.000108319, -0.000108319, -0.000108319
8847, 1,0.000250438, 0.000144394, 9.75601E-05, 14.922, 9.02569, 0.00133161, 82.2567, -25.9558, 0, 0.00103538, 0.000391349, 0.000273894, 23.8556, -7.38746, 0, 0.00103507, 0.000116911, 9.37073E-05, 6.21028, -1.56862, 0, 0.00103497, 0.124727, -0.874548, 22.9122, 0.189863, -1.47265, 5.98866, -0.000113824, -0.000143772, 0.000377427, -2.09292E-05, -2.09292E-05, -2.09292E-05
8848, 1,9.66668E-05, 0.00017155, 0.000116887, 2.99021, 10.6915, 0.00126849, 77.2446, -23.2816, 0, 0.00100055, 0.000208731, 0.0001659, 11.2992, -2.70401, 0, 0.00100021, 8.63787E-05, 0.00015282, 0.312735, 4.12844, 0, 0.0010001, 0.0474089, -3.17785, 11.2425, 0.0209838, -3.59809, -8.80821, -4.16361E-05, -0.000119041, 0.000204505, 6.53411E-05, 6.53411E-05, 6.53411E-05
8849, 1,0.000724974, 0.000100651, 7.39998E-05, 44.7403, 6.01617, 0.00150728, 92.3748, -28.3155, 0, 0.00110448, 0.000819133, 0.000570514, 50.4088, -15.5716, 0, 0.00110425, 0.000632925, 0.000437173, 39.1845, -12.2676, 0, 0.00110419, 0.117386, -1.58177, 48.1793, 0.223198, 0.410339, 36.1694, -0.000243029, -0.000281864, 0.000777538, -0.000188988, -0.000188988, -0.000188988
8850, 1,0.000456613, 0.00011477, 7.95801E-05, 28.2363, 7.07787, 0.00135132, 83.3626, -26.1516, 0, 0.00106962, 0.000570229, 0.000393424, 35.2319, -11.0899, 0, 0.00106936, 0.000343789, 0.000237656, 21.2973, -6.73165, 0, 0.00106929, 0.176968, -0.0884901, 33.1813, 0.279889, 0.514956, 19.4001, -0.000171137, -0.000182626, 0.000533681, -0.000100501, -0.000100501, -0.000100501
8851, 1,0.000225903, 0.00013445, 9.12715E-05, 13.2573, 8.38498, 0.0012396, 76.3143, -23.8144, 0, 0.00103475, 0.000356106, 0.000252612, 21.5229, -6.51004, 0, 0.00103446, 0.000104719, 8.81224E-05, 5.28637, -1.14721, 0, 0.00103437, 0.124458, -1.41732, 20.823, 0.188723, -1.77842, 5.03132, -0.000100004, -0.000140691, 0.000346291, -1.43042E-05, -1.43042E-05, -1.43042E-05
8852, 1,9.23557E-05, 0.000160559, 0.000109997, 2.37733, 9.97998, 0.00118913, 72.0286, -21.3141, 0, 0.000999972, 0.000184132, 0.000154781, 9.43579, -1.85887, 0, 0.000999656, 8.96543E-05, 0.000161381, 0.246005, 4.45984, 0, 0.000999554, 0.0405362, -3.69361, 9.22968, 0.0176284, -3.83248, -9.56465, -2.84582E-05, -0.000115934, 0.000174509, 7.0511E-05, 7.0511E-05, 7.0511E-05
8853, 1,0.000695957, 9.50147E-05, 7.0859E-05, 42.8479, 5.63268, 0.00141024, 86.017, -25.9344, 0, 0.00110394, 0.000784049, 0.000549409, 48.1126, -14.6955, 0, 0.00110374, 0.000610079, 0.000423304, 37.7003, -11.704, 0, 0.00110369, 0.108971, -2.16217, 46.1396, 0.213745, -0.00195229, 34.9002, -0.000229404, -0.000279554, 0.000747388, -0.000180306, -0.000180306, -0.000180306
8854, 1,0.000427651, 0.000106745, 7.4672E-05, 26.3588, 6.55256, 0.00125386, 77.0565, -23.8673, 0, 0.00106907, 0.00053317, 0.000370516, 32.8257, -10.2024, 0, 0.00106884, 0.000322965, 0.000224654, 19.9503, -6.23326, 0, 0.00106877, 0.176329, -0.645358, 31.0762, 0.277091, 0.169037, 18.2537, -0.000157169, -0.00017961, 0.000502297, -9.27039E-05, -9.27039E-05, -9.27039E-05
8855, 1,0.000202412, 0.000124532, 8.50144E-05, 11.6387, 7.74495, 0.00114816, 70.3906, -21.6627, 0, 0.00103422, 0.000321707, 0.000232208, 19.2269, -5.63153, 0, 0.00103395, 9.40491E-05, 8.40756E-05, 4.43952, -0.725518, 0, 0.00103387, 0.123532, -1.97923, 18.7503, 0.186918, -2.09439, 4.08402, -8.61819E-05, -0.000137926, 0.000315451, -7.68959E-06, -7.68959E-06, -7.68959E-06
8856, 1,9.06419E-05, 0.000149565, 0.000103119, 1.90314, 9.2676, 0.00111048, 66.8357, -19.332, 0, 0.000999437, 0.00016305, 0.000147243, 7.73887, -1.0098, 0, 0.00099914, 9.32825E-05, 0.000170329, 0.189733, 4.79362, 0, 0.000999046, 0.0335567, -4.22811, 7.22397, 0.013925, -4.07672, -10.3181, -1.52214E-05, -0.000113081, 0.000144644, 7.571E-05, 7.571E-05, 7.571E-05
8857, 1,0.000666917, 8.95139E-05, 6.78736E-05, 40.9554, 5.25466, 0.00131408, 79.6904, -23.5387, 0, 0.00110333, 0.000748989, 0.000528377, 45.8176, -13.8169, 0, 0.00110316, 0.000587186, 0.0004094, 36.2159, -11.1402, 0, 0.00110311, 0.101143, -2.7602, 44.1097, 0.204452, -0.426651, 33.6429, -0.000215727, -0.000277522, 0.000717424, -0.000171617, -0.000171617, -0.000171617
8858, 1,0.000398903, 9.88096E-05, 6.9865E-05, 24.492, 6.03086, 0.00115718, 70.7787, -21.5709, 0, 0.00106847, 0.000496407, 0.000347935, 30.4333, -9.31343, 0, 0.00106826, 0.00030228, 0.00021181, 18.6111, -5.73484, 0, 0.0010682, 0.174709, -1.22213, 28.9877, 0.27341, -0.190231, 17.1213, -0.000143199, -0.00017693, 0.000471224, -8.49249E-05, -8.49249E-05, -8.49249E-05
8859, 1,0.000180345, 0.000114666, 7.88187E-05, 10.0841, 7.10675, 0.00105763, 64.5009, -19.4982, 0, 0.00103363, 0.000288504, 0.000213034, 16.9832, -4.75088, 0, 0.00103338, 8.51854E-05, 8.18495E-05, 3.68819, -0.30302, 0, 0.00103331, 0.12109, -2.56081, 16.6924, 0.184007, -2.42058, 3.14563, -7.23582E-05, -0.000135475, 0.000284889, -1.08645E-06, -1.08645E-06, -1.08645E-06
8860, 1,9.11279E-05, 0.000138604, 9.62872E-05, 1.53793, 8.55588, 0.00103299, 61.6854, -17.3338, 0, 0.000998824, 0.000146223, 0.000144031, 6.2541, -0.156283, 0, 0.000998546, 9.72009E-05, 0.000179609, 0.141594, 5.12995, 0, 0.00099846, 0.02654, -4.78225, 5.22456, 0.0103037, -4.33103, -11.0691, -1.91587E-06, -0.000110497, 0.000114908, 8.09495E-05, 8.09495E-05, 8.09495E-05
8861, 1,0.000637885, 8.41807E-05, 6.5079E-05, 39.0635, 4.88343, 0.00121925, 73.414, -21.126, 0, 0.00110281, 0.000714005, 0.000507479, 43.5252, -12.9344, 0, 0.00110266, 0.000564264, 0.000395479, 34.7315, -10.5755, 0, 0.00110262, 0.092556, -3.37524, 42.0859, 0.194485, -0.863058, 32.3951, -0.000202004, -0.000275733, 0.000687594, -0.000162926, -0.000162926, -0.000162926
8862, 1,0.000370454, 9.09996E-05, 6.51961E-05, 22.6396, 5.51439, 0.00106169, 64.5482, -19.2621, 0, 0.00106794, 0.000460056, 0.000325798, 28.06, -8.42272, 0, 0.00106775, 0.000281788, 0.000199174, 17.2822, -5.23629, 0, 0.00106769, 0.171972, -1.81696, 26.9131, 0.268797, -0.56156, 16.0016, -0.000129225, -0.000174546, 0.000440416, -7.71632E-05, -7.71632E-05, -7.71632E-05
8863, 1,0.000160128, 0.000104873, 7.27034E-05, 8.61562, 6.47156, 0.000968353, 58.6626, -17.3235, 0, 0.00103312, 0.000256896, 0.000195493, 14.8114, -3.86886, 0, 0.00103289, 7.83077E-05, 8.16307E-05, 3.04557, 0.119978, 0, 0.00103282, 0.118543, -3.15758, 14.6456, 0.180877, -2.75482, 2.21401, -5.85154E-05, -0.000133259, 0.000254521, 5.51946E-06, 5.51946E-06, 5.51946E-06
8864, 1,9.34506E-05, 0.000127691, 8.95197E-05, 1.2572, 7.84571, 0.00095701, 56.5956, -15.3208, 0, 0.000998315, 0.000134102, 0.000145597, 5.01293, 0.701363, 0, 0.000998055, 0.000101403, 0.000189213, 0.10209, 5.46872, 0, 0.000997978, 0.0198241, -5.35265, 3.22874, 0.00673814, -4.59406, -11.8188, 1.14604E-05, -0.00010812, 8.52419E-05, 8.62275E-05, 8.62275E-05, 8.62275E-05
8865, 1,0.000608889, 7.90506E-05, 6.25098E-05, 37.1742, 4.52087, 0.00112628, 67.2153, -18.6995, 0, 0.00110219, 0.000679143, 0.000486757, 41.2385, -12.0491, 0, 0.00110207, 0.000541324, 0.000381552, 33.2483, -10.0105, 0, 0.00110203, 0.084638, -4.00313, 40.0657, 0.184772, -1.30872, 31.1554, -0.00018822, -0.00027412, 0.000657834, -0.000154224, -0.000154224, -0.000154224
8866, 1,0.000342399, 8.33617E-05, 6.07106E-05, 20.8064, 5.00545, 0.00096792, 58.3903, -16.942, 0, 0.00106735, 0.000424255, 0.000304243, 25.7126, -7.53044, 0, 0.00106719, 0.000261541, 0.000186801, 15.9661, -4.73762, 0, 0.00106714, 0.168703, -2.4268, 24.8494, 0.263659, -0.943184, 14.8924, -0.000115237, -0.000172402, 0.000409808, -6.94104E-05, -6.94104E-05, -6.94104E-05
8867, 1,0.000142309, 9.5198E-05, 6.67154E-05, 7.26142, 5.84125, 0.000880926, 52.9021, -15.1357, 0, 0.00103251, 0.000227486, 0.000180185, 12.7397, -2.98418, 0, 0.0010323, 7.34924E-05, 8.34912E-05, 2.51603, 0.544119, 0, 0.00103224, 0.114479, -3.76952, 12.6076, 0.176595, -3.09687, 1.28792, -4.46632E-05, -0.000131262, 0.00022432, 1.21185E-05, 1.21185E-05, 1.21185E-05
8868, 1,9.72408E-05, 0.00011688, 8.28686E-05, 1.03875, 7.1395, 0.000883215, 51.5978, -13.2921, 0, 0.000997683, 0.000126701, 0.000151958, 4.01831, 1.564, 0, 0.000997443, 0.000105844, 0.000199101, 0.0698842, 5.81052, 0, 0.000997374, 0.0127054, -5.93957, 1.23486, 0.00289127, -4.86585, -12.5686, 2.49061E-05, -0.000105947, 5.56292E-05, 9.15462E-05, 9.15462E-05, 9.15462E-05
8869, 1,0.000579977, 7.41678E-05, 6.02129E-05, 35.289, 4.16888, 0.00103591, 61.1278, -16.2578, 0, 0.00110167, 0.000644485, 0.000466306, 38.9602, -11.1594, 0, 0.00110158, 0.00051839, 0.00036765, 31.7667, -9.44432, 0, 0.00110155, 0.0762768, -4.64324, 38.0452, 0.17462, -1.76288, 29.9212, -0.000174377, -0.000272651, 0.000628088, -0.000145511, -0.000145511, -0.000145511
8870, 1,0.000314889, 7.59597E-05, 5.64738E-05, 18.9995, 4.50704, 0.00087662, 52.3396, -14.6089, 0, 0.00106682, 0.000389216, 0.00028348, 23.4009, -6.63617, 0, 0.00106669, 0.000241636, 0.00017478, 14.6676, -4.23862, 0, 0.00106664, 0.164252, -3.04998, 22.7942, 0.257502, -1.33393, 13.7923, -0.000101242, -0.00017046, 0.000379362, -6.16735E-05, -6.16735E-05, -6.16735E-05
8871, 1,0.000127406, 8.56953E-05, 6.09078E-05, 6.05057, 5.21866, 0.000796098, 47.2556, -12.9359, 0, 0.00103199, 0.000200968, 0.000167809, 10.8031, -2.09769, 0, 0.0010318, 7.06446E-05, 8.73436E-05, 2.09239, 0.969048, 0, 0.00103175, 0.110344, -4.39265, 10.5754, 0.172202, -3.44464, 0.365289, -3.0784E-05, -0.00012942, 0.000194217, 1.87274E-05, 1.87274E-05, 1.87274E-05
8872, 1,0.000102228, 0.000106224, 7.63847E-05, 0.86883, 6.44004, 0.000812318, 46.7284, -11.2517, 0, 0.000997188, 0.00012362, 0.000162707, 3.24696, 2.43047, 0, 0.000996967, 0.000110516, 0.000209263, 0.0473055, 6.15482, 0, 0.000996906, 0.00623443, -6.53914, -0.7585, -0.000745751, -5.14455, -13.3192, 3.84253E-05, -0.000103919, 2.60266E-05, 9.69077E-05, 9.69077E-05, 9.69077E-05
8873, 1,0.000551195, 6.95781E-05, 5.82339E-05, 33.4106, 3.82977, 0.000948976, 55.194, -13.8045, 0, 0.00110105, 0.000610106, 0.000446197, 36.6946, -10.2661, 0, 0.00110098, 0.000495484, 0.00035379, 30.2883, -8.87744, 0, 0.00110096, 0.068245, -5.29153, 36.0215, 0.164517, -2.2231, 28.6909, -0.000160469, -0.000271256, 0.000598292, -0.000136785, -0.000136785, -0.000136785
8874, 1,0.000288085, 6.88705E-05, 5.25633E-05, 17.2265, 4.02282, 0.000788781, 46.4404, -12.2596, 0, 0.00106621, 0.000355174, 0.000263752, 21.136, -5.73973, 0, 0.0010661, 0.000222163, 0.00016321, 13.3908, -3.73918, 0, 0.00106606, 0.159301, -3.68375, 20.7436, 0.2509, -1.73206, 12.6987, -8.72235E-05, -0.000168662, 0.000349003, -5.39388E-05, -5.39388E-05, -5.39388E-05
8875, 1,0.000115861, 7.64468E-05, 5.53639E-05, 5.0075, 4.60759, 0.000714979, 41.772, -10.7194, 0, 0.00103139, 0.000178168, 0.000159188, 9.04298, -1.20858, 0, 0.00103123, 6.95761E-05, 9.29947E-05, 1.76014, 1.39527, 0, 0.00103119, 0.105003, -5.02596, 8.54669, 0.166796, -3.79747, -0.555147, -1.68891E-05, -0.000127701, 0.00016418, 2.53348E-05, 2.53348E-05, 2.53348E-05
8876, 1,0.000108167, 9.58003E-05, 7.01489E-05, 0.735, 5.75073, 0.000745166, 42.0251, -9.19593, 0, 0.000996594, 0.000124188, 0.000177187, 2.65718, 3.30214, 0, 0.000996392, 0.000115388, 0.000219673, 0.0350739, 6.50216, 0, 0.00099634, -0.000374419, -7.15158, -2.75447, -0.00437605, -5.43002, -14.0721, 5.20229E-05, -0.000102026, -3.60404E-06, 0.000102316, 0.000102316, 0.000102316
8877, 1,0.000522605, 6.53331E-05, 5.66251E-05, 31.5416, 3.50593, 0.000866388, 49.4641, -11.3494, 0, 0.00110051, 0.000576116, 0.000426546, 34.4464, -9.36855, 0, 0.00110048, 0.000472634, 0.000340005, 28.814, -8.30951, 0, 0.00110046, 0.0604067, -5.94583, 33.9911, 0.154454, -2.68777, 27.4619, -0.000146489, -0.000269886, 0.000568381, -0.000128041, -0.000128041, -0.000128041
8878, 1,0.000262223, 6.21939E-05, 4.90797E-05, 15.4982, 3.55755, 0.000705994, 40.7588, -9.88214, 0, 0.00106567, 0.000322461, 0.000245391, 18.9333, -4.84075, 0, 0.00106558, 0.000203263, 0.000152228, 12.1424, -3.23904, 0, 0.00106556, 0.153375, -4.32568, 18.6946, 0.243385, -2.13609, 11.6098, -7.31851E-05, -0.000166956, 0.000318675, -4.62118E-05, -4.62118E-05, -4.62118E-05
8879, 1,0.00010784, 6.75561E-05, 5.01879E-05, 4.14188, 4.01299, 0.000638961, 36.5123, -8.4795, 0, 0.00103086, 0.000159813, 0.000155055, 7.49735, -0.316943, 0, 0.00103072, 7.00257E-05, 0.00010019, 1.50179, 1.8227, 0, 0.00103068, 0.0992965, -5.66583, 6.51736, 0.160999, -4.1534, -1.4757, -2.9625E-06, -0.000126038, 0.000134126, 3.19527E-05, 3.19527E-05, 3.19527E-05
8880, 1,0.000114907, 8.57089E-05, 6.4259E-05, 0.63064, 5.0766, 0.000682586, 37.5289, -7.12738, 0, 0.000996073, 0.000127721, 0.000194711, 2.20927, 4.17858, 0, 0.00099589, 0.000120457, 0.00023033, 0.0295814, 6.8528, 0, 0.000995847, -0.0068832, -7.77322, -4.75563, -0.00833529, -5.72085, -14.8292, 6.56969E-05, -0.000100203, -3.33188E-05, 0.000107769, 0.000107769, 0.000107769
8881, 1,0.000494276, 6.14818E-05, 5.54365E-05, 29.6854, 3.19973, 0.000789988, 43.9918, -8.84877, 0, 0.00109988, 0.000542631, 0.000407472, 32.2211, -8.46665, 0, 0.00109987, 0.000449868, 0.000326326, 27.3454, -7.74042, 0, 0.00109986, 0.0527327, -6.60289, 31.9501, 0.144353, -3.15491, 26.2318, -0.000132436, -0.000268471, 0.00053828, -0.000119278, -0.000119278, -0.000119278
8882, 1,0.000237586, 5.60497E-05, 4.61436E-05, 13.8279, 3.11693, 0.000630567, 35.3899, -7.45742, 0, 0.00106505, 0.000291482, 0.000228809, 16.8118, -3.93905, 0, 0.00106499, 0.000185103, 0.000142006, 10.9301, -2.73813, 0, 0.00106497, 0.146823, -4.97296, 16.6433, 0.235318, -2.54417, 10.5232, -5.91168E-05, -0.000165286, 0.000288308, -3.84844E-05, -3.84844E-05, -3.84844E-05
8883, 1,0.000103235, 5.91797E-05, 4.55376E-05, 3.44671, 3.44229, 0.000569574, 31.5502, -6.21797, 0, 0.00103025, 0.000146404, 0.000155911, 6.19245, 0.577648, 0, 0.00103014, 7.17378E-05, 0.00010867, 1.30131, 2.25161, 0, 0.00103011, 0.0926471, -6.31042, 4.48483, 0.154289, -4.51129, -2.39782, 1.099E-05, -0.000124389, 0.000104012, 3.85736E-05, 3.85736E-05, 3.85736E-05
8884, 1,0.000122302, 7.60922E-05, 5.88584E-05, 0.54956, 4.42434, 0.000625368, 33.2724, -5.03943, 0, 0.000995471, 0.000133586, 0.000214649, 1.86799, 5.06016, 0, 0.000995308, 0.000125705, 0.000241223, 0.0268383, 7.20685, 0, 0.000995274, -0.0130574, -8.40253, -6.76489, -0.0121844, -6.01604, -15.5923, 7.94582E-05, -9.8417E-05, -6.31667E-05, 0.000113276, 0.000113276, 0.000113276
8885, 1,0.000466296, 5.80707E-05, 5.47159E-05, 27.8459, 2.91333, 0.000722346, 38.8461, -6.23177, 0, 0.00109936, 0.000509799, 0.000389131, 30.0256, -7.5598, 0, 0.00109938, 0.000427229, 0.000312797, 25.8845, -7.16982, 0, 0.00109937, 0.045179, -7.26047, 29.8947, 0.134222, -3.6231, 24.9983, -0.000118302, -0.000266954, 0.000507917, -0.000110492, -0.000110492, -0.000110492
8886, 1,0.000214544, 5.05734E-05, 4.38917E-05, 12.232, 2.70738, 0.000563904, 30.4205, -5.01312, 0, 0.00106452, 0.000262751, 0.000214519, 14.7946, -3.03424, 0, 0.00106449, 0.000167908, 0.000132765, 9.76373, -2.23625, 0, 0.00106447, 0.139379, -5.62273, 14.5861, 0.226484, -2.95448, 9.43675, -4.50195E-05, -0.000163593, 0.000257839, -3.07587E-05, -3.07587E-05, -3.07587E-05
8887, 1,0.000101671, 5.15233E-05, 4.16188E-05, 2.90026, 2.90525, 0.000508268, 26.9499, -3.92912, 0, 0.00102975, 0.000137977, 0.000161799, 5.13024, 1.47544, 0, 0.00102966, 7.44757E-05, 0.000118206, 1.14519, 2.68216, 0, 0.00102964, 0.0854815, -6.95676, 2.44495, 0.147149, -4.86951, -3.32412, 2.49804E-05, -0.000122694, 7.37628E-05, 4.52099E-05, 4.52099E-05, 4.52099E-05
8888, 1,0.00013025, 6.71285E-05, 5.4127E-05, 0.487879, 3.80232, 0.000574183, 29.2792, -2.92164, 0, 0.000994966, 0.000141279, 0.000236501, 1.60725, 5.94703, 0, 0.000994823, 0.00013112, 0.000252332, 0.0251305, 7.56415, 0, 0.000994797, -0.019151, -9.0367, -8.78524, -0.0160894, -6.31404, -16.3623, 9.33031E-05, -9.66115E-05, -9.32033E-05, 0.000118832, 0.000118832, 0.000118832
8889, 1,0.000438783, 5.51404E-05, 5.45046E-05, 26.0288, 2.64868, 0.000665314, 34.1865, -3.59493, 0, 0.00109873, 0.000477814, 0.000371717, 27.8687, -6.64805, 0, 0.00109878, 0.000404772, 0.000299476, 24.4341, -6.59786, 0, 0.00109878, 0.0380239, -7.91542, 27.8216, 0.124333, -4.09014, 23.7594, -0.000104085, -0.000265274, 0.000477228, -0.00010168, -0.00010168, -0.00010168
8890, 1,0.000193526, 4.59034E-05, 4.24621E-05, 10.7298, 2.33552, 0.000507076, 25.9136, -2.56641, 0, 0.0010639, 0.000236859, 0.000203116, 12.9087, -2.12633, 0, 0.0010639, 0.000151941, 0.000124771, 8.65485, -1.73333, 0, 0.00106389, 0.131438, -6.27175, 12.5193, 0.217205, -3.36504, 8.34783, -3.08864E-05, -0.000161815, 0.000227199, -2.30284E-05, -2.30284E-05, -2.30284E-05
8891, 1,0.00010267, 4.48435E-05, 3.86888E-05, 2.47585, 2.41407, 0.000456507, 22.7806, -1.61304, 0, 0.00102914, 0.000134144, 0.000172332, 4.2903, 2.37654, 0, 0.00102908, 7.80499E-05, 0.000128604, 1.02345, 3.11442, 0, 0.00102906, 0.0777491, -7.60186, 0.394495, 0.139488, -5.22635, -4.2564, 3.9008E-05, -0.000120893, 4.33169E-05, 5.18595E-05, 5.18595E-05, 5.18595E-05
8892, 1,0.00013868, 5.90505E-05, 5.0297E-05, 0.442853, 3.22162, 0.000529769, 25.574, -0.76047, 0, 0.000994372, 0.000150426, 0.000259894, 1.40854, 6.83926, 0, 0.000994249, 0.000136694, 0.000263657, 0.0241384, 7.92496, 0, 0.000994232, -0.0249137, -9.67301, -10.8199, -0.019957, -6.61355, -17.1414, 0.000107238, -9.47305E-05, -0.000123492, 0.000124442, 0.000124442, 0.000124442
8893, 1,0.000411875, -5.69422E-05, 5.48305E-05, 24.2397, -2.82173, 0.000619436, 30.1119, -1.03632, 0, 0.00109817, 0.000446898, 0.000355454, 25.76, -5.73128, 0, 0.00109825, 0.000382568, 0.000286433, 22.9968, -6.02435, 0, 0.00109826, 0.031252, -8.56409, 25.7267, 0.114612, -4.55377, 22.5122, -8.97811E-05, -0.000263366, 0.000446144, -9.28422E-05, -9.28422E-05, -9.28422E-05
8894, 1,0.000175003, 4.21536E-05, 4.19694E-05, 9.34205, 2.00676, 0.000461562, 21.944, -0.123986, 0, 0.00106338, 0.000214427, 0.000195224, 11.182, -1.21494, 0, 0.0010634, 0.000137506, 0.000118332, 7.61643, -1.22912, 0, 0.0010634, 0.12307, -6.9172, 10.439, 0.207598, -3.77411, 7.25387, -1.67113E-05, -0.000159893, 0.000196317, -1.52877E-05, -1.52877E-05, -1.52877E-05
8895, 1,0.000105742, 3.94124E-05, 3.70201E-05, 2.14738, 1.98165, 0.000415698, 19.1129, 0.724259, 0, 0.00102863, 0.000134235, 0.00018684, 3.63756, 3.2812, 0, 0.00102858, 8.2307E-05, 0.000139715, 0.928481, 3.54856, 0, 0.00102858, 0.0694879, -8.24282, -1.67026, 0.131359, -5.58015, -5.19688, 5.30769E-05, -0.000118926, 1.2605E-05, 5.85256E-05, 5.85256E-05, 5.85256E-05
8896, 1,0.000147527, 5.21204E-05, 4.76313E-05, 0.412151, 2.69465, 0.00049296, 22.1831, 1.46117, 0, 0.000993848, 0.000160735, 0.000284539, 1.25804, 7.73707, 0, 0.000993747, 0.000142419, 0.000275191, 0.0237357, 8.28939, 0, 0.000993738, -0.0304847, -10.3088, -12.8719, -0.0238795, -6.91313, -17.9312, 0.000121262, -9.27159E-05, -0.000154095, 0.000130106, 0.000130106, 0.000130106
8897, 1,0.000385734, -6.05982E-05, 5.57093E-05, 22.4851, -3.12447, 0.000584757, 26.6225, 1.44712, 0, 0.00109755, 0.000417307, 0.000340606, 23.7099, -4.80897, 0, 0.00109766, 0.00036069, 0.000273748, 21.5754, -5.44903, 0, 0.00109768, 0.0248907, -9.2034, 23.6054, 0.105183, -5.0118, 21.2537, -7.5384E-05, -0.000261169, 0.000414587, -8.3971E-05, -8.3971E-05, -8.3971E-05
8898, 1,0.000159441, -4.55684E-05, 4.24777E-05, 8.08904, -2.32925, 0.000428386, 18.5793, 2.28842, 0, 0.00106277, 0.000196023, 0.000191414, 9.6396, -0.299847, 0, 0.00106282, 0.000124939, 0.000113779, 6.6625, -0.723532, 0, 0.00106282, 0.114037, -7.55597, 8.34148, 0.197422, -4.17969, 6.15286, -2.49549E-06, -0.000157763, 0.000165126, -7.54049E-06, -7.54049E-06, -7.54049E-06
8899, 1,0.000110471, -3.82057E-05, 3.68223E-05, 1.89347, -1.90008, 0.000386852, 15.9931, 3.08469, 0, 0.00102801, 0.000137517, 0.000204596, 3.13458, 4.18954, 0, 0.00102799, 8.71328E-05, 0.000151426, 0.854968, 3.98464, 0, 0.00102799, 0.060956, -8.8765, -3.75306, 0.123006, -5.92918, -6.14775, 6.7194E-05, -0.000116726, -1.84466E-05, 6.5214E-05, 6.5214E-05, 6.5214E-05
8900, 1,0.000156748, 4.65844E-05, 4.63768E-05, 0.394349, 2.23302, 0.000464706, 19.1405, 3.75761, 0, 0.000993287, 0.000172001, 0.000310232, 1.14637, 8.64045, 0, 0.000993208, 0.000148292, 0.000286929, 0.0246631, 8.65729, 0, 0.000993208, -0.0354954, -10.9411, -14.9448, -0.0274373, -7.21115, -18.7333, 0.000135383, -9.05034E-05, -0.000185083, 0.00013583, 0.00013583, 0.00013583
8901, 1,0.000360565, -6.48366E-05, 5.714E-05, 20.7733, -3.45639, 0.000560302, 23.6807, 3.84403, 0, 0.00109699, 0.000389345, 0.000327479, 21.7312, -3.88087, 0, 0.00109712, 0.000339249, 0.000261531, 20.1741, -4.87164, 0, 0.00109714, 0.0186776, -9.82998, 21.4539, 0.0957146, -5.46215, 19.9814, -6.08922E-05, -0.000258623, 0.000382492, -7.50678E-05, -7.50678E-05, -7.50678E-05
8902, 1,0.000147185, -5.0367E-05, 4.39831E-05, 6.98521, -2.71015, 0.000407366, 15.8127, 4.66829, 0, 0.00106222, 0.000182012, 0.000192058, 8.29737, 0.619267, 0, 0.00106229, 0.000114526, 0.00011141, 5.80455, -0.216318, 0, 0.00106231, 0.104734, -8.18484, 6.22231, 0.187069, -4.57983, 5.04172, 1.17738E-05, -0.000155363, 0.000133547, 2.25229E-07, 2.25229E-07, 2.25229E-07
8903, 1,0.000116518, -4.33292E-05, 3.8156E-05, 1.69721, -2.31902, 0.000370102, 13.4292, 5.46586, 0, 0.0010275, 0.000143327, 0.000224939, 2.74792, 5.10187, 0, 0.00102751, 9.24326E-05, 0.000163644, 0.798649, 4.42286, 0, 0.00102752, 0.052069, -9.49994, -5.85774, 0.11434, -6.27181, -7.11112, 8.13623E-05, -0.000114232, -4.99096E-05, 7.19262E-05, 7.19262E-05, 7.19262E-05
8904, 1,0.000166306, -5.07849E-05, 4.66936E-05, 0.387773, -2.61904, 0.00044579, 16.4744, 6.14007, 0, 0.000992783, 0.000184064, 0.000336818, 1.0662, 9.54978, 0, 0.000992728, 0.000154306, 0.00029887, 0.027121, 9.02915, 0, 0.000992736, -0.0403214, -11.5669, -17.0421, -0.0312133, -7.50623, -19.55, 0.0001496, -8.80224E-05, -0.000216531, 0.00014161, 0.00014161, 0.00014161
8905, 1,0.000336597, -6.96442E-05, 5.91089E-05, 19.1133, -3.81684, 0.000544661, 21.2229, 6.15095, 0, 0.00109636, 0.000363345, 0.000316411, 19.8373, -2.94683, 0, 0.00109652, 0.000318364, 0.000249907, 18.7971, -4.29217, 0, 0.00109655, 0.0131144, -10.4403, 19.2677, 0.0867313, -5.90243, 18.6922, -4.62966E-05, -0.000255666, 0.000349787, -6.6124E-05, -6.6124E-05, -6.6124E-05
8906, 1,0.000138402, -5.6116E-05, 4.64201E-05, 6.03772, -3.13724, 0.00039726, 13.5896, 7.01081, 0, 0.00106161, 0.000172493, 0.000197253, 7.15947, 1.54246, 0, 0.00106171, 0.000106484, 0.000111436, 5.05122, 0.292515, 0, 0.00106173, 0.0949999, -8.80022, 4.07785, 0.176367, -4.9722, 3.91829, 2.60944E-05, -0.000152624, 0.00010151, 8.00622E-06, 8.00622E-06, 8.00622E-06
8907, 1,0.000123624, -4.98853E-05, 4.09077E-05, 1.54617, -2.80687, 0.000364535, 11.3773, 7.86879, 0, 0.0010269, 0.000151124, 0.000247335, 2.45107, 6.01836, 0, 0.00102693, 9.81387E-05, 0.000176307, 0.7567, 4.86336, 0, 0.00102695, 0.0429161, -10.1097, -7.98828, 0.105414, -6.60605, -8.08944, 9.55876E-05, -0.00011137, -8.18635E-05, 7.86662E-05, 7.86662E-05, 7.86662E-05
8908, 1,0.000176183, -5.70041E-05, 4.85953E-05, 0.391897, -3.11406, 0.00043656, 14.197, 8.61444, 0, 0.000992224, 0.000196817, 0.000364193, 1.01265, 10.4651, 0, 0.000992194, 0.00016047, 0.000311024, 0.0340424, 9.40473, 0, 0.000992211, -0.0445246, -12.1828, -19.168, -0.0345644, -7.79623, -20.3834, 0.000163924, -8.52006E-05, -0.000248525, 0.000147457, 0.000147457, 0.000147457
8909, 1,0.000314094, -7.49969E-05, 6.15912E-05, 17.5152, -4.20463, 0.000536136, 19.1713, 8.36432, 0, 0.00109581, 0.000339654, 0.000307751, 18.0421, -2.00654, 0, 0.001096, 0.000298186, 0.000239025, 17.4501, -3.71038, 0, 0.00109603, 0.0077976, -11.031, 17.0428, 0.0778432, -6.33028, 17.3836, -3.15984E-05, -0.000252237, 0.000316405, -5.71416E-05, -5.71416E-05, -5.71416E-05
8910, 1,0.000133016, -6.27089E-05, 4.96813E-05, 5.24318, -3.60545, 0.000396237, 11.8224, 9.3175, 0, 0.00106108, 0.000167248, 0.000206791, 6.21613, 2.47008, 0, 0.00106119, 0.000100873, 0.000113927, 4.40497, 0.803204, 0, 0.00106122, 0.0849091, -9.39931, 1.90415, 0.165429, -5.35513, 2.78009, 4.04759E-05, -0.000149487, 6.89429E-05, 1.58107E-05, 1.58107E-05, 1.58107E-05
8911, 1,0.000131593, -5.76481E-05, 4.48506E-05, 1.43115, -3.35298, 0.000368566, 9.7625, 10.2935, 0, 0.00102638, 0.000160497, 0.000271377, 2.22392, 6.93935, 0, 0.00102644, 0.000104198, 0.000189366, 0.727055, 5.30631, 0, 0.00102647, 0.0335806, -10.7026, -10.149, 0.0963768, -6.93008, -9.08523, 0.000109879, -0.000108075, -0.000114391, 8.54425E-05, 8.54425E-05, 8.54425E-05
8912, 1,0.000186371, -6.46955E-05, 5.19501E-05, 0.40628, -3.67997, 0.000436815, 12.2995, 11.1798, 0, 0.000991733, 0.000210187, 0.000392286, 0.98234, 11.3866, 0, 0.00099173, 0.000166794, 0.0003234, 0.0485248, 9.78428, 0, 0.000991755, -0.0484201, -12.785, -21.3264, -0.0379541, -8.07928, -21.2356, 0.000178351, -8.19579E-05, -0.000281143, 0.000153365, 0.000153365, 0.000153365
8913, 1,0.000293319, -8.08637E-05, 6.45551E-05, 15.9898, -4.61826, 0.000533103, 17.446, 10.4885, 0, 0.00109517, 0.000318597, 0.000301832, 16.3593, -1.05977, 0, 0.00109537, 0.000278864, 0.000229043, 16.1387, -3.12614, 0, 0.00109541, 0.00297283, -11.598, 14.7743, 0.0693104, -6.74303, 16.0521, -1.67844E-05, -0.000248264, 0.000282258, -4.81087E-05, -4.81087E-05, -4.81087E-05
8914, 1,0.000130751, -7.00249E-05, 5.36458E-05, 4.58969, -4.10902, 0.00040243, 10.4216, 11.5903, 0, 0.00106048, 0.000165841, 0.000220237, 5.44778, 3.40219, 0, 0.00106063, 9.76042E-05, 0.000118794, 3.86216, 1.31578, 0, 0.00106066, 0.0745573, -9.9781, -0.30301, 0.15432, -5.72611, 1.62444, 5.49249E-05, -0.00014587, 3.57557E-05, 2.36443E-05, 2.36443E-05, 2.36443E-05
8915, 1,0.000140289, -6.63685E-05, 4.97351E-05, 1.3458, -3.9455, 0.000380462, 8.50395, 12.7387, 0, 0.0010258, 0.000171146, 0.000296767, 2.05218, 7.86492, 0, 0.00102589, 0.000110575, 0.000202787, 0.708405, 5.75177, 0, 0.00102592, 0.0238896, -11.2753, -12.3434, 0.0869909, -7.24194, -10.1003, 0.000124237, -0.000104278, -0.000147561, 9.22527E-05, 9.22527E-05, 9.22527E-05
8916, 1,0.000196854, -7.36411E-05, 5.65395E-05, 0.429878, -4.30655, 0.000445823, 10.7519, 13.8301, 0, 0.000991162, 0.000224108, 0.000421037, 0.971893, 12.3147, 0, 0.000991186, 0.000173275, 0.000336003, 0.0712268, 10.168, 0, 0.000991221, -0.0518676, -13.3705, -23.5216, -0.0411767, -8.35371, -22.1091, 0.00019289, -7.82295E-05, -0.000314466, 0.000159343, 0.000159343, 0.000159343
8917, 1,0.000274548, -8.72063E-05, 6.79617E-05, 14.5483, -5.05589, 0.000534095, 15.9688, 12.5354, 0, 0.00109458, 0.000300463, 0.000298948, 14.801, -0.106048, 0, 0.00109481, 0.000260581, 0.000220147, 14.87, -2.53905, 0, 0.00109485, -0.00164417, -12.1384, 12.4582, 0.0608799, -7.13882, 14.6951, -1.85302E-06, -0.000243685, 0.000247275, -3.90248E-05, -3.90248E-05, -3.90248E-05
8918, 1,0.000131211, -7.79477E-05, 5.81964E-05, 4.0597, -4.64243, 0.000414248, 9.30802, 13.8344, 0, 0.0010599, 0.000167723, 0.000237047, 4.82946, 4.33908, 0, 0.00106006, 9.64613E-05, 0.000125827, 3.41387, 1.83043, 0, 0.00106011, 0.0636339, -10.5337, -2.5472, 0.142793, -6.08324, 0.449159, 6.9442E-05, -0.000141714, 1.88398E-06, 3.15064E-05, 3.15064E-05, 3.15064E-05
8919, 1,0.000149598, -7.58267E-05, 5.53409E-05, 1.28494, -4.57401, 0.000398647, 7.52576, 15.2064, 0, 0.00102524, 0.000182839, 0.000323278, 1.92472, 8.79537, 0, 0.00102535, 0.000117235, 0.000216541, 0.699551, 6.19991, 0, 0.00102539, 0.0137828, -11.8239, -14.576, 0.0772932, -7.53943, -11.1376, 0.000138667, -9.99041E-05, -0.000181459, 9.9103E-05, 9.9103E-05, 9.9103E-05
8920, 1,0.000207641, -8.36066E-05, 6.2128E-05, 0.462787, -4.98268, 0.000462542, 9.51392, 16.5539, 0, 0.000990631, 0.000238555, 0.000450429, 0.979699, 13.2497, 0, 0.000990684, 0.000179933, 0.000348857, 0.101097, 10.5562, 0, 0.000990727, -0.054972, -13.9349, -25.7592, -0.0443561, -8.61713, -23.0072, 0.000207549, -7.39288E-05, -0.000348593, 0.000165396, 0.000165396, 0.000165396
8921, 1,0.000258025, -9.3988E-05, 7.17744E-05, 13.2018, -5.51571, 0.000538156, 14.6975, 14.5005, 0, 0.00109401, 0.000285458, 0.000299302, 13.3776, 0.85423, 0, 0.00109425, 0.000243518, 0.000212516, 13.652, -1.94939, 0, 0.0010943, -0.00549726, -12.6476, 10.0904, 0.0529695, -7.51457, 13.3098, 1.31989E-05, -0.0002384, 0.00021136, -2.98874E-05, -2.98874E-05, -2.98874E-05
8922, 1,0.000133978, -8.63798E-05, 6.32347E-05, 3.63482, -5.20103, 0.000430712, 8.41733, 16.0742, 0, 0.00105934, 0.000172359, 0.000256691, 4.33688, 5.28093, 0, 0.00105952, 9.71715E-05, 0.000134755, 3.04891, 2.34724, 0, 0.00105958, 0.052417, -11.0619, -4.83331, 0.131101, -6.42398, -0.748835, 8.40374E-05, -0.000136934, -3.27711E-05, 3.94051E-05, 3.94051E-05, 3.94051E-05
8923, 1,0.000159446, -8.58551E-05, 6.14997E-05, 1.24495, -5.23049, 0.000421914, 6.76915, 17.6989, 0, 0.00102471, 0.000195413, 0.000350754, 1.83367, 9.73095, 0, 0.00102485, 0.000124159, 0.000230612, 0.699705, 6.65092, 0, 0.0010249, 0.00323096, -12.3448, -16.8513, 0.0672492, -7.82043, -12.1996, 0.000153175, -9.48843E-05, -0.000216164, 0.000105996, 0.000105996, 0.000105996
8924, 1,0.000218721, -9.43853E-05, 6.85072E-05, 0.503982, -5.6986, 0.000485747, 8.53874, 19.3363, 0, 0.000990133, 0.000253488, 0.00048043, 1.0033, 14.1924, 0, 0.000990216, 0.000186764, 0.000361963, 0.136592, 10.9494, 0, 0.000990268, -0.0580124, -14.4752, -28.0438, -0.0476885, -8.86804, -23.9326, 0.000222332, -6.90003E-05, -0.000383598, 0.000171525, 0.000171525, 0.000171525
8925, 1,0.000243959, -0.000101175, 7.59573E-05, 11.96, -5.99626, 0.000545693, 13.5892, 16.4672, 0, 0.00109336, 0.000273697, 0.000303021, 12.0947, 1.822, 0, 0.00109362, 0.00022787, 0.000206351, 12.4933, -1.35662, 0, 0.00109367, -0.00928796, -13.1235, 7.6668, 0.045224, -7.86891, 11.8935, 2.83764E-05, -0.000232345, 0.000174427, -2.06916E-05, -2.06916E-05, -2.06916E-05
8926, 1,0.000138649, -9.52379E-05, 6.86772E-05, 3.29669, -5.78087, 0.000451375, 7.70937, 18.3352, 0, 0.00105874, 0.000179254, 0.000278677, 3.94702, 6.22796, 0, 0.00105895, 9.9442E-05, 0.000145288, 2.75454, 2.86636, 0, 0.001059, 0.0408181, -11.5598, -7.16492, 0.119223, -6.74635, -1.97194, 9.87127E-05, -0.000131468, -6.8277E-05, 4.7342E-05, 4.7342E-05, 4.7342E-05
8927, 1,0.00016977, -9.63307E-05, 6.80882E-05, 1.22319, -5.90903, 0.000449261, 6.1872, 20.2159, 0, 0.00102413, 0.000208745, 0.000379072, 1.77335, 10.6717, 0, 0.00102429, 0.000131329, 0.000244983, 0.708277, 7.10481, 0, 0.00102435, -0.0076177, -12.8341, -19.1733, 0.0568883, -8.08259, -13.2887, 0.000167762, -8.91468E-05, -0.00025175, 0.000112933, 0.000112933, 0.000112933
8928, 1,0.000230096, -0.000105809, 7.55101E-05, 0.554178, -6.44618, 0.000514253, 7.78392, 22.1594, 0, 0.000989574, 0.00026889, 0.000511018, 1.04252, 15.142, 0, 0.000989687, 0.000193777, 0.000375328, 0.178232, 11.347, 0, 0.000989748, -0.0602019, -14.9862, -30.3796, -0.0505713, -9.10321, -24.8874, 0.000237245, -6.33596E-05, -0.000419558, 0.000177736, 0.000177736, 0.000177736
8929, 1,0.000232499, -0.000108735, 8.04793E-05, 10.83, -6.49597, 0.000557554, 12.5976, 18.5512, 0, 0.00109282, 0.000265196, 0.000310119, 10.9545, 2.79709, 0, 0.0010931, 0.000213827, 0.000201845, 11.4022, -0.760718, 0, 0.00109316, -0.0123958, -13.562, 5.18311, 0.0380096, -8.19934, 10.4435, 4.36827E-05, -0.000225419, 0.000136375, -1.14368E-05, -1.14368E-05, -1.14368E-05
8930, 1,0.000144891, -0.000104457, 7.44584E-05, 3.03006, -6.37876, 0.000475633, 7.1545, 20.6189, 0, 0.00105821, 0.000188008, 0.000302604, 3.64135, 7.18022, 0, 0.00105844, 0.000103012, 0.000157162, 2.5193, 3.38785, 0, 0.00105851, 0.0288861, -12.0227, -9.54687, 0.107146, -7.04734, -3.22336, 0.000113468, -0.000125227, -0.000104721, 5.5316E-05, 5.5316E-05, 5.5316E-05
8931, 1,0.000180525, -0.000107165, 7.50173E-05, 1.21749, -6.60542, 0.000479866, 5.73898, 22.7601, 0, 0.00102362, 0.00022274, 0.000408138, 1.73914, 11.6178, 0, 0.00102381, 0.000138734, 0.000259642, 0.72488, 7.56175, 0, 0.00102388, -0.0187195, -13.2882, -21.5466, 0.0464077, -8.32382, -14.4078, 0.000182434, -8.26252E-05, -0.000288294, 0.00011992, 0.00011992, 0.00011992
8932, 1,0.000241754, -0.000117755, 8.30105E-05, 0.612245, -7.21963, 0.000546951, 7.20609, 25.0113, 0, 0.000989093, 0.000284732, 0.000542174, 1.09524, 16.0998, 0, 0.000989236, 0.000200965, 0.00038895, 0.225018, 11.7499, 0, 0.000989306, -0.0624755, -15.4647, -32.7722, -0.0537143, -9.32107, -25.8748, 0.000252287, -5.69433E-05, -0.000456554, 0.000184024, 0.000184024, 0.000184024
8933, 1,0.000223709, -0.000116637, 8.53072E-05, 9.815, -7.01341, 0.000573413, 11.746, 20.7004, 0, 0.00109215, 0.000259858, 0.000320506, 9.95314, 3.77993, 0, 0.00109245, 0.00020157, 0.000199181, 10.386, -0.161436, 0, 0.00109252, -0.0149276, -13.9601, 2.63525, 0.0312991, -8.50382, 8.95683, 5.91216E-05, -0.00021755, 9.71219E-05, -2.1198E-06, -2.1198E-06, -2.1198E-06
8934, 1,0.000152436, -0.000113989, 8.05301E-05, 2.82239, -6.99253, 0.000502719, 6.70805, 22.9365, 0, 0.00105758, 0.000198306, 0.000328165, 3.40495, 8.13833, 0, 0.00105784, 0.000107663, 0.000170165, 2.33328, 3.91216, 0, 0.00105791, 0.0166788, -12.4473, -11.9843, 0.094972, -7.32498, -4.50647, 0.00012831, -0.000118139, -0.000142196, 6.3333E-05, 6.3333E-05, 6.3333E-05
8935, 1,0.000191675, -0.000118297, 8.22255E-05, 1.22615, -7.31678, 0.000513087, 5.39617, 25.329, 0, 0.00102303, 0.000237328, 0.000437887, 1.72766, 12.5698, 0, 0.00102324, 0.000146364, 0.000274579, 0.748972, 8.02196, 0, 0.00102332, -0.0301851, -13.7035, -23.9758, 0.03561, -8.54201, -15.5595, 0.000197193, -7.52462E-05, -0.000325876, 0.000126953, 0.000126953, 0.000126953
8936, 1,0.000253704, -0.000130129, 9.09168E-05, 0.67935, -8.01433, 0.000582963, 6.77213, 27.8809, 0, 0.000988525, 0.00030101, 0.000573892, 1.16224, 17.0649, 0, 0.000988698, 0.000208338, 0.000402838, 0.278066, 12.1573, 0, 0.000988777, -0.0639257, -15.9049, -35.226, -0.0564235, -9.51819, -26.8973, 0.000267463, -4.9657E-05, -0.000494674, 0.000190396, 0.000190396, 0.000190396
8937, 1,0.000217582, -0.000124857, 9.04174E-05, 8.91463, -7.54751, 0.000592476, 11.0448, 22.8503, 0, 0.00109159, 0.000257522, 0.000334024, 9.08349, 4.77095, 0, 0.00109191, 0.00019125, 0.000198511, 9.45023, 0.441546, 0, 0.00109198, -0.0172131, -14.3143, 0.0186161, 0.0247836, -8.77979, 7.43037, 7.46938E-05, -0.000208659, 5.65804E-05, 7.25916E-06, 7.25916E-06, 7.25916E-06
8938, 1,0.000161066, -0.000123796, 8.68525E-05, 2.66364, -7.62034, 0.000532045, 6.34512, 25.2843, 0, 0.00105703, 0.000209895, 0.000355107, 3.22592, 9.10246, 0, 0.0010573, 0.000113215, 0.000184114, 2.18841, 4.43936, 0, 0.00105738, 0.0041727, -12.8305, -14.481, 0.0826451, -7.57715, -5.82357, 0.000143241, -0.000110134, -0.000180774, 7.1393E-05, 7.1393E-05, 7.1393E-05
8939, 1,0.000203194, -0.000129685, 8.96682E-05, 1.24773, -8.04111, 0.000548388, 5.13593, 27.9193, 0, 0.00102253, 0.000252454, 0.000468269, 1.73608, 13.5283, 0, 0.00102276, 0.000154212, 0.000289791, 0.780172, 8.48588, 0, 0.00102285, -0.0422051, -14.0766, -26.4661, 0.024472, -8.73517, -16.7469, 0.000212042, -6.69355E-05, -0.000364586, 0.000134039, 0.000134039, 0.000134039
8940, 1,0.000265916, -0.000142862, 9.91563E-05, 0.75359, -8.82712, 0.000621547, 6.4478, 30.7671, 0, 0.000988031, 0.000317679, 0.000606134, 1.24069, 18.0387, 0, 0.000988235, 0.000215877, 0.000416974, 0.335923, 12.5702, 0, 0.000988323, -0.0656628, -16.3046, -37.746, -0.0594823, -9.6933, -27.9578, 0.000282769, -4.14459E-05, -0.00053399, 0.000196846, 0.000196846, 0.000196846
8941, 1,0.000214041, -0.000133376, 9.579E-05, 8.12643, -8.0973, 0.000614178, 10.4583, 25.013, 0, 0.00109096, 0.000257985, 0.00035047, 8.33716, 5.76987, 0, 0.0010913, 0.000182978, 0.000199947, 8.5998, 1.04797, 0, 0.00109138, -0.0190602, -14.6197, -2.6709, 0.0186961, -9.02402, 5.86141, 9.0402E-05, -0.000198657, 1.46633E-05, 1.67036E-05, 1.67036E-05, 1.67036E-05
8942, 1,0.000170618, -0.000133848, 9.33953E-05, 2.54565, -8.26075, 0.000563193, 6.05878, 27.6448, 0, 0.00105644, 0.000222583, 0.000383239, 3.09478, 10.0729, 0, 0.00105674, 0.000119528, 0.000198869, 2.07781, 4.96973, 0, 0.00105683, -0.00913679, -13.1685, -17.0412, 0.0697786, -7.80152, -7.17746, 0.000158255, -0.000101133, -0.000220533, 7.94914E-05, 7.94914E-05, 7.94914E-05
8943, 1,0.000215063, -0.000141293, 9.73124E-05, 1.28203, -8.77666, 0.000585403, 4.94501, 30.5256, 0, 0.00102196, 0.000268082, 0.000499241, 1.76339, 14.4926, 0, 0.00102222, 0.000162275, 0.00030527, 0.818773, 8.95317, 0, 0.00102232, -0.0544771, -14.4028, -29.0206, 0.0130642, -8.9005, -17.9721, 0.000226978, -5.76103E-05, -0.000404492, 0.000141171, 0.000141171, 0.000141171
8944, 1,0.000278414, -0.000155906, 0.000107683, 0.83706, -9.65552, 0.00066236, 6.21913, 33.6669, 0, 0.000987496, 0.000334763, 0.000638916, 1.33279, 19.0201, 0, 0.000987731, 0.000223603, 0.000431378, 0.400322, 12.9878, 0, 0.000987828, -0.0665809, -16.6574, -40.3363, -0.0621792, -9.84286, -29.0584, 0.00029821, -3.22015E-05, -0.000574596, 0.000203377, 0.000203377, 0.000203377
8945, 1,0.000212937, -0.000142178, 0.000101408, 7.44335, -8.66214, 0.000638143, 9.97018, 27.1866, 0, 0.00109036, 0.000260996, 0.000369603, 7.70203, 6.77806, 0, 0.00109072, 0.000176797, 0.000203539, 7.83566, 1.65887, 0, 0.00109081, -0.0212182, -14.8744, -5.43855, 0.0123093, -9.2352, 4.24627, 0.000106246, -0.000187492, -2.87029E-05, 2.62086E-05, 2.62086E-05, 2.62086E-05
8946, 1,0.00018097, -0.000144122, 0.000100137, 2.46292, -8.91268, 0.000595823, 5.83567, 30.0143, 0, 0.00105589, 0.00023623, 0.000412417, 3.00518, 11.0496, 0, 0.00105621, 0.000126497, 0.00021432, 1.99675, 5.50318, 0, 0.00105631, -0.0230175, -13.4569, -19.669, 0.0564492, -7.99518, -8.5708, 0.000173351, -9.1061E-05, -0.000261548, 8.76266E-05, 8.76266E-05, 8.76266E-05
8947, 1,0.000227245, -0.000153095, 0.00010513, 1.32675, -9.52224, 0.000623858, 4.81359, 33.1434, 0, 0.00102142, 0.000284154, 0.00053075, 1.80621, 15.4637, 0, 0.00102172, 0.000170531, 0.000320995, 0.863395, 9.42441, 0, 0.00102182, -0.0678088, -14.6801, -31.6432, 0.000746236, -9.03693, -19.237, 0.000241995, -4.7223E-05, -0.000445652, 0.000148345, 0.000148345, 0.000148345
8948, 1,0.000291165, -0.000169216, 0.000116452, 0.927497, -10.4976, 0.000705095, 6.06678, 36.5867, 0, 0.000986999, 0.000352209, 0.000672194, 1.43531, 20.01, 0, 0.000987265, 0.000231496, 0.000446033, 0.469728, 13.4108, 0, 0.000987371, -0.0675231, -16.9611, -43.0015, -0.0650215, -9.96546, -30.2018, 0.000313785, -2.18659E-05, -0.000616568, 0.00020999, 0.00020999, 0.00020999
8949, 1,0.00021409, -0.000151247, 0.000107254, 6.85933, -9.24116, 0.000663917, 9.56003, 29.3694, 0, 0.00108972, 0.000266312, 0.000391174, 7.16883, 7.79409, 0, 0.0010901, 0.00017269, 0.000209262, 7.15862, 2.27298, 0, 0.0010902, -0.022292, -15.0716, -8.28836, 0.00681438, -9.40802, 2.58226, 0.000122232, -0.000175056, -7.36097E-05, 3.57802E-05, 3.57802E-05, 3.57802E-05
8950, 1,0.000191999, -0.000154603, 0.000107058, 2.409, -9.57545, 0.000629594, 5.66529, 32.3851, 0, 0.00105529, 0.000250696, 0.00044251, 2.94974, 12.0338, 0, 0.00105564, 0.000134012, 0.000230364, 1.93958, 6.04073, 0, 0.00105574, -0.0389287, -13.6928, -22.3697, 0.041223, -8.15643, -10.007, 0.000188521, -7.98406E-05, -0.000303907, 9.57848E-05, 9.57848E-05, 9.57848E-05
8951, 1,0.00023976, -0.00016508, 0.00011311, 1.38324, -10.2773, 0.00066373, 4.74257, 35.7702, 0, 0.00102086, 0.000300683, 0.000562802, 1.86564, 16.4412, 0, 0.00102118, 0.000179005, 0.000336983, 0.915452, 9.89934, 0, 0.00102129, -0.0823083, -14.9032, -34.338, -0.012694, -9.14126, -20.5441, 0.000257087, -3.5668E-05, -0.000488158, 0.000155553, 0.000155553, 0.000155553
8952, 1,0.000304207, -0.000182769, 0.000125437, 1.02628, -11.3521, 0.000749939, 5.99558, 39.532, 0, 0.000986464, 0.000370054, 0.000706011, 1.54969, 21.0089, 0, 0.00098676, 0.000239592, 0.000460979, 0.545239, 13.8395, 0, 0.000986875, -0.068453, -17.2099, -45.7484, -0.0681485, -10.0579, -31.3924, 0.000329499, -1.03086E-05, -0.000660045, 0.000216686, 0.000216686, 0.000216686
8953, 1,0.000217206, -0.000160566, 0.000113311, 6.35871, -9.83359, 0.00069082, 9.19839, 31.5581, 0, 0.00108914, 0.000273609, 0.000414887, 6.71981, 8.82222, 0, 0.00108954, 0.000170484, 0.000216972, 6.55871, 2.8945, 0, 0.00108965, -0.0261691, -15.2089, -11.2316, -0.0017276, -9.54113, 0.859367, 0.000138353, -0.000161252, -0.000120216, 4.54086E-05, 4.54086E-05, 4.54086E-05
8954, 1,0.000203626, -0.000165275, 0.000114145, 2.38105, -10.2483, 0.000663886, 5.51978, 34.755, 0, 0.00105473, 0.000265893, 0.000473413, 2.92518, 13.0244, 0, 0.0010551, 0.000142001, 0.000246914, 1.90381, 6.58132, 0, 0.00105521, -0.0569699, -13.8726, -25.1436, 0.0239494, -8.28251, -11.4854, 0.000203745, -6.74223E-05, -0.00034762, 0.000103948, 0.000103948, 0.000103948
8955, 1,0.000252587, -0.000177231, 0.000121234, 1.45021, -11.0411, 0.000705216, 4.74289, 38.4035, 0, 0.00102034, 0.000317636, 0.000595365, 1.9395, 17.4257, 0, 0.00102069, 0.000187685, 0.000353224, 0.974478, 10.3782, 0, 0.00102081, -0.0986076, -15.0708, -37.1076, -0.0275146, -9.21297, -21.8942, 0.000272251, -2.29094E-05, -0.000532053, 0.000162794, 0.000162794, 0.000162794
8956, 1,0.000317551, -0.00019654, 0.000134616, 1.13292, -12.2178, 0.000797339, 6.01768, 42.5148, 0, 0.000985978, 0.000388303, 0.000740379, 1.67517, 22.0171, 0, 0.000986306, 0.000247905, 0.000476241, 0.626545, 14.2745, 0, 0.00098643, -0.0692442, -17.4003, -48.5817, -0.0712413, -10.1185, -32.6336, 0.000345364, 2.55276E-06, -0.000705129, 0.000223482, 0.000223482, 0.000223482
8957, 1,0.000222187, -0.000170136, 0.000119576, 5.9413, -10.4396, 0.000714581, 8.63613, 33.8164, 0, 0.00108847, 0.000282773, 0.000440604, 6.35351, 9.85772, 0, 0.00108889, 0.00017017, 0.000226632, 6.0403, 3.51815, 0, 0.001089, -0.0275178, -15.2794, -14.2662, -0.00804589, -9.62817, -0.918225, 0.000154642, -0.000146055, -0.000168503, 5.5117E-05, 5.5117E-05, 5.5117E-05
8958, 1,0.000215825, -0.000176133, 0.000121392, 2.37916, -10.9311, 0.000697825, 5.35936, 37.1221, 0, 0.00105411, 0.000281785, 0.000505072, 2.93093, 14.02, 0, 0.0010545, 0.00015045, 0.000263936, 1.89038, 7.12346, 0, 0.00105462, -0.0761654, -13.9944, -27.9896, 0.00596846, -8.37315, -13.0032, 0.000219024, -5.38027E-05, -0.000392674, 0.000112122, 0.000112122, 0.000112122
8959, 1,0.000265753, -0.000189539, 0.000129494, 1.52987, -11.8131, 0.000749041, 4.83958, 41.0558, 0, 0.00101979, 0.000335035, 0.000628482, 2.02998, 18.4155, 0, 0.00102017, 0.000196604, 0.00036977, 1.04269, 10.8598, 0, 0.00102029, -0.112448, -15.1776, -39.9565, -0.0397673, -9.24896, -23.2908, 0.000287551, -8.86245E-06, -0.000577462, 0.000170134, 0.000170134, 0.000170134
8960, 1,0.000331202, -0.000210511, 0.00014397, 1.24644, -13.0941, 0.000848347, 6.16921, 45.5537, 0, 0.000985438, 0.000406952, 0.000775315, 1.81039, 23.035, 0, 0.000985798, 0.000256448, 0.000491849, 0.712955, 14.7159, 0, 0.000985931, -0.068692, -17.5288, -51.5076, -0.0731758, -10.1449, -33.9296, 0.000361411, 1.68143E-05, -0.000751954, 0.000230405, 0.000230405, 0.000230405
8961, 1,0.00022839, -0.000179938, 0.000126033, 5.55972, -11.0579, 0.000725003, 7.41229, 36.1219, 0, 0.00108792, 0.000293162, 0.000467904, 6.02243, 10.9169, 0, 0.00108836, 0.000171142, 0.000237856, 5.55843, 4.16049, 0, 0.00108848, -0.0294919, -15.2958, -17.4255, -0.0146794, -9.68233, -2.78445, 0.000171283, -0.00012955, -0.000218835, 6.5106E-05, 6.5106E-05, 6.5106E-05
8962, 1,0.000228903, -0.000187173, 0.000128794, 2.42205, -11.6236, 0.000727417, 4.93371, 39.5693, 0, 0.00105356, 0.000298672, 0.000537829, 2.98527, 15.0142, 0, 0.00105398, 0.000159673, 0.000281778, 1.91829, 7.66037, 0, 0.00105411, -0.0831793, -14.0465, -30.913, 0.000562288, -8.41849, -14.5632, 0.000234535, -3.8865E-05, -0.000439255, 0.000120477, 0.000120477, 0.000120477
8963, 1,0.000279238, -0.000201994, 0.00013788, 1.62167, -12.5931, 0.000796114, 5.04301, 43.7709, 0, 0.00101926, 0.000352842, 0.000662155, 2.13533, 19.4101, 0, 0.00101966, 0.00020576, 0.000386648, 1.12097, 11.3429, 0, 0.0010198, -0.119108, -15.2212, -42.8901, -0.0444006, -9.24735, -24.737, 0.000303081, 6.51419E-06, -0.000624506, 0.000177662, 0.000177662, 0.000177662
8964, 1,0.000345168, -0.000224668, 0.000153483, 1.36625, -13.9802, 0.000904346, 6.48592, 48.6888, 0, 0.000984948, 0.000426004, 0.000810833, 1.9545, 24.0622, 0, 0.000985342, 0.000265235, 0.000507827, 0.803891, 15.1632, 0, 0.000985484, -0.0650694, -17.5894, -54.5321, -0.0723598, -10.1329, -35.2843, 0.00037767, 3.26103E-05, -0.000800675, 0.000237482, 0.000237482, 0.000237482
8965, 1,0.000236566, -0.000189992, 0.000132709, 5.26817, -11.6892, 0.000734015, 6.67216, 37.7052, 0, 0.0010873, 0.000305468, 0.000496992, 5.77653, 11.9627, 0, 0.00108776, 0.000174323, 0.00025108, 5.17759, 4.78475, 0, 0.00108788, -0.0229758, -15.2531, -20.612, -0.011557, -9.70066, -4.64202, 0.000187885, -0.000112127, -0.000269829, 7.50066E-05, 7.50066E-05, 7.50066E-05
8966, 1,0.00024229, -0.000198365, 0.000136322, 2.45711, -12.324, 0.000743104, 3.79659, 42.0936, 0, 0.00105296, 0.000315957, 0.000571479, 3.03475, 16.0337, 0, 0.00105341, 0.000169123, 0.000300269, 1.93533, 8.2194, 0, 0.00105354, -0.0794089, -14.0333, -33.9884, 0.00611596, -8.42335, -16.241, 0.000250664, -2.23218E-05, -0.000488468, 0.000129403, 0.000129403, 0.000129403
8967, 1,0.000293218, -0.000214606, 0.000146393, 1.73505, -13.3814, 0.000841589, 5.0042, 46.7099, 0, 0.00101867, 0.000371248, 0.000696628, 2.26602, 20.4074, 0, 0.0010191, 0.000215304, 0.000404073, 1.21671, 11.8256, 0, 0.00101925, -0.111607, -15.1893, -45.9214, -0.0355973, -9.19805, -26.243, 0.000318952, 2.34119E-05, -0.000673457, 0.000185467, 0.000185467, 0.000185467
8968, 1,0.000359485, -0.000239009, 0.000163151, 1.49308, -14.8761, 0.000966631, 6.98509, 51.9795, 0, 0.000984373, 0.000445496, 0.000846926, 2.10838, 25.0976, 0, 0.000984803, 0.000274294, 0.000524157, 0.899772, 15.6153, 0, 0.000984955, -0.0611046, -17.5791, -57.6527, -0.0717213, -10.0806, -36.6937, 0.000394069, 5.00142E-05, -0.000851278, 0.000244634, 0.000244634, 0.000244634
8969, 1,0.000247549, -0.000200291, 0.000139592, 5.08758, -12.3338, 0.000779143, 8.43141, 38.2319, 0, 0.00108675, 0.000320589, 0.00052893, 5.63951, 13.016, 0, 0.00108719, 0.000180383, 0.000267125, 4.91225, 5.41121, 0, 0.00108733, -0.0275521, -15.1323, -23.8883, -0.0188683, -9.66757, -6.54719, 0.000204369, -9.28019E-05, -0.00032273, 8.47126E-05, 8.47126E-05, 8.47126E-05
8970, 1,0.000255935, -0.00020973, 0.000143995, 2.51054, -13.0333, 0.000759291, 3.06552, 44.1211, 0, 0.00105242, 0.000333574, 0.000605464, 3.1037, 17.035, 0, 0.00105288, 0.00017879, 0.000318882, 1.97128, 8.75633, 0, 0.00105302, -0.0448736, -13.948, -37.1122, 0.0434194, -8.37923, -17.9332, 0.000267148, -4.66663E-06, -0.000538854, 0.000138638, 0.000138638, 0.000138638
8971, 1,0.000307038, -0.000227342, 0.000155003, 1.8053, -14.1761, 0.000870846, 4.07344, 49.8193, 0, 0.00101815, 0.000389569, 0.000731501, 2.35601, 21.4483, 0, 0.00101862, 0.000224612, 0.000421708, 1.2665, 12.3487, 0, 0.00101877, -0.124506, -15.1104, -49.1101, -0.0475405, -9.12825, -27.8704, 0.000335073, 4.18005E-05, -0.000724855, 0.000193464, 0.000193464, 0.000193464
8972, 1,0.000374323, -0.000253524, 0.000172962, 1.63686, -15.7812, 0.00102896, 7.22466, 55.623, 0, 0.000983919, 0.000465602, 0.000883714, 2.28181, 26.1385, 0, 0.00098439, 0.000283785, 0.000540946, 1.01019, 16.0693, 0, 0.000984551, -0.0572005, -17.4935, -60.8648, -0.0713454, -9.9853, -38.1512, 0.000410554, 6.90418E-05, -0.00090368, 0.00025181, 0.00025181, 0.00025181
8973, 1,0.000260218, -0.000210818, 0.000146642, 4.96951, -12.9909, 0.000848876, 11.9641, 37.9264, 0, 0.00108614, 0.000337524, 0.000562665, 5.56973, 14.0849, 0, 0.00108656, 0.000188007, 0.000284639, 4.7033, 6.04812, 0, 0.0010867, -0.0589959, -14.8688, -27.3269, -0.0572686, -9.51757, -8.56952, 0.000220531, -7.01527E-05, -0.000378885, 9.39237E-05, 9.39237E-05, 9.39237E-05
8974, 1,0.000270693, -0.000221282, 0.000151824, 2.58921, -13.7524, 0.000807157, 4.28923, 45.5257, 0, 0.00105183, 0.000352423, 0.000640651, 3.20184, 18.0658, 0, 0.0010523, 0.000189447, 0.000338404, 2.02842, 9.31932, 0, 0.00105245, -0.059212, -13.7995, -40.3387, 0.0311258, -8.30038, -19.6887, 0.000283069, 1.47274E-05, -0.000590896, 0.000147234, 0.000147234, 0.000147234
8975, 1,0.000321325, -0.000240238, 0.000163754, 1.90459, -14.9786, 0.000886677, 2.87603, 52.4442, 0, 0.00101757, 0.000408466, 0.000766674, 2.47833, 22.4733, 0, 0.00101807, 0.000234283, 0.000439379, 1.34266, 12.8534, 0, 0.00101822, -0.138879, -14.9557, -52.3255, -0.0606899, -9.01252, -29.4871, 0.000350909, 6.13784E-05, -0.000776902, 0.000201136, 0.000201136, 0.000201136
8976, 1,0.000389287, -0.000268204, 0.000182918, 1.75775, -16.6946, 0.00107841, 6.67681, 59.5112, 0, 0.00098334, 0.000485926, 0.000921083, 2.43479, 27.2095, 0, 0.000983855, 0.000293327, 0.000558093, 1.09678, 16.5504, 0, 0.000984026, -0.0648711, -17.3552, -64.2083, -0.0823901, -9.87186, -39.6971, 0.000427264, 8.95181E-05, -0.000958244, 0.000259167, 0.000259167, 0.000259167
8977, 1,0.000272158, -0.000221515, 0.000153819, 4.78761, -13.6577, 0.000902786, 15.091, 37.1581, 0, 0.00108564, 0.000353805, 0.000596267, 5.43822, 15.2047, 0, 0.00108603, 0.000194907, 0.000301883, 4.43117, 6.73094, 0, 0.00108618, -0.110509, -14.5587, -30.9449, -0.115472, -9.34319, -10.7342, 0.000237079, -4.59275E-05, -0.00043783, 0.000103447, 0.000103447, 0.000103447
8978, 1,0.000286319, -0.00023299, 0.000159774, 2.7059, -14.4797, 0.000845885, 5.52429, 46.3277, 0, 0.00105133, 0.000372284, 0.00067661, 3.34392, 19.1046, 0, 0.0010518, 0.00020079, 0.00035838, 2.11558, 9.88694, 0, 0.00105196, -0.114125, -13.5326, -43.6672, -0.0231742, -8.13145, -21.5062, 0.00029827, 3.65516E-05, -0.000644777, 0.000155025, 0.000155025, 0.000155025
8979, 1,0.000336536, -0.000253276, 0.000172622, 2.02846, -15.7885, 0.000922956, 3.09287, 54.4712, 0, 0.00101709, 0.00042838, 0.000802848, 2.62823, 23.522, 0, 0.0010176, 0.000244783, 0.000457822, 1.44019, 13.379, 0, 0.00101777, -0.191396, -14.7116, -55.6632, -0.112196, -8.83947, -31.1855, 0.000366323, 8.3049E-05, -0.000831004, 0.000208333, 0.000208333, 0.000208333
8980, 1,0.000404735, -0.000283061, 0.00019303, 1.88774, -17.6168, 0.00113423, 7.02119, 62.6131, 0, 0.000982854, 0.00050685, 0.000958925, 2.60018, 28.2859, 0, 0.000983402, 0.000303249, 0.000575434, 1.1906, 17.0344, 0, 0.000983581, -0.0947763, -17.1445, -67.6183, -0.115734, -9.72261, -41.2648, 0.000443596, 0.000111517, -0.00101404, 0.000266099, 0.000266099, 0.000266099
8981, 1,0.000284716, -0.000232502, 0.000161251, 4.65699, -14.3393, 0.000943408, 17.4954, 36.5248, 0, 0.001085, 0.000370739, 0.000630782, 5.35697, 16.3169, 0, 0.00108535, 0.000202583, 0.000320081, 4.22021, 7.40211, 0, 0.00108551, -0.12289, -14.2189, -34.6088, -0.134632, -9.17244, -12.8993, 0.000254347, -2.14602E-05, -0.000497613, 0.000113627, 0.000113627, 0.000113627
8982, 1,0.000301648, -0.000244876, 0.000167882, 2.81499, -15.216, 0.000858445, 5.91152, 46.6067, 0, 0.00105071, 0.000391988, 0.000712574, 3.4838, 20.1478, 0, 0.00105116, 0.000211705, 0.000378047, 2.18995, 10.4564, 0, 0.00105133, -0.159315, -13.1858, -47.0984, -0.067418, -7.91417, -23.3875, 0.000313756, 5.97739E-05, -0.000700415, 0.000163071, 0.000163071, 0.000163071
8983, 1,0.000351697, -0.000266489, 0.000181641, 2.19208, -16.6068, 0.000958229, 3.92324, 55.5929, 0, 0.0010165, 0.000448403, 0.000839023, 2.82496, 24.5249, 0, 0.00101701, 0.000255053, 0.000475927, 1.56893, 13.857, 0, 0.00101719, -0.185492, -14.3469, -59.0423, -0.107162, -8.58139, -32.8823, 0.000382263, 0.000106181, -0.000886348, 0.00021599, 0.00021599, 0.00021599
8984, 1,0.000421826, -0.000298125, 0.000203313, 2.09872, -18.5495, 0.00121956, 9.61247, 64.5616, 0, 0.000982315, 0.000529551, 0.000998173, 2.85161, 29.363, 0, 0.000982876, 0.000314672, 0.000593862, 1.35915, 17.5162, 0, 0.000983065, -0.160771, -16.7897, -71.1386, -0.187513, -9.4727, -42.8883, 0.000459188, 0.000136393, -0.00107199, 0.000272197, 0.000272197, 0.000272197
8985, 1,0.000299426, -0.000243858, 0.000168985, 4.59617, -15.0417, 0.00098996, 19.9408, 36.214, 0, 0.00108451, 0.000389955, 0.000668001, 5.34736, 17.4896, 0, 0.00108484, 0.000212358, 0.000340651, 4.08038, 8.12422, 0, 0.00108501, -0.189894, -13.815, -38.4637, -0.206777, -8.97226, -15.1936, 0.000271415, 5.18926E-06, -0.00056036, 0.00012349, 0.00012349, 0.00012349
8986, 1,0.000316976, -0.000256992, 0.000176189, 2.9469, -15.9651, 0.000853675, 5.62942, 46.6857, 0, 0.00105022, 0.000411806, 0.000749061, 3.64874, 21.1784, 0, 0.00105066, 0.000222538, 0.000397914, 2.28664, 11.0067, 0, 0.00105083, -0.141574, -12.7599, -50.6336, -0.0448855, -7.64881, -25.3265, 0.000330387, 8.4097E-05, -0.000758092, 0.000172244, 0.000172244, 0.000172244
8987, 1,0.000367071, -0.000279869, 0.000190787, 2.4084, -17.4349, 0.00096844, 4.00628, 56.1183, 0, 0.00101603, 0.000468741, 0.000875589, 3.07739, 25.4849, 0, 0.00101654, 0.000265426, 0.000494151, 1.74618, 14.2859, 0, 0.00101672, -0.103444, -13.8061, -62.5451, -0.0244869, -8.17835, -34.6549, 0.000399142, 0.000131832, -0.000944457, 0.000224529, 0.000224529, 0.000224529
8988, 1,0.000439593, -0.000313361, 0.000213731, 2.34521, -19.4923, 0.00130123, 12.7319, 65.5541, 0, 0.000981912, 0.000552951, 0.00103794, 3.13752, 30.4508, 0, 0.000982472, 0.000326787, 0.000612712, 1.56543, 18.0017, 0, 0.00098267, -0.254684, -16.2025, -74.8953, -0.283955, -9.02817, -44.6929, 0.000474349, 0.000165822, -0.00113423, 0.000277831, 0.000277831, 0.000277831
8989, 1,0.000316256, -0.000255586, 0.000177, 4.70957, -15.7662, 0.00106706, 24.118, 35.5185, 0, 0.00108401, 0.000411553, 0.000706979, 5.52015, 18.561, 0, 0.00108431, 0.000223925, 0.000362199, 4.10341, 8.73341, 0, 0.00108448, -0.162686, -13.0831, -42.4372, -0.183424, -8.47693, -17.5399, 0.000288873, 3.73456E-05, -0.000627362, 0.000133586, 0.000133586, 0.000133586
8990, 1,0.000333354, -0.000269429, 0.000184765, 3.14168, -16.7317, 0.000862253, 7.00719, 45.3698, 0, 0.00104975, 0.000432829, 0.000787275, 3.88098, 22.2244, 0, 0.00105014, 0.000234304, 0.00041907, 2.44349, 11.5662, 0, 0.00105032, -0.0925904, -12.2477, -54.333, 0.00914836, -7.33792, -27.3697, 0.000347927, 0.000110152, -0.000818663, 0.000182232, 0.000182232, 0.000182232
8991, 1,0.000381378, -0.000293533, 0.000200188, 2.49671, -18.2779, 0.00100666, 6.84871, 54.7081, 0, 0.00101558, 0.000488214, 0.000912457, 3.20841, 26.5842, 0, 0.00101605, 0.000274547, 0.000512194, 1.79048, 14.8492, 0, 0.00101624, -0.116829, -13.3687, -66.2671, -0.0349959, -7.92356, -36.5891, 0.000416213, 0.000156988, -0.00100452, 0.000233238, 0.000233238, 0.000233238
8992, 1,0.000453548, -0.00032902, 0.000224482, 2.40431, -20.4583, 0.00140196, 17.8204, 65.11, 0, 0.000981476, 0.000572808, 0.00107532, 3.24451, 31.5552, 0, 0.000982011, 0.000334812, 0.000628464, 1.5757, 18.4943, 0, 0.000982219, -0.267958, -15.7144, -78.6834, -0.302927, -8.72346, -46.4565, 0.000491473, 0.000193175, -0.00119663, 0.00028522, 0.00028522, 0.00028522
8993, 1,0.000343122, -0.000267686, 0.000185299, 5.3511, -16.513, 0.00116141, 29.2526, 34.6305, 0, 0.00108361, 0.000443374, 0.000756378, 6.22633, 19.5709, 0, 0.00108387, 0.000245352, 0.000393619, 4.64792, 9.26779, 0, 0.00108405, 0.0103108, -11.9471, -46.776, -0.0110676, -7.62837, -20.1639, 0.000308421, 7.69864E-05, -0.000702938, 0.000145632, 0.000145632, 0.000145632
8994, 1,0.000357573, -0.000282101, 0.000193502, 3.83606, -17.5129, 0.000884247, 9.22117, 43.7721, 0, 0.00104939, 0.000461804, 0.0008318, 4.61864, 23.1352, 0, 0.00104974, 0.000253734, 0.000446127, 3.08874, 11.9838, 0, 0.00104993, 0.00657594, -11.1284, -58.2838, 0.107866, -6.4673, -29.5919, 0.000364393, 0.000146824, -0.00088658, 0.000190944, 0.000190944, 0.000190944
8995, 1,0.000403175, -0.000307181, 0.000209553, 3.21412, -19.1239, 0.00119158, 17.7178, 51.8391, 0, 0.00101528, 0.00051507, 0.000955222, 3.96534, 27.3286, 0, 0.00101569, 0.0002913, 0.000536247, 2.4669, 15.0518, 0, 0.00101589, 0.29437, -12.1374, -70.1428, 0.384066, -6.92056, -38.619, 0.000436713, 0.000193672, -0.00107379, 0.000245408, 0.000245408, 0.000245408
8996, 1,0.000481775, -0.000344941, 0.000235411, 3.36325, -21.4411, 0.00164703, 30.5363, 63.6045, 0, 0.000981175, 0.000606867, 0.00112482, 4.24563, 32.3136, 0, 0.000981674, 0.000357295, 0.000656354, 2.49835, 18.6328, 0, 0.000981892, 0.0242092, -14.2849, -82.68, -0.0214396, -7.54229, -48.3347, 0.000509681, 0.000236156, -0.00127013, 0.000293466, 0.000293466, 0.000293466
8997, 1,0.000366387, -0.000280024, 0.000193852, 5.19818, -17.2717, 0.00125986, 32.8282, 36.108, 0, 0.00108311, 0.000471852, 0.00080351, 6.14704, 21.381, 0, 0.00108337, 0.000262855, 0.000422134, 4.38593, 10.599, 0, 0.00108356, -0.990711, -11.2075, -51.9449, -1.00384, -7.20875, -23.5843, 0.000315764, 0.000120845, -0.000783513, 0.000145612, 0.000145612, 0.000145612
8998, 1,0.000381688, -0.000294949, 0.000202379, 4.2759, -18.3038, 0.00095262, 6.19583, 52.1721, 0, 0.00104878, 0.000490931, 0.000882441, 5.11447, 24.4281, 0, 0.00104925, 0.000272757, 0.000478838, 3.46473, 12.7809, 0, 0.00104945, 0.0768145, -10.1859, -63.1753, 0.175123, -5.82517, -32.6926, 0.000386272, 0.00018545, -0.000968064, 0.000204981, 0.000204981, 0.000204981
8999, 1,0.000425551, -0.000321338, 0.00021939, 3.46685, -19.9959, 0.00146069, 21.804, 63.439, 0, 0.00101464, 0.00054264, 0.00100639, 4.26201, 28.7855, 0, 0.00101521, 0.000308722, 0.00056819, 2.68855, 15.9667, 0, 0.00101542, 0.413946, -11.9208, -74.8496, 0.503023, -7.01526, -41.3878, 0.000462279, 0.00022088, -0.0011502, 0.000262469, 0.000262469, 0.000262469
9000, 1,0.000503081, -0.000361689, 0.0002471, 3.46952, -22.4655, 0.00200192, 38.8036, 75.0509, 0, 0.000980611, 0.000635086, 0.00117049, 4.44168, 33.745, 0, 0.000981268, 0.000371474, 0.000678011, 2.50878, 19.4436, 0, 0.000981496, -0.52552, -14.2934, -86.4161, -0.597247, -7.87973, -49.8539, 0.000520782, 0.000261453, -0.00132975, 0.000294263, 0.000294263, 0.000294263
9001, 1,0.000391573, -0.000293006, 0.00020313, 5.33252, -18.0604, 0.00147257, 44.3757, 34.164, 0, 0.00108271, 0.000502189, 0.000853986, 6.34258, 22.7991, 0, 0.00108291, 0.000283143, 0.000454912, 4.46918, 11.5364, 0, 0.00108311, -1.22792, -10.8612, -56.3082, -1.21412, -7.2634, -26.1317, 0.000333359, 0.000151272, -0.00085455, 0.000156203, 0.000156203, 0.000156203
9002, 1,0.000388008, -0.00030828, 0.000211703, 3.74346, -19.1162, 0.00107032, 2.09803, 65.1297, 0, 0.00104811, 0.000501876, 0.000916054, 4.6199, 25.8699, 0, 0.00104878, 0.000274933, 0.000494839, 2.90916, 13.7267, 0, 0.00104899, 0.109066, -9.97163, -67.7472, 0.20039, -5.94117, -35.4394, 0.000409832, 0.000210581, -0.00104015, 0.000220579, 0.000220579, 0.000220579
9003, 1,0.000429158, -0.000335204, 0.000229034, 2.88673, -20.8527, 0.00153035, 9.31844, 84.644, 0, 0.00101389, 0.000551464, 0.00103889, 3.7333, 30.1608, 0, 0.00101479, 0.000307508, 0.000581779, 2.06749, 16.8003, 0, 0.00101501, 0.559928, -11.4476, -79.5946, 0.672067, -6.85995, -44.213, 0.000487016, 0.000251821, -0.0012282, 0.000279165, 0.000279165, 0.000279165
9004, 1,0.000527758, -0.000377745, 0.000257993, 3.43264, -23.4557, 0.00222643, 31.0631, 99.6891, 0, 0.000979879, 0.000665335, 0.00122163, 4.45214, 35.5041, 0, 0.0009809, 0.000390707, 0.000708416, 2.42211, 20.586, 0, 0.000981138, -1.2358, -12.9842, -92.2923, -1.35348, -6.91863, -53.486, 0.00053354, 0.000319905, -0.00142951, 0.000296352, 0.000296352, 0.000296352
9005, 1,0.000411986, -0.00030717, 0.000213173, 5.2304, -18.9082, 0.0017155, 60.8217, 27.5142, 0, 0.00108232, 0.000528674, 0.000902002, 6.3512, 24.2284, 0, 0.00108237, 0.000297434, 0.000482795, 4.2482, 12.4785, 0, 0.00108258, -1.37115, -10.1574, -61.1565, -1.40625, -7.03671, -28.9927, 0.000353293, 0.000189108, -0.00093552, 0.000167465, 0.000167465, 0.000167465
9006, 1,0.000407787, -0.00032238, 0.000221721, 3.60636, -19.964, 0.000979141, 0.279753, 61.7706, 0, 0.00104766, 0.0005278, 0.000963519, 4.58539, 27.5443, 0, 0.00104824, 0.000288416, 0.000522435, 2.66264, 14.9062, 0, 0.00104846, -0.49611, -9.55327, -72.5835, -0.430287, -5.96276, -38.3254, 0.000423818, 0.000244531, -0.00111526, 0.000226235, 0.000226235, 0.000226235
9007, 1,0.000452242, -0.000349894, 0.000239661, 3.18433, -21.7441, 0.00152283, 5.53014, 89.2407, 0, 0.00101333, 0.000581646, 0.00108867, 4.14951, 31.5605, 0, 0.00101428, 0.00032286, 0.00060941, 2.22906, 17.6624, 0, 0.0010145, 0.209813, -10.971, -83.9201, 0.368179, -6.84721, -46.508, 0.000501682, 0.00028345, -0.0012972, 0.000286297, 0.000286297, 0.000286297
9008, 1,0.000554866, -0.000395188, 0.000270397, 4.43586, -24.5092, 0.00227118, 19.8258, 117.636, 0, 0.000979223, 0.000700102, 0.00126822, 5.5793, 36.1253, 0, 0.000980519, 0.00040993, 0.000729521, 3.29619, 20.5909, 0, 0.000980767, -1.08984, -11.9018, -95.3844, -1.23387, -6.34322, -54.1956, 0.000546456, 0.000355377, -0.00148797, 0.000298986, 0.000298986, 0.000298986
9009, 1,0.000434131, -0.000322396, 0.000224295, 4.2096, -19.8182, 0.00178624, 65.7833, 25.3009, 0, 0.00108206, 0.000558285, 0.000957652, 5.4983, 27.2167, 0, 0.00108202, 0.000311749, 0.000514915, 3.03538, 14.9536, 0, 0.00108224, -3.33887, -9.99451, -68.3166, -3.37728, -7.49931, -33.9842, 0.000359027, 0.000238766, -0.00103941, 0.000165135, 0.000165135, 0.000165135
9010, 1,0.000426399, -0.000336867, 0.000232215, 4.00781, -20.8311, 0.000866832, 2.06153, 52.344, 0, 0.00104749, 0.000553884, 0.00100475, 5.15689, 28.3949, 0, 0.0010479, 0.000298966, 0.000541403, 2.86826, 15.2623, 0, 0.00104812, -0.479983, -7.63173, -77.0728, -0.423627, -4.59549, -40.7677, 0.000437897, 0.000297454, -0.00119607, 0.000232376, 0.000232376, 0.000232376
9011, 1,0.000485895, -0.000364858, 0.000250556, 4.50172, -22.6466, 0.00161261, 15.022, 82.1812, 0, 0.00101317, 0.000621942, 0.00113668, 5.58301, 32.1618, 0, 0.00101399, 0.000350002, 0.000635862, 3.43284, 17.7304, 0, 0.00101423, 0.0469651, -8.27083, -88.2617, 0.243447, -4.6985, -48.7361, 0.000507841, 0.000348828, -0.00137849, 0.000284849, 0.000284849, 0.000284849
9012, 1,0.000557459, -0.000413918, 0.000283782, 3.09204, -25.6242, 0.0023033, 16.3568, 124.29, 0, 0.000978909, 0.000710745, 0.00130403, 4.38033, 38.3951, 0, 0.000980274, 0.000404507, 0.000739465, 1.80835, 22.2356, 0, 0.000980531, -2.27672, -12.0778, -100.831, -2.49167, -7.13745, -57.0777, 0.000557254, 0.00038756, -0.00156778, 0.000298423, 0.000298423, 0.000298423
9013, 1,0.000454454, -0.000340576, 0.000238006, 5.48754, -20.8863, 0.0013261, 38.8785, 32.0304, 0, 0.00108164, 0.000587945, 0.00100015, 7.01082, 27.2152, 0, 0.00108173, 0.000322611, 0.000529469, 4.06977, 14.3919, 0, 0.00108195, -2.00031, -7.19768, -72.4478, -2.04175, -5.54811, -35.586, 0.000387443, 0.000295359, -0.00112441, 0.000184779, 0.000184779, 0.000184779
9014, 1,0.000444594, -0.000353396, 0.000244823, 3.98413, -21.8003, 0.00094403, 3.80428, 54.9176, 0, 0.00104707, 0.000580714, 0.00104725, 5.3483, 29.8826, 0, 0.0010475, 0.00030861, 0.000558877, 2.63632, 16.2416, 0, 0.00104773, -1.23487, -6.71872, -81.6943, -1.15663, -4.46334, -43.105, 0.000445512, 0.000338427, -0.0012688, 0.000232509, 0.000232509, 0.000232509
9015, 1,0.000501118, -0.000381514, 0.000263204, 4.3405, -23.637, 0.00151982, 9.22977, 84.0702, 0, 0.00101276, 0.000645488, 0.0011744, 5.60508, 33.6856, 0, 0.00101359, 0.000357144, 0.000648795, 3.10022, 18.6995, 0, 0.00101384, -0.876688, -7.21766, -92.9624, -0.601645, -4.38009, -51.1167, 0.000512345, 0.000392513, -0.00145141, 0.000282306, 0.000282306, 0.000282306
9016, 1,0.000588714, -0.000434243, 0.000298617, 4.17883, -26.8299, 0.00219413, 9.96869, 125.858, 0, 0.000978594, 0.000751363, 0.00135879, 5.65785, 39.482, 0, 0.000979967, 0.000426369, 0.000764768, 2.70146, 22.6513, 0, 0.000980235, -2.54912, -9.44375, -106.453, -2.78823, -5.33177, -59.8338, 0.000568624, 0.000455662, -0.00166488, 0.000298725, 0.000298725, 0.000298725
9017, 1,0.000516744, -0.000363637, 0.000255903, 6.91463, -22.2141, 0.000994717, 11.2977, 47.8497, 0, 0.00108119, 0.000662787, 0.00110333, 8.79306, 29.7638, 0, 0.00108151, 0.000372456, 0.000597367, 5.14512, 16.3046, 0, 0.00108174, -3.12797, -4.74253, -81.4208, -3.2017, -4.35318, -41.359, 0.00040357, 0.000384868, -0.00127141, 0.000190329, 0.000190329, 0.000190329
9018, 1,0.000493472, -0.00037232, 0.000259804, 7.07664, -22.8886, 0.00112444, 4.87449, 64.838, 0, 0.00104682, 0.000640575, 0.00110714, 8.76331, 29.0138, 0, 0.00104743, 0.000346508, 0.000588864, 5.40608, 14.8522, 0, 0.00104767, 0.0737134, -2.35838, -84.7566, 0.181267, -1.20012, -43.5377, 0.000459573, 0.000416725, -0.00134708, 0.000239097, 0.000239097, 0.000239097
9019, 1,0.000531944, -0.000400432, 0.000277924, 6.48783, -24.7357, 0.00143317, -0.301834, 91.3261, 0, 0.00101269, 0.000686785, 0.00121263, 8.04262, 32.942, 0, 0.00101365, 0.000377503, 0.00065783, 4.95357, 17.3999, 0, 0.0010139, -0.0586494, -2.95752, -95.8097, 0.257676, -1.13198, -51.3253, 0.000517954, 0.00046969, -0.00152214, 0.000280092, 0.000280092, 0.000280092
9020, 1,0.00062073, -0.00045855, 0.000316808, 5.86649, -28.251, 0.00215048, 5.40272, 129.115, 0, 0.000978486, 0.000795104, 0.00140807, 7.62606, 39.7147, 0, 0.000979906, 0.000446994, 0.000779087, 4.11569, 22.1394, 0, 0.000980186, -2.41048, -5.2559, -111.478, -2.68475, -2.27514, -61.4582, 0.000575014, 0.000543743, -0.00176313, 0.000292678, 0.000292678, 0.000292678
9021, 1,0.000588569, -0.000391685, 0.000277445, 10.057, -23.8502, 0.00106394, -3.20973, 71.8335, 0, 0.00108061, 0.000749735, 0.00120603, 12.3407, 30.7068, 0, 0.00108133, 0.000429063, 0.000656737, 7.87609, 16.4163, 0, 0.00108159, -2.96654, 0.399849, -89.5537, -3.03186, -0.696756, -45.5204, 0.000421441, 0.000505891, -0.00142561, 0.000195389, 0.000195389, 0.000195389
9022, 1,0.000544537, -0.000395119, 0.000277869, 7.6346, -24.1874, 0.00150279, 8.12829, 84.4998, 0, 0.00104648, 0.000704263, 0.00120515, 9.69576, 31.7446, 0, 0.00104737, 0.000385374, 0.000652003, 5.6072, 16.9907, 0, 0.00104762, -0.793188, -0.555384, -93.8854, -0.710346, -0.801949, -49.4597, 0.000483811, 0.000497455, -0.00149637, 0.000253614, 0.000253614, 0.000253614
9023, 1,0.000586402, -0.000423541, 0.000296063, 7.32177, -26.0523, 0.00177576, 5.24283, 105.733, 0, 0.00101221, 0.000754947, 0.00131742, 9.29596, 35.5492, 0, 0.00101337, 0.000417889, 0.000725498, 5.34968, 19.4015, 0, 0.00101363, -0.555441, -0.732511, -105.36, -0.280264, -0.321084, -57.603, 0.000548298, 0.000556042, -0.00168116, 0.00030015, 0.00030015, 0.00030015
9024, 1,0.00068178, -0.000488724, 0.00033971, 6.65879, -29.9969, 0.00228856, 2.41372, 142.027, 0, 0.000977971, 0.000871971, 0.00152627, 8.82733, 43.1639, 0, 0.000979542, 0.000492061, 0.000851704, 4.49732, 24.717, 0, 0.000979835, -3.82898, -2.91986, -122.743, -4.17997, -1.52741, -68.4436, 0.000599171, 0.000641865, -0.0019414, 0.000301555, 0.000301555, 0.000301555
9025, 1,0.000627944, -0.000421836, 0.00029896, 9.76563, -25.6667, 0.00150351, 6.63677, 86.5234, 0, 0.00108026, 0.000802938, 0.00130024, 12.3184, 34.2973, 0, 0.00108118, 0.000453798, 0.000705133, 7.26874, 18.9533, 0, 0.00108145, -4.32039, 3.2844, -101.856, -4.44862, 1.01145, -53.4226, 0.000448859, 0.000619339, -0.00162473, 0.00020495, 0.00020495, 0.00020495
9026, 1,0.00060928, -0.000421251, 0.000297376, 10.9461, -25.7192, 0.00204392, 26.1387, 94.6786, 0, 0.001046, 0.00078083, 0.00129673, 13.2767, 31.6931, 0, 0.00104707, 0.000438868, 0.000705365, 8.66942, 16.1418, 0, 0.00104734, 0.829678, 5.25043, -101.16, 0.825221, 3.77728, -53.0279, 0.000516746, 0.000618943, -0.00164995, 0.000272247, 0.000272247, 0.000272247
9027, 1,0.000624647, -0.00045172, 0.000317267, 9.62116, -27.6809, 0.00232241, 23.1673, 116.349, 0, 0.00101188, 0.000807193, 0.00138666, 11.9629, 35.1683, 0, 0.00101321, 0.000442345, 0.000752808, 7.28485, 18.2201, 0, 0.00101349, 1.74804, 3.94021, -111.193, 1.89901, 2.99688, -59.5561, 0.000590903, 0.000647735, -0.00180928, 0.000327635, 0.000327635, 0.000327635
9028, 1,0.000710349, -0.000522712, 0.000365236, 6.8257, -31.9898, 0.00257319, 7.6077, 153.182, 0, 0.000977733, 0.000916752, 0.0016089, 9.36705, 45.4378, 0, 0.000979444, 0.000505205, 0.000883761, 4.32294, 25.9375, 0, 0.000979754, -3.55566, 0.365637, -133.123, -3.90674, 0.091217, -73.9969, 0.00064067, 0.000739635, -0.00211757, 0.000326538, 0.000326538, 0.000326538
9029, 1,0.000566846, -0.000430569, 0.000295789, 4.45257, -26.8675, 0.00166907, 1.91481, 103.38, 0, 0.00107997, 0.000725013, 0.0012702, 5.41286, 38.734, 0, 0.0010811, 0.000411102, 0.000686684, 3.62633, 21.2632, 0, 0.00108141, -6.23251, -3.20161, -106.768, -5.57173, -3.0841, -55.1338, 0.00047819, 0.000548376, -0.00165509, 0.000217472, 0.000217472, 0.000217472
9030, 1,0.000569112, -0.000435177, 0.000298701, 5.72919, -27.1353, 0.00239102, 24.7375, 118.591, 0, 0.00104591, 0.000724686, 0.00131185, 6.53751, 37.0136, 0, 0.0010473, 0.000416387, 0.0007234, 5.06183, 19.4171, 0, 0.0010476, -0.345019, -0.998209, -109.698, 0.150954, -0.230982, -58.1712, 0.000575476, 0.000570867, -0.00174694, 0.000309357, 0.000309357, 0.000309357
9031, 1,0.000586849, -0.00047177, 0.000322158, 4.73703, -29.4363, 0.00262585, 17.8093, 142.798, 0, 0.00101155, 0.00075884, 0.00140236, 5.75252, 40.2648, 0, 0.00101324, 0.00041532, 0.000759055, 3.75052, 21.136, 0, 0.00101355, 0.215493, -1.97606, -119.034, 0.790447, -0.849143, -63.3492, 0.000638954, 0.000602992, -0.00189529, 0.000350333, 0.000350333, 0.000350333
9032, 1,0.000677824, -0.000541726, 0.0003699, 4.10537, -33.7869, 0.00270628, -0.865333, 172.976, 0, 0.000977408, 0.000875792, 0.00160116, 5.31076, 48.364, 0, 0.000979387, 0.000479916, 0.000862546, 2.90254, 26.4319, 0, 0.000979736, -4.71561, -3.59447, -136.782, -4.07283, -2.02224, -73.2008, 0.000662277, 0.000697367, -0.00214439, 0.000330879, 0.000330879, 0.000330879
9033, 1,0.000460038, -0.00038489, 0.000264615, 2.44348, -23.9693, 0.00151721, 45.6435, 34.9469, 0, 0.0010813, 0.000601126, 0.0010744, 3.33968, 33.6981, 0, 0.00108132, 0.000321002, 0.000551564, 1.66198, 18.2057, 0, 0.0010816, -1.69834, -6.0094, -93.3866, -2.99299, -4.63011, -46.9941, 0.000495176, 0.000405878, -0.00144786, 0.000224185, 0.000224185, 0.000224185
9034, 1,0.000499198, -0.000413347, 0.000285424, 5.93154, -25.6523, 0.0022298, 59.2656, 61.9805, 0, 0.00104738, 0.000640163, 0.00119127, 6.51089, 31.8591, 0, 0.00104789, 0.000368013, 0.0006419, 5.81374, 15.4652, 0, 0.00104817, 6.46114, -2.9571, -99.0812, 5.02876, -0.715504, -50.709, 0.000638737, 0.000446841, -0.00160253, 0.000350685, 0.000350685, 0.000350685
9035, 1,0.00051554, -0.000460112, 0.000309185, 3.62806, -28.4711, 0.0024884, 53.1409, 86.5933, 0, 0.00101315, 0.000673, 0.00130288, 4.36713, 36.7093, 0, 0.00101397, 0.000358618, 0.000687178, 2.93682, 18.6817, 0, 0.00101427, 3.88948, -2.43304, -111.584, 2.51154, -0.345127, -58.2116, 0.000660698, 0.000535561, -0.00179191, 0.000348034, 0.000348034, 0.000348034
9036, 1,0.000617919, -0.000517673, 0.000351192, 1.69689, -32.0724, 0.00296723, 50.7072, 120.306, 0, 0.000978389, 0.000801957, 0.00150539, 2.81169, 47.2195, 0, 0.00097955, 0.000434468, 0.000805, 0.601895, 26.8235, 0, 0.000979875, -3.37855, -5.41747, -132.862, -4.39419, -3.56178, -72.5146, 0.000672524, 0.000634743, -0.00207344, 0.000330156, 0.000330156, 0.000330156
9037, 1,0.00414651, 0.00118224, 0.000788971, 265.132, 74.9123, 0.0703613, 676.876, -224.295, 1, 0.00114168, 0.0053283, 0.00355913, 339.982, -119.051, 0, 0.00113451, 0.00296509, 0.00198413, 190.331, -67.9946, 0, 0.00113357, 11.7413, 10.6727, 334.739, 9.65502, 7.75196, 186.577, -0.00162487, -0.00169626, 0.0052527, -0.000865453, -0.000865453, -0.000865453
9038, 1,0.00387687, 0.00125811, 0.000840776, 249.59, 80.2818, 0.0704702, 686.726, -232.251, 1, 0.00110608, 0.00513441, 0.0034057, 329.856, -117.481, 0, 0.00109878, 0.00261988, 0.00172569, 169.34, -61.5991, 0, 0.00109778, 13.878, 12.974, 325.591, 8.44603, 9.58799, 166.763, -0.00155621, -0.00161522, 0.00507748, -0.000791059, -0.000791059, -0.000791059
9039, 1,0.00353088, 0.00129227, 0.000863745, 229.853, 82.5173, 0.0697661, 668.012, -226.538, 1, 0.00107068, 0.00482054, 0.00320095, 312.34, -113.804, 0, 0.00106377, 0.00224425, 0.00148564, 147.403, -56.2535, 0, 0.00106278, 18.7879, 13.5439, 309.081, 12.7244, 9.99918, 146.037, -0.00139344, -0.00154118, 0.00478102, -0.000615369, -0.000615369, -0.000615369
9040, 1,0.00311426, 0.00129093, 0.000861698, 203.502, 81.7905, 0.067128, 585.806, -192.762, 1, 0.00103496, 0.00440064, 0.00290512, 285.251, -104.269, 0, 0.00102941, 0.00183443, 0.00119668, 121.814, -48.4631, 0, 0.00102847, 14.5582, 16.4862, 281.763, 12.0543, 12.6716, 120.663, -0.00132894, -0.00133324, 0.00435391, -0.000502494, -0.000502494, -0.000502494
9041, 1,0.00418327, 0.00116581, 0.000776679, 265.584, 73.9678, 0.0707052, 687.816, -229.85, 1, 0.00114104, 0.00534781, 0.00356768, 339.477, -116.736, 0, 0.0011336, 0.00301972, 0.00202188, 191.749, -66.2396, 0, 0.00113267, 4.49512, 12.6578, 333.056, 3.52278, 8.0342, 187.162, -0.00173723, -0.0016389, 0.00527012, -0.000963162, -0.000963162, -0.000963162
9042, 1,0.00386641, 0.00124548, 0.000824609, 247.742, 79.4834, 0.0702498, 675.271, -224.617, 1, 0.00110517, 0.00511011, 0.00338967, 327.212, -115.504, 0, 0.00109815, 0.00262438, 0.00174568, 168.286, -60.3009, 0, 0.00109717, 11.492, 13.9041, 321.116, 7.66644, 8.501, 164.735, -0.00157324, -0.00159421, 0.00504141, -0.000785302, -0.000785302, -0.000785302
9043, 1,0.00352151, 0.00128428, 0.000851664, 221.659, 81.9231, 0.0692661, 646.383, -213.298, 1, 0.00106971, 0.00480412, 0.00325206, 303.564, -103.158, 0, 0.00106314, 0.00224073, 0.00155692, 139.774, -46.3176, 0, 0.00106216, 9.34926, 3.15263, 296.973, 5.36963, -2.45158, 136.035, -0.00142731, -0.00162751, 0.00472846, -0.000616695, -0.000616695, -0.000616695
9044, 1,0.00307129, 0.00127103, 0.000847594, 191.768, 80.6692, 0.0668608, 580.62, -194.066, 1, 0.00103421, 0.00433677, 0.00292602, 272.432, -91.4836, 0, 0.00102839, 0.00181343, 0.00124884, 111.113, -36.313, 0, 0.00102747, 1.13218, 5.90088, 267.418, -0.463558, 0.0915613, 109.311, -0.00141609, -0.00138488, 0.00428521, -0.000581228, -0.000581228, -0.000581228
9045, 1,0.00410921, 0.00112705, 0.000753804, 260.868, 71.5298, 0.0697507, 664.3, -225.565, 1, 0.00114061, 0.00523423, 0.00348682, 332.329, -113.981, 0, 0.00113329, 0.00298572, 0.00198388, 189.459, -65.2893, 0, 0.0011324, 2.57666, 16.2404, 323.126, 2.35762, 10.3318, 183.179, -0.00173384, -0.00154564, 0.00512874, -0.000973005, -0.000973005, -0.000973005
9046, 1,0.00385756, 0.00120863, 0.000802994, 245.968, 76.9259, 0.0690235, 649.623, -225.597, 1, 0.00110508, 0.00506257, 0.00335826, 322.888, -112.901, 1.73472E-18, 0.00109798, 0.00265583, 0.00177035, 169.053, -60.0788, 1.73472E-18, 0.00109704, 7.4498, 17.4605, 313.793, 5.65816, 10.6368, 163.941, -0.00161827, -0.00151284, 0.00496283, -0.000825682, -0.000825682, -0.000825682
9047, 1,0.00338855, 0.00124613, 0.000827733, 215.977, 79.2856, 0.0676578, 613.342, -215.377, 1, 0.00106954, 0.00463207, 0.00307112, 295.216, -102.839, 0, 0.00106289, 0.00214804, 0.00142866, 136.791, -48.3936, 0, 0.00106195, 7.1362, 16.2984, 285.081, 5.02611, 9.18741, 130.967, -0.00146872, -0.00138122, 0.00451839, -0.000656724, -0.000656724, -0.000656724
9048, 1,0.0029086, 0.00123212, 0.000823989, 185.489, 78.1823, 0.0655309, 550.712, -191.569, 1, 0.00103405, 0.00412972, 0.00273629, 263.645, -93.171, 0, 0.00102835, 0.00170316, 0.00113708, 107.374, -39.8874, 0, 0.00102746, 7.41773, 14.9406, 257.155, 6.67094, 7.5255, 105.466, -0.00130847, -0.00124832, 0.00406838, -0.000485934, -0.000485934, -0.000485934
9049, 1,0.00404014, 0.00108941, 0.000730042, 253.826, 69.1234, 0.0684692, 625.196, -209.232, 1, 0.00113955, 0.00512665, 0.00342769, 322.864, -108.261, 0, 0.00113282, 0.00295575, 0.00197451, 184.85, -61.3969, 0, 0.00113195, -0.894452, 15.8405, 309.836, -0.698719, 8.76566, 176.124, -0.00172058, -0.00149149, 0.00496852, -0.00098013, -0.00098013, -0.00098013
9050, 1,0.00377435, 0.00116368, 0.000776431, 235.776, 73.9354, 0.0677849, 608.472, -205.414, 1, 0.00110401, 0.00493278, 0.00328272, 309.71, -104.45, 0, 0.00109758, 0.00262045, 0.00176204, 161.844, -54.0953, 0, 0.00109668, 1.50691, 14.3906, 297.452, 0.752004, 6.26272, 155.271, -0.00161347, -0.00148173, 0.00478982, -0.000838194, -0.000838194, -0.000838194
9051, 1,0.00327984, 0.00120272, 0.000801913, 208.182, 76.3495, 0.0665244, 575.477, -196.461, 1, 0.0010687, 0.00447943, 0.00297123, 284.494, -98.7705, 0, 0.00106272, 0.00208385, 0.00138651, 131.915, -46.8348, 0, 0.00106183, 5.62804, 19.9509, 270.733, 4.74913, 11.4724, 124.283, -0.00143615, -0.00127666, 0.00431529, -0.000638048, -0.000638048, -0.000638048
9052, 1,0.00285086, 0.00119203, 0.000797856, 177.089, 75.617, 0.0646756, 520.279, -174.66, 1, 0.00103292, 0.0040293, 0.00269335, 252.664, -84.9577, 2.1684E-19, 0.00102773, 0.00169101, 0.00114332, 101.576, -33.5946, 2.1684E-19, 0.00102688, -0.910211, 12.0303, 243.753, -1.29324, 3.14868, 98.9284, -0.00135473, -0.00120501, 0.00393807, -0.00055505, -0.00055505, -0.00055505
9053, 1,0.00391973, 0.00105553, 0.000706931, 248.124, 66.9481, 0.0668108, 577.422, -191.537, 1, 0.00113859, 0.00497247, 0.00332699, 314.985, -107.148, 0, 0.00113258, 0.00286903, 0.00191835, 181.329, -61.9483, 0, 0.00113175, 0.541337, 22.8368, 298.067, 0.814191, 14.8415, 170.189, -0.00167402, -0.00134248, 0.00475494, -0.000958598, -0.000958598, -0.000958598
9054, 1,0.0036197, 0.00112167, 0.000749571, 228.623, 71.1442, 0.0662599, 567.334, -192.584, 1, 0.00110331, 0.00473671, 0.00315083, 299.743, -103.073, 0, 0.00109737, 0.00250682, 0.00166848, 157.525, -54.9821, 0, 0.00109651, 3.8111, 22.0644, 283.345, 3.64055, 12.95, 148.356, -0.00154516, -0.00131163, 0.00452914, -0.000793314, -0.000793314, -0.000793314
9055, 1,0.00324927, 0.00115749, 0.000772585, 204.384, 73.3865, 0.065062, 538.955, -187.951, 1, 0.00106799, 0.00440313, 0.00295302, 277.743, -94.5605, 0, 0.00106227, 0.00209943, 0.00141537, 131.057, -44.9334, 0, 0.00106141, 0.501339, 22.3546, 260.826, 0.0905004, 12.7607, 121.949, -0.00147875, -0.00117547, 0.00418842, -0.000707197, -0.000707197, -0.000707197
9056, 1,0.00276002, 0.0011554, 0.000773197, 171.717, 73.2409, 0.0614497, 500.868, -174.171, 0.965781, 0.00103217, 0.00390239, 0.00261641, 244.929, -82.6255, 0, 0.00102724, 0.00163578, 0.00109779, 98.5482, -33.0824, 0, 0.00102641, -1.37159, 16.0078, 233.24, -1.56702, 5.9598, 94.8543, -0.0013283, -0.0011008, 0.00376962, -0.00055349, -0.00055349, -0.00055349
9057, 1,0.00383643, 0.00102266, 0.000684228, 241.319, 64.8312, 0.064337, 522.648, -187.279, 1, 0.00113806, 0.00485711, 0.00324609, 306.03, -102.579, 8.67362E-19, 0.00113214, 0.00281718, 0.0018818, 176.696, -58.9682, 8.67362E-19, 0.00113134, -0.465901, 23.7075, 284.494, -0.19515, 15.0094, 162.09, -0.00162683, -0.00127122, 0.00456238, -0.000936304, -0.000936304, -0.000936304
9058, 1,0.00359664, 0.00107992, 0.00072156, 224.006, 68.4518, 0.06354, 516.955, -197.148, 0.998392, 0.00110302, 0.00467343, 0.00312016, 292.41, -97.5283, 0, 0.00109681, 0.0025225, 0.00168502, 155.644, -51.4422, 0, 0.00109599, -0.838576, 21.8742, 271.549, -0.8488, 11.9906, 143.185, -0.00155776, -0.00124865, 0.00438883, -0.000833969, -0.000833969, -0.000833969
9059, 1,0.0032008, 0.00111514, 0.000744498, 200.103, 70.6381, 0.059422, 508.347, -189.799, 0.939051, 0.00106714, 0.00431314, 0.00287953, 270.686, -91.3026, 0, 0.00106183, 0.00209142, 0.00140031, 129.579, -43.7534, 0, 0.00106101, 0.424828, 23.2581, 250.225, 0.314099, 12.7888, 118.157, -0.00142954, -0.00112106, 0.00403199, -0.000684612, -0.000684612, -0.000684612
9060, 1,0.00268685, 0.00111822, 0.000747719, 165.538, 70.8448, 0.052727, 492.146, -167.779, 0.831509, 0.00103058, 0.00379627, 0.00255315, 236.377, -77.6816, -8.67362E-19, 0.00102665, 0.00158956, 0.00107814, 94.7091, -29.9238, -8.67362E-19, 0.00102585, -4.06061, 15.8239, 221.282, -4.1533, 4.87239, 89.0522, -0.00130869, -0.0010325, 0.00360153, -0.000560303, -0.000560303, -0.000560303
9061, 1,0.003762, 0.000989562, 0.000661583, 233.891, 62.6753, 0.0518899, 491.056, -166.408, 0.817589, 0.00113544, 0.00474979, 0.00319126, 296.466, -97.4327, 0, 0.00113161, 0.00277546, 0.00187203, 171.387, -55.3546, 0, 0.00113083, -4.0903, 23.5392, 272.849, -3.8729, 14.2111, 155.725, -0.00162398, -0.00119315, 0.00439798, -0.00095781, -0.00095781, -0.00095781
9062, 1,0.00349065, 0.00104029, 0.000695091, 216.663, 65.877, 0.0490327, 494.176, -174.411, 0.772684, 0.00110013, 0.00452778, 0.00302878, 282.485, -94.6065, 0, 0.00109635, 0.00245618, 0.00165119, 150.891, -50.3603, 0, 0.00109556, -0.542226, 24.096, 260.266, -0.438345, 13.487, 138.032, -0.00150633, -0.00115202, 0.00419336, -0.000808808, -0.000808808, -0.000808808
9063, 1,0.0030466, 0.0010726, 0.000715457, 188.589, 67.9093, 0.0445507, 490.501, -171.673, 0.697189, 0.0010646, 0.00411725, 0.00275902, 256.467, -85.1308, 0, 0.00106123, 0.00197805, 0.00133528, 120.745, -39.4863, 0, 0.00106044, -1.7755, 22.5572, 234.611, -1.93301, 11.3043, 109.088, -0.00137885, -0.00102664, 0.00378674, -0.000665071, -0.000665071, -0.000665071
9064, 1,0.00254538, 0.00108252, 0.000723273, 159.225, 68.531, 0.0405586, 486.786, -167.07, 0.625874, 0.00102903, 0.00362191, 0.0024299, 227.745, -76.5242, 0, 0.00102602, 0.00147764, 0.000994988, 90.7215, -30.4464, 0, 0.00102526, -1.43432, 20.5542, 210.453, -1.46721, 8.83247, 83.9738, -0.00123398, -0.000899707, 0.00337527, -0.000511016, -0.000511016, -0.000511016
9065, 1,0.0036018, 0.000957138, 0.000639371, 226.067, 60.5504, 0.0353126, 482.138, -162.574, 0.531627, 0.00113364, 0.0045577, 0.00304121, 286.52, -95.9687, -4.33681E-19, 0.00113115, 0.0026468, 0.00176546, 165.687, -55.3871, -4.33681E-19, 0.00113041, -0.0297386, 26.6175, 261.318, 0.174614, 16.7752, 149.212, -0.00151513, -0.00107218, 0.00414442, -0.000872771, -0.000872771, -0.000872771
9066, 1,0.00327573, 0.00100246, 0.000669271, 205.144, 63.4026, 0.0318905, 480.925, -163.106, 0.469625, 0.00109815, 0.00427631, 0.00285655, 268.486, -90.9494, 0, 0.00109583, 0.00227681, 0.00152197, 141.857, -48.433, 0, 0.00109507, 0.589491, 27.4569, 244.802, 0.675525, 16.2786, 128.345, -0.00142464, -0.000982958, 0.00388326, -0.000754488, -0.000754488, -0.000754488
9067, 1,0.00290298, 0.00103302, 0.000688736, 182.311, 65.3351, 0.0298292, 481.421, -165.418, 0.431868, 0.00106308, 0.00393463, 0.00263474, 247.622, -84.3288, 0, 0.00106078, 0.00187283, 0.0012621, 117.028, -40.477, 0, 0.00106002, 1.24041, 26.7045, 225.042, 1.10903, 14.8157, 105.506, -0.00130257, -0.000891234, 0.00356204, -0.000616186, -0.000616186, -0.000616186
9068, 1,0.00248619, 0.00104649, 0.00069877, 154.816, 66.1777, 0.0291292, 479.934, -163, 0.418241, 0.00102781, 0.00352927, 0.00236815, 220.97, -72.92, 0, 0.00102548, 0.00144801, 0.000978357, 88.6966, -28.5128, 0, 0.00102474, -2.61403, 19.8169, 201.557, -2.58482, 7.54759, 80.5756, -0.00120265, -0.000836075, 0.00322183, -0.000504313, -0.000504313, -0.000504313
9069, 1,0.00348489, 0.000924603, 0.000617296, 218.886, 58.4301, 0.0236792, 476.056, -160.234, 0.315638, 0.00113237, 0.0044084, 0.00293986, 277.215, -92.8132, 0, 0.00113051, 0.00256217, 0.0017083, 160.63, -53.699, 0, 0.00112979, 0.201795, 27.4955, 250.742, 0.406945, 17.2655, 143.425, -0.00146054, -0.000974525, 0.00394097, -0.000841287, -0.000841287, -0.000841287
9070, 1,0.00313934, 0.000966088, 0.000644696, 197.217, 61.0397, 0.0215988, 473.309, -157.19, 0.275916, 0.00109694, 0.00410419, 0.00273417, 258.185, -87.3471, 0, 0.00109519, 0.00217562, 0.00145436, 136.315, -46.4631, 0, 0.00109446, 2.23173, 27.0417, 232.768, 2.32836, 15.4836, 121.577, -0.00133201, -0.000903295, 0.00365251, -0.000687123, -0.000687123, -0.000687123
9071, 1,0.00279731, 0.000995678, 0.000663618, 174.632, 62.9047, 0.0207634, 472.991, -157.244, 0.25995, 0.00106187, 0.0037923, 0.00254284, 237.489, -79.1698, 0, 0.00106007, 0.00180306, 0.00122118, 111.828, -37.0206, 0, 0.00105934, -0.211954, 24.7279, 212.993, -0.270603, 12.4386, 98.894, -0.00125233, -0.000822778, 0.00335963, -0.00059094, -0.00059094, -0.00059094
9072, 1,0.00237174, 0.00100974, 0.000673782, 149.066, 63.7924, 0.0203595, 474.112, -159.415, 0.252346, 0.00102666, 0.00337975, 0.00225901, 212.83, -71.4502, 0, 0.00102476, 0.0013663, 0.000915564, 85.3428, -28.7029, 0, 0.00102405, -0.354121, 22.7273, 191.977, -0.321351, 10.0318, 76.3983, -0.001133, -0.000731682, 0.00302393, -0.000460331, -0.000460331, -0.000460331
9073, 1,0.00332405, 0.000891969, 0.000595376, 208.786, 56.3241, 0.0176972, 472.907, -159.505, 0.201224, 0.00113145, 0.00421474, 0.00281292, 264.99, -88.6757, 0, 0.00112978, 0.00243431, 0.00162569, 152.67, -51.0166, 0, 0.00112909, 0.0170455, 28.7174, 237.293, 0.239912, 18.1818, 134.628, -0.00139876, -0.000868956, 0.00370648, -0.000801934, -0.000801934, -0.000801934
9074, 1,0.0030095, 0.000930215, 0.000620449, 189.13, 58.7429, 0.0168224, 470.573, -156.342, 0.184158, 0.00109612, 0.00393874, 0.0026249, 247.787, -83.519, 0, 0.00109451, 0.00208112, 0.00138775, 130.55, -44.2089, 0, 0.00109381, 1.10217, 28.6978, 220.757, 1.17772, 16.8533, 114.596, -0.00129466, -0.000793413, 0.00344316, -0.000674911, -0.000674911, -0.000674911
9075, 1,0.00262702, 0.000957972, 0.000638435, 165.231, 60.5014, 0.0162204, 470.279, -156.378, 0.172549, 0.00106099, 0.00358433, 0.00239088, 225.684, -76.2748, 7.31421E-07, 0.00105933, 0.00167047, 0.00111935, 104.835, -35.7595, 7.31421E-07, 0.00105863, 1.48573, 26.4652, 200.874, 1.4434, 13.7763, 92.0589, -0.00117091, -0.000726483, 0.00313493, -0.000534756, -0.000534756, -0.000534756
9076, 1,0.00225468, 0.000973378, 0.000649308, 141.661, 61.4612, 0.0156861, 470.733, -157.623, 0.162281, 0.00102587, 0.00322675, 0.00215683, 203.079, -68.1094, 0, 0.00102412, 0.00128459, 0.000861853, 80.3108, -26.9677, 0, 0.00102344, -0.212713, 23.2546, 181.286, -0.160002, 10.2214, 70.8415, -0.00107795, -0.00065791, 0.0028409, -0.000429927, -0.000429927, -0.000429927
9077, 1,0.00319772, 0.000858398, 0.000572806, 200.515, 54.1947, 0.015083, 471.123, -158.829, 0.150693, 0.00113064, 0.00405483, 0.00270809, 254.587, -84.8642, 0, 0.00112902, 0.00234154, 0.00156611, 146.534, -48.6499, 0, 0.00112836, -0.461017, 29.1409, 225.913, -0.261056, 18.395, 127.816, -0.0013485, -0.000795213, 0.00352063, -0.000774859, -0.000774859, -0.000774859
9078, 1,0.0028819, 0.000894915, 0.000596868, 181.031, 56.4992, 0.0145107, 469.784, -157.147, 0.139516, 0.00109541, 0.00377559, 0.00251102, 237.419, -79.7528, 0, 0.0010938, 0.00198931, 0.00132417, 124.743, -41.9795, 0, 0.00109313, 1.33265, 28.6962, 209.229, 1.427, 16.6431, 107.868, -0.00122996, -0.000728105, 0.00325204, -0.00063396, -0.00063396, -0.00063396
9079, 1,0.00253026, 0.000921542, 0.000614091, 158.938, 58.1858, 0.0138356, 469.365, -157.09, 0.126408, 0.00106025, 0.00345114, 0.00230021, 217.055, -72.9658, 0, 0.0010586, 0.00161013, 0.00107821, 100.901, -34.0359, 0, 0.00105793, 1.19792, 26.7376, 190.962, 1.18404, 13.8302, 87.0936, -0.0011248, -0.000662641, 0.00297128, -0.000512913, -0.000512913, -0.000512913
9080, 1,0.00214993, 0.00093698, 0.000624871, 134.91, 59.1499, 0.0130941, 469.084, -157.382, 0.112, 0.00102511, 0.0030859, 0.00205789, 194.01, -64.9077, 0, 0.00102339, 0.00121554, 0.00081132, 75.8879, -25.3384, 0, 0.00102274, 0.0524413, 23.2584, 171.412, 0.105569, 9.98658, 65.923, -0.00102199, -0.000603032, 0.0026781, -0.000398585, -0.000398585, -0.000398585
9081, 1,0.00306782, 0.000824841, 0.000550394, 192.915, 52.0665, 0.0132615, 470.055, -158.83, 0.115354, 0.00112992, 0.00389122, 0.0025933, 244.849, -82.1536, 0, 0.00112832, 0.00224547, 0.00149714, 141.081, -47.3882, 0, 0.00112768, 0.722427, 30.3107, 215.428, 0.927356, 19.4252, 121.812, -0.00128053, -0.000724407, 0.00333786, -0.000729534, -0.000729534, -0.000729534
9082, 1,0.00275871, 0.000859054, 0.000572881, 173.065, 54.234, 0.0126989, 468.733, -157.236, 0.104338, 0.00109475, 0.00361657, 0.00240802, 227.191, -76.0488, 0, 0.00109314, 0.00190194, 0.001266, 119.036, -39.8014, 0, 0.0010925, 0.684266, 28.7884, 198.674, 0.769916, 16.5752, 102.059, -0.00118503, -0.000663725, 0.00308262, -0.000613184, -0.000613184, -0.000613184
9083, 1,0.0024087, 0.000885349, 0.000590109, 151.478, 55.8872, 0.0120452, 468.538, -157.618, 0.0916277, 0.0010596, 0.00329298, 0.00219429, 207.274, -69.8149, 0, 0.00105794, 0.00152566, 0.00102064, 95.7879, -32.4531, 0, 0.0010573, 1.26995, 27.2843, 180.89, 1.31003, 14.1805, 81.8686, -0.00107361, -0.000596561, 0.00280288, -0.000485167, -0.000485167, -0.000485167
9084, 1,0.00204413, 0.000900738, 0.000600526, 128.581, 56.8514, 0.0113276, 467.716, -157.092, 0.0776075, 0.00102441, 0.00294417, 0.00196258, 185.38, -62.3203, 0, 0.00102272, 0.0011452, 0.000763738, 71.8653, -24.3088, 0, 0.00102209, 0.389098, 24.3895, 162.182, 0.426795, 10.9541, 61.5454, -0.000974026, -0.000534181, 0.0025193, -0.000375363, -0.000375363, -0.000375363
9085, 1,0.00295214, 0.000791011, 0.000527794, 185.132, 49.927, 0.0118007, 468.655, -158.093, 0.0868891, 0.0011292, 0.00374167, 0.00249914, 234.926, -78.3346, 0, 0.00112759, 0.00216369, 0.00144784, 135.436, -45.0135, 0, 0.00112698, -0.312689, 30.178, 205.139, -0.111456, 19.2231, 115.929, -0.00124211, -0.000663915, 0.00317699, -0.000713878, -0.000713878, -0.000713878
9086, 1,0.00264021, 0.000824137, 0.000549718, 165.829, 52.014, 0.0112592, 467.976, -157.639, 0.0763316, 0.00109401, 0.00346279, 0.00230307, 217.711, -73.0288, 0, 0.00109239, 0.00181906, 0.00121073, 114.069, -38.3004, 0, 0.00109177, 1.22106, 29.3281, 188.537, 1.34765, 17.0555, 96.498, -0.00112591, -0.000600645, 0.00291141, -0.000577046, -0.000577046, -0.000577046
9087, 1,0.00230528, 0.000848927, 0.000565822, 144.581, 53.5814, 0.0107079, 467.724, -157.897, 0.065608, 0.00105886, 0.00315312, 0.00210229, 198.07, -66.2692, 0, 0.00105718, 0.0014587, 0.000977615, 91.2017, -30.4645, 0, 0.00105657, 0.704502, 26.7317, 171.371, 0.754338, 13.5428, 77.0965, -0.00102964, -0.000547449, 0.00265226, -0.000465426, -0.000465426, -0.000465426
9088, 1,0.00195056, 0.000864668, 0.000576432, 122.004, 54.5649, 0.0100472, 466.268, -156.373, 0.0526322, 0.00102366, 0.00281448, 0.00187955, 176.507, -58.6142, 0, 0.00102196, 0.00108783, 0.000729191, 67.5971, -22.1527, 0, 0.00102135, -0.620104, 23.4571, 153.006, -0.567557, 9.94429, 57.0813, -0.000937012, -0.000491333, 0.0023793, -0.00036235, -0.00036235, -0.00036235
9089, 1,0.00282857, 0.000757338, 0.000505305, 177.705, 47.7946, 0.0105269, 467.26, -157.354, 0.0620312, 0.00112856, 0.00358441, 0.00239077, 225.366, -75.4762, 0, 0.00112695, 0.00207384, 0.00138424, 130.141, -43.5947, 0, 0.00112637, 0.317925, 30.7468, 195.364, 0.515702, 19.7916, 110.477, -0.0011836, -0.000602883, 0.00301106, -0.000678046, -0.000678046, -0.000678046
9090, 1,0.00253164, 0.000788945, 0.000526341, 158.688, 49.7822, 0.0100478, 466.304, -156.446, 0.0526591, 0.00109336, 0.00331875, 0.00220959, 208.327, -69.5074, 0, 0.00109174, 0.00174618, 0.00116405, 109.179, -36.291, 0, 0.00109115, 0.588634, 28.872, 179.062, 0.741702, 16.605, 91.5263, -0.00108366, -0.000549553, 0.00276094, -0.000557978, -0.000557978, -0.000557978
9091, 1,0.00219822, 0.000813129, 0.000542069, 137.873, 51.3071, 0.00941665, 466.512, -157.746, 0.0404602, 0.00105821, 0.00300996, 0.00200665, 189.066, -63.1895, 0, 0.00105653, 0.00138812, 0.000930672, 86.8145, -28.9356, 0, 0.00105594, 0.784768, 26.7247, 162.059, 0.876316, 13.5353, 72.3951, -0.000979465, -0.00049412, 0.00249879, -0.000438721, -0.000438721, -0.000438721
9092, 1,0.00184307, 0.000828656, 0.00055229, 115.606, 52.2826, 0.0087347, 465.42, -157.122, 0.0271585, 0.00102303, 0.00267109, 0.00178045, 167.823, -55.9972, 0, 0.00102132, 0.00101607, 0.000678639, 63.4991, -21.0828, 0, 0.00102074, 0.0514887, 23.8133, 144.127, 0.0989236, 10.3014, 52.848, -0.000881594, -0.000438425, 0.00222851, -0.000331342, -0.000331342, -0.000331342
9093, 1,0.00271624, 0.000723707, 0.000482879, 170.393, 45.6658, 0.00940658, 465.623, -156.272, 0.0401543, 0.00112786, 0.00343839, 0.00229249, 215.927, -72.0501, 0, 0.00112625, 0.00199522, 0.00133101, 124.954, -41.6008, 0, 0.0011257, 0.157143, 30.0183, 185.975, 0.354671, 19.1386, 105.309, -0.0011329, -0.000559652, 0.00286155, -0.000649848, -0.000649848, -0.000649848
9094, 1,0.00242293, 0.000754626, 0.00050357, 151.995, 47.595, 0.00883073, 464.798, -155.911, 0.0289558, 0.00109268, 0.00317525, 0.00211486, 199.412, -66.5455, 0, 0.00109105, 0.00167271, 0.00111798, 104.74, -34.8318, 0, 0.00109049, 0.899801, 29.3017, 169.435, 1.08354, 17.1566, 86.2553, -0.00103034, -0.000488913, 0.00259892, -0.000527626, -0.000527626, -0.000527626
9095, 1,0.00207667, 0.000777255, 0.000518203, 130.666, 49.0315, 0.00810425, 461.745, -152.43, 0.0146861, 0.0010574, 0.00285239, 0.00190012, 179.574, -60.3299, 0, 0.0010558, 0.00130281, 0.000870699, 81.9076, -27.6179, 0, 0.00105524, 0.931103, 27.3185, 152.74, 1.04468, 14.1748, 67.6342, -0.000931321, -0.000430685, 0.00234081, -0.000414344, -0.000414344, -0.000414344
9096, 1,0.00172157, 0.000792444, 0.000528138, 108.72, 49.992, 0.00748096, 458.667, -149.517, 0.00262878, 0.00102216, 0.00251332, 0.00166993, 158.648, -53.6146, 0, 0.00102057, 0.000931005, 0.000618647, 58.9028, -20.2423, 0, 0.00102002, 1.33737, 23.9821, 135.524, 1.38984, 10.5039, 48.8333, -0.000816883, -0.000392348, 0.00207906, -0.000290758, -0.000290758, -0.000290758
9097, 1,0.00260705, 0.000690955, 0.00046108, 163.883, 43.5814, 0.00827498, 463.734, -155.299, 0.0181443, 0.0011272, 0.00329607, 0.00219674, 207.309, -69.4438, 0, 0.0011256, 0.00191944, 0.00128034, 120.569, -40.4203, 0, 0.00112507, 0.652343, 30.7337, 176.946, 0.868912, 20.0269, 100.365, -0.00108126, -0.000499194, 0.00270715, -0.000620212, -0.000620212, -0.000620212
9098, 1,0.00227561, 0.000719403, 0.000480028, 143.2, 45.3677, 0.00763138, 458.554, -148.641, 0.00541258, 0.00109187, 0.00299284, 0.0019921, 188.4, -63.2299, 6.99576E-07, 0.00109035, 0.0015604, 0.00104108, 98.1571, -33.0109, 6.99576E-07, 0.00108982, 1.28571, 29.3537, 159.05, 1.45728, 17.3108, 80.2647, -0.000969842, -0.000429994, 0.0024257, -0.000490894, -0.000490894, -0.000490894
9099, 1,0.00196182, 0.000741447, 0.000494554, 123.644, 46.7665, 0.00723449, 451.008, -146.503, 0, 0.00105665, 0.00270122, 0.00179863, 170.267, -57.3317, 0, 0.00105513, 0.0012249, 0.000817973, 77.195, -26.1513, 0, 0.00105459, 1.12691, 26.8558, 144.012, 1.28873, 13.821, 63.3443, -0.000879969, -0.000389384, 0.0021995, -0.00038606, -0.00038606, -0.00038606
9100, 1,0.00163176, 0.000756474, 0.000504141, 102.549, 47.7223, 0.00696565, 437.381, -145.3, 0, 0.00102145, 0.00238751, 0.00159133, 150.202, -50.1982, 0, 0.00101988, 0.000877274, 0.000586324, 55.0139, -18.358, 0, 0.00101935, 0.220877, 23.0891, 127.285, 0.280151, 9.76802, 45.0258, -0.000786722, -0.000355846, 0.00195696, -0.000284538, -0.000284538, -0.000284538
9101, 1,0.00246557, 0.000657411, 0.000438704, 155.385, 41.4627, 0.00731717, 457.153, -149.506, 0, 0.00112639, 0.0031211, 0.00207511, 196.698, -66.2363, 0, 0.00112487, 0.00181143, 0.00120427, 114.181, -38.6335, 0, 0.00112437, 1.47585, 30.2739, 166.959, 1.68433, 19.737, 94.4792, -0.00101319, -0.00045433, 0.00254217, -0.000574666, -0.000574666, -0.000574666
9102, 1,0.0021727, 0.000684613, 0.00045704, 136.718, 43.1713, 0.00706789, 442.595, -145.783, 0, 0.00109114, 0.00285471, 0.00190106, 179.704, -60.2437, 0, 0.00108962, 0.00149309, 0.000996839, 93.9031, -31.5072, 0, 0.00108912, 1.13422, 28.6958, 150.901, 1.34796, 16.8575, 76.3161, -0.000925946, -0.000394419, 0.00229777, -0.000469441, -0.000469441, -0.000469441
9103, 1,0.0018586, 0.000705734, 0.000470802, 116.809, 44.5143, 0.00684559, 429.83, -142.766, 0, 0.00105591, 0.00256221, 0.00170681, 161.174, -53.8882, 0, 0.00105439, 0.00115759, 0.000774449, 72.6297, -24.2271, 0, 0.00105388, 0.675964, 25.8311, 135.158, 0.848166, 13.0169, 58.8164, -0.00083527, -0.000355742, 0.00206528, -0.000365043, -0.000365043, -0.000365043
9104, 1,0.0015263, 0.00072062, 0.000480241, 95.9882, 45.4605, 0.00655851, 412.039, -137.11, 0, 0.0010206, 0.0022461, 0.0014965, 141.374, -47.3073, 0, 0.00101912, 0.000807961, 0.000540155, 50.7383, -16.9936, 0, 0.00101861, 0.391295, 22.5962, 118.934, 0.458656, 9.48154, 41.0407, -0.00073757, -0.000320152, 0.0018252, -0.000259216, -0.000259216, -0.000259216
9105, 1,0.00235564, 0.000624218, 0.000416642, 147.887, 39.3692, 0.00697355, 439.05, -147.02, 0, 0.00112573, 0.00297782, 0.00198264, 187.099, -62.3901, 0, 0.00112419, 0.00173494, 0.00115628, 108.789, -36.1989, 0, 0.00112371, 0.579406, 28.8699, 157.721, 0.799448, 18.6082, 89.1889, -0.000971532, -0.00042216, 0.00240593, -0.000554988, -0.000554988, -0.000554988
9106, 1,0.00206048, 0.000649926, 0.000433986, 129.534, 40.9842, 0.00672009, 422.422, -140.776, 0, 0.00109041, 0.00270766, 0.00180353, 170.325, -56.9488, 0, 0.00108893, 0.00141582, 0.000946154, 88.9221, -29.6863, 0, 0.00108845, 0.984072, 27.8653, 141.997, 1.20807, 16.3056, 71.5453, -0.000877182, -0.000359157, 0.00216028, -0.000443658, -0.000443658, -0.000443658
9107, 1,0.00174813, 0.000670145, 0.000447178, 109.9, 42.2699, 0.00646499, 406.136, -135.102, 0, 0.00105512, 0.00241591, 0.00160973, 152.009, -50.8594, 0, 0.00105368, 0.00108327, 0.000725609, 67.9931, -22.7105, 0, 0.0010532, 0.743439, 25.1964, 126.638, 0.932939, 12.6418, 54.5568, -0.000786102, -0.000320653, 0.00193188, -0.000339299, -0.000339299, -0.000339299
9108, 1,0.00142451, 0.000684812, 0.000456384, 89.5623, 43.2021, 0.00615757, 387.108, -129.071, 0, 0.00101984, 0.00210843, 0.00140465, 132.685, -44.3788, 0, 0.00101844, 0.00074224, 0.000496516, 46.5884, -15.5863, 0, 0.00101796, 0.383634, 21.8764, 110.876, 0.458317, 9.03628, 37.2643, -0.00069157, -0.000288448, 0.00169998, -0.000236983, -0.000236983, -0.000236983
9109, 1,0.00223742, 0.00059089, 0.000394444, 140.566, 37.2697, 0.00662522, 416.543, -138.905, 0, 0.00112489, 0.00282626, 0.00188149, 177.679, -59.3553, 0, 0.00112344, 0.00165007, 0.00109974, 103.566, -34.5727, 0, 0.00112298, 0.744036, 28.2542, 149.068, 0.963729, 18.2992, 84.4551, -0.000920241, -0.000386317, 0.00226955, -0.000525867, -0.000525867, -0.000525867
9110, 1,0.00194659, 0.000615393, 0.000411073, 122.34, 38.8058, 0.00636565, 400.41, -133.712, 0, 0.00108957, 0.002559, 0.00170529, 160.941, -53.7739, 0, 0.00108815, 0.00133695, 0.000894431, 83.9297, -27.9786, 0, 0.0010877, 0.910383, 27.0683, 133.343, 1.15169, 15.8324, 66.9517, -0.000828696, -0.000324951, 0.00202607, -0.000417895, -0.000417895, -0.000417895
9111, 1,0.00164044, 0.000634698, 0.000423657, 103.093, 40.034, 0.0060895, 382.933, -127.773, 0, 0.00105427, 0.00227253, 0.00151442, 142.954, -47.7974, 0, 0.0010529, 0.00101164, 0.000678361, 63.4506, -21.1536, 0, 0.00105244, 0.720342, 24.3302, 118.342, 0.927334, 12.1006, 50.4329, -0.000738332, -0.000289652, 0.00180342, -0.000314839, -0.000314839, -0.000314839
9112, 1,0.00132306, 0.000649086, 0.000432592, 83.1669, 40.9487, 0.0057823, 363.527, -121.216, 0, 0.00101897, 0.00197116, 0.00131321, 124.032, -41.4725, 0, 0.00101765, 0.000676817, 0.000453243, 42.4643, -14.1966, 0, 0.0010172, 0.380737, 21.0293, 103.008, 0.462919, 8.52575, 33.6011, -0.000645823, -0.000259576, 0.0015782, -0.00021493, -0.00021493, -0.00021493
9113, 1,0.00212157, 0.00055769, 0.000372344, 133.221, 35.1764, 0.00624922, 393.009, -131.163, 0, 0.00112412, 0.00267716, 0.00178241, 168.24, -56.1402, 0, 0.00112276, 0.00156748, 0.00104527, 98.3151, -32.7622, 0, 0.00112233, 0.691513, 27.2565, 140.473, 0.912779, 17.6685, 79.7053, -0.000870701, -0.000355303, 0.00213683, -0.000498397, -0.000498397, -0.000498397
9114, 1,0.00183378, 0.000580948, 0.000388217, 115.222, 36.6326, 0.00600022, 377.379, -125.975, 0, 0.00108881, 0.00241151, 0.00160732, 151.639, -50.6397, 0, 0.00108748, 0.00125905, 0.000843003, 79.0061, -26.3062, 0, 0.00108705, 0.910452, 26.1006, 124.908, 1.1665, 15.2461, 62.5061, -0.000779319, -0.000294652, 0.00189554, -0.000391209, -0.000391209, -0.000391209
9115, 1,0.00153284, 0.000599364, 0.000400219, 96.2978, 37.8048, 0.00572742, 360.205, -120.23, 0, 0.00105351, 0.0021293, 0.00141933, 133.917, -44.7516, 0, 0.00105222, 0.000940089, 0.000631274, 58.9183, -19.6071, 0, 0.0010518, 0.69692, 23.3421, 110.216, 0.921325, 11.4943, 46.4056, -0.000690837, -0.000261241, 0.0016781, -0.000290565, -0.000290565, -0.000290565
9116, 1,0.00122201, 0.000613428, 0.000408855, 76.7985, 38.6998, 0.00542586, 341.146, -113.779, 0, 0.00101821, 0.00183436, 0.00122209, 115.411, -38.5771, 0, 0.00101697, 0.000611794, 0.000410237, 38.3644, -12.8124, 0, 0.00101655, 0.37349, 20.0554, 95.3026, 0.462446, 7.94557, 30.0292, -0.000600342, -0.000233305, 0.00145947, -0.000193077, -0.000193077, -0.000193077
9117, 1,0.00200563, 0.000524552, 0.000350286, 125.913, 33.0864, 0.00587041, 369.112, -123.112, 0, 0.00112328, 0.00252804, 0.00168328, 158.842, -52.9835, 0, 0.001122, 0.00148473, 0.000990555, 93.097, -31.007, 0, 0.0011216, 0.692993, 26.1747, 132.083, 0.915835, 17.0035, 75.1017, -0.00082094, -0.00032672, 0.00200727, -0.000470656, -0.000470656, -0.000470656
9118, 1,0.00172154, 0.000546594, 0.000365421, 108.136, 34.4645, 0.00563045, 354.103, -118.184, 0, 0.00108798, 0.00226466, 0.00150988, 142.373, -47.5156, 0, 0.00108673, 0.00118164, 0.000791972, 74.1098, -24.6395, 0, 0.00108632, 0.891812, 24.9983, 116.657, 1.16229, 14.5783, 58.1779, -0.000730505, -0.000267053, 0.00176844, -0.000365022, -0.000365022, -0.000365022
9119, 1,0.00142577, 0.000564121, 0.000376843, 89.5401, 35.581, 0.00536827, 337.598, -112.661, 0, 0.00105265, 0.00198668, 0.00132458, 124.922, -41.7245, 0, 0.00105144, 0.00086904, 0.000584499, 54.4201, -18.0742, 0, 0.00105103, 0.688248, 22.2189, 102.266, 0.929078, 10.8091, 42.4845, -0.000643335, -0.000235684, 0.00155592, -0.000266227, -0.000266227, -0.000266227
9120, 1,0.00112114, 0.000577832, 0.00038517, 70.4419, 36.4539, 0.00508105, 319.441, -106.513, 0, 0.00101733, 0.00169779, 0.00113118, 106.804, -35.686, 0, 0.00101616, 0.000546983, 0.000367431, 34.2762, -11.4302, 0, 0.00101576, 0.361932, 18.9545, 87.7414, 0.458807, 7.29694, 26.5349, -0.000555022, -0.00020952, 0.00134346, -0.000171329, -0.000171329, -0.000171329
9121, 1,0.00189022, 0.00049149, 0.00032828, 118.63, 31.0005, 0.00548918, 345.112, -115.075, 0, 0.00112252, 0.00237953, 0.00158471, 149.473, -49.8254, 0, 0.00112133, 0.00140244, 0.000936211, 87.8984, -29.2467, 0, 0.00112096, 0.676685, 24.9407, 123.859, 0.900944, 16.235, 70.6041, -0.000771533, -0.00030104, 0.00188094, -0.000443214, -0.000443214, -0.000443214
9122, 1,0.00160989, 0.000512339, 0.00034269, 101.089, 32.3021, 0.00525953, 330.745, -110.355, 0, 0.00108721, 0.00211849, 0.0014129, 133.153, -44.4086, 0, 0.00108605, 0.00110475, 0.000741289, 69.2477, -22.9846, 0, 0.00108567, 0.87726, 23.7641, 108.584, 1.16102, 13.8292, 53.9636, -0.000681877, -0.000242226, 0.00164457, -0.000338965, -0.000338965, -0.000338965
9123, 1,0.0013192, 0.000528976, 0.000353532, 82.8136, 33.3627, 0.00501054, 315.075, -105.119, 0, 0.00105188, 0.00184462, 0.00123026, 115.962, -38.709, 0, 0.00105074, 0.000798501, 0.000538129, 49.9517, -16.5484, 0, 0.00105036, 0.67431, 20.9716, 94.4809, 0.930959, 10.0539, 38.6604, -0.000596132, -0.000212656, 0.00143676, -0.000242133, -0.000242133, -0.000242133
9124, 1,0.00102051, 0.00054229, 0.000361529, 64.102, 34.2112, 0.00474093, 298.028, -99.3414, 0, 0.00101656, 0.00156149, 0.00104047, 98.2174, -32.8039, 0, 0.00101546, 0.000482472, 0.000324868, 30.2054, -10.0536, 0, 0.00101508, 0.352528, 17.737, 80.3222, 0.456798, 6.58546, 23.1185, -0.000509804, -0.000188076, 0.00123003, -0.000149639, -0.000149639, -0.000149639
9125, 1,0.00177515, 0.00045849, 0.000306318, 111.374, 28.9181, 0.00510706, 321.045, -107.006, 0, 0.00112167, 0.00223143, 0.00148649, 140.135, -46.6819, 0, 0.00112057, 0.00132042, 0.000882053, 82.7234, -27.4976, 0, 0.00112022, 0.662176, 23.5841, 115.799, 0.887482, 15.3892, 66.216, -0.000722316, -0.000277915, 0.00175759, -0.000415917, -0.000415917, -0.000415917
9126, 1,0.00149874, 0.000478164, 0.00032001, 94.0751, 30.1446, 0.00488815, 307.367, -102.53, 0, 0.00108632, 0.00197289, 0.00131634, 123.97, -41.315, 0, 0.00108524, 0.00102833, 0.000690959, 64.4147, -21.338, 0, 0.00108489, 0.859817, 22.4093, 100.676, 1.15521, 13.0061, 49.8528, -0.000633524, -0.00021989, 0.00152369, -0.000313138, -0.000313138, -0.000313138
9127, 1,0.00121312, 0.000493912, 0.000330271, 76.1185, 31.1494, 0.0046535, 292.6, -97.5953, 0, 0.00105102, 0.00170308, 0.00113632, 107.038, -35.7071, 0, 0.00104996, 0.000728498, 0.000492184, 45.515, -15.0309, 0, 0.00104961, 0.661423, 19.6096, 86.8503, 0.931885, 9.23324, 34.9277, -0.000549126, -0.000192002, 0.0013204, -0.000218193, -0.000218193, -0.000218193
9128, 1,0.000920149, 0.000506804, 0.000337933, 57.7781, 31.9716, 0.00440262, 276.727, -92.2059, 0, 0.00101573, 0.00142548, 0.00095001, 89.6495, -29.9287, 0, 0.0010147, 0.000418355, 0.000282652, 26.1538, -8.68044, 0, 0.00101435, 0.340173, 16.4082, 73.0376, 0.451544, 5.81433, 19.7755, -0.000464758, -0.000168828, 0.00111909, -0.000128076, -0.000128076, -0.000128076
9129, 1,0.00166048, 0.000425552, 0.000284397, 104.144, 26.8387, 0.00472438, 296.947, -98.9305, 0, 0.0011209, 0.00208378, 0.00138867, 130.826, -43.5473, 0, 0.00111989, 0.00123874, 0.000828129, 77.5704, -25.7546, 0, 0.00111957, 0.644178, 22.106, 107.892, 0.870349, 14.4651, 61.9283, -0.000673313, -0.00025725, 0.00163707, -0.000388795, -0.000388795, -0.000388795
9130, 1,0.00138809, 0.000444062, 0.000297374, 87.0921, 27.9911, 0.00451672, 283.983, -94.6983, 0, 0.00108557, 0.00182783, 0.00122018, 114.821, -38.2321, 0, 0.00108458, 0.000952377, 0.000640984, 59.6101, -19.6987, 0, 0.00108425, 0.840137, 20.9381, 92.9182, 1.1463, 12.1117, 45.838, -0.000585389, -0.000199939, 0.00140558, -0.000287493, -0.000287493, -0.000287493
9131, 1,0.00110754, 0.000458931, 0.000307065, 69.4532, 28.9407, 0.00429699, 270.155, -90.0794, 0, 0.00105026, 0.00156207, 0.00104277, 98.145, -32.7149, 0, 0.00104928, 0.000659087, 0.000446735, 41.1111, -13.5192, 0, 0.00104895, 0.644911, 18.137, 79.3627, 0.928495, 8.35033, 31.2789, -0.00050235, -0.000173588, 0.00120666, -0.000194439, -0.000194439, -0.000194439
9132, 1,0.000820079, 0.000471375, 0.000314382, 51.4705, 29.735, 0.00406497, 255.463, -85.0803, 0, 0.00101493, 0.00128979, 0.000859793, 81.1003, -27.06, 0, 0.00101397, 0.000354757, 0.000240903, 22.1259, -7.31085, 0, 0.00101365, 0.326104, 14.9749, 65.8791, 0.444417, 4.98737, 16.5008, -0.000419852, -0.000151641, 0.00101046, -0.000106611, -0.000106611, -0.000106611
9133, 1,0.00154618, 0.000392674, 0.000262517, 96.9391, 24.7625, 0.00434158, 272.84, -90.8499, 0, 0.00112004, 0.00193656, 0.0012912, 121.546, -40.4225, 0, 0.00111913, 0.00115737, 0.000774424, 72.4398, -24.0187, 0, 0.00111883, 0.624328, 20.5168, 100.126, 0.851136, 13.4699, 57.7351, -0.000624502, -0.000238858, 0.00151917, -0.000361829, -0.000361829, -0.000361829
9134, 1,0.00127795, 0.000410034, 0.000274784, 80.1413, 25.8418, 0.00414546, 260.609, -86.8703, 0, 0.00108473, 0.00168333, 0.00112442, 105.707, -35.1609, 0, 0.00108382, 0.000876919, 0.000591401, 54.8355, -18.0667, 0, 0.00108352, 0.8186, 19.36, 85.304, 1.1342, 11.1522, 41.9138, -0.000537476, -0.000182198, 0.0012901, -0.000262033, -0.000262033, -0.000262033
9135, 1,0.00100244, 0.000424022, 0.000283903, 62.8176, 26.7363, 0.00394078, 247.729, -82.5698, 0, 0.00104939, 0.00142155, 0.000949583, 89.2833, -29.7332, 0, 0.00104849, 0.000590336, 0.000401862, 36.7431, -12.0137, 0, 0.00104819, 0.627235, 16.5645, 72.0079, 0.922492, 7.41123, 27.7075, -0.000455766, -0.000157217, 0.00109533, -0.00017084, -0.00017084, -0.00017084
9136, 1,0.000720274, 0.000435983, 0.000290861, 45.1769, 27.5005, 0.00372736, 234.203, -77.9559, 0, 0.00101408, 0.00115434, 0.000769794, 72.5659, -24.1974, 0, 0.00101319, 0.000291871, 0.000199836, 18.1284, -5.9445, 0, 0.00101289, 0.310824, 13.4465, 58.835, 0.435588, 4.1099, 13.288, -0.000375069, -0.00013632, 0.00090391, -8.5235E-05, -8.5235E-05, -8.5235E-05
9137, 1,0.00143223, 0.000359849, 0.000240673, 89.759, 22.689, 0.00395878, 248.733, -82.7698, 0, 0.00111926, 0.00178974, 0.00119404, 112.292, -37.3066, 0, 0.00111843, 0.0010763, 0.000720932, 67.3307, -22.2893, 0, 0.00111816, 0.60296, 18.8257, 92.4912, 0.829884, 12.4093, 53.6288, -0.000575862, -0.000222548, 0.00140367, -0.000335007, -0.000335007, -0.000335007
9138, 1,0.00116834, 0.000376079, 0.000252239, 73.2232, 23.6968, 0.00377447, 237.251, -79.0471, 0, 0.00108395, 0.00153939, 0.0010291, 96.6285, -32.1006, 0, 0.00108313, 0.000801992, 0.000542251, 50.0928, -16.4419, 0, 0.00108285, 0.795675, 17.6842, 77.822, 1.11943, 10.1331, 38.0731, -0.000489766, -0.000166485, 0.00117703, -0.000236741, -0.000236741, -0.000236741
9139, 1,0.000897906, 0.000389191, 0.00026079, 56.2139, 24.5363, 0.0035849, 225.321, -75.0639, 0, 0.00104861, 0.00128156, 0.000856813, 80.4536, -26.7607, 0, 0.00104779, 0.0005224, 0.000357723, 32.4181, -10.5136, 0, 0.00104751, 0.60748, 14.8986, 64.7759, 0.913324, 6.42014, 24.2073, -0.00040937, -0.000142748, 0.000986242, -0.000147393, -0.000147393, -0.000147393
9140, 1,0.000620815, 0.00040064, 0.000267378, 38.8989, 25.2684, 0.0033898, 212.941, -70.827, 0, 0.00101329, 0.00101919, 0.000680052, 64.0473, -21.3392, 0, 0.00101248, 0.000230186, 0.000159931, 14.1796, -4.58025, 0, 0.0010122, 0.293336, 11.8275, 51.8966, 0.424539, 3.18481, 10.1314, -0.0003304, -0.000122762, 0.000799311, -6.39412E-05, -6.39412E-05, -6.39412E-05
9141, 1,0.00131865, 0.000327081, 0.000218869, 82.6033, 20.6182, 0.00357618, 224.635, -74.6894, 0, 0.0011184, 0.00164334, 0.00109721, 103.066, -34.1983, 0, 0.00111767, 0.000995542, 0.00066767, 62.2434, -20.5657, 0, 0.00111742, 0.579617, 17.0401, 84.9751, 0.806483, 11.2883, 49.6022, -0.000527381, -0.000208162, 0.00129037, -0.000308319, -0.000308319, -0.000308319
9142, 1,0.00105926, 0.000342185, 0.000229732, 66.3375, 21.5554, 0.00340372, 213.908, -71.2296, 0, 0.00108309, 0.00139598, 0.000934191, 87.5836, -29.0502, 0, 0.00108235, 0.000727637, 0.000493588, 45.3833, -14.8233, 0, 0.0010821, 0.77127, 15.9198, 70.4595, 1.10192, 9.06, 34.3081, -0.000442241, -0.000152603, 0.00106613, -0.000211608, -0.000211608, -0.000211608
9143, 1,0.000793964, 0.000354423, 0.000237716, 49.6437, 22.34, 0.00322921, 202.925, -67.5628, 0, 0.00104775, 0.00114208, 0.000764452, 71.6545, -23.7971, 0, 0.00104701, 0.000455484, 0.000314537, 28.1454, -9.01859, 0, 0.00104675, 0.586507, 13.1501, 57.6547, 0.901514, 5.38311, 20.7712, -0.000363141, -0.00012997, 0.000879155, -0.000124085, -0.000124085, -0.000124085
9144, 1,0.000521753, 0.000365328, 0.000243919, 32.6374, 23.0381, 0.0030522, 191.676, -63.6965, 0, 0.00101245, 0.000884315, 0.000590563, 55.5431, -18.4861, 0, 0.00101171, 0.00017074, 0.000122245, 10.3217, -3.21846, 0, 0.00101145, 0.275391, 10.1295, 45.0534, 0.412244, 2.21828, 7.02487, -0.000285823, -0.000110752, 0.000696437, -4.27141E-05, -4.27141E-05, -4.27141E-05
9145, 1,0.00120544, 0.000294368, 0.000197104, 75.4728, 18.5501, 0.00319389, 200.555, -66.6127, 0, 0.00111764, 0.00149736, 0.0010007, 93.8679, -31.098, 0, 0.001117, 0.000915106, 0.000614645, 57.1787, -18.848, 0, 0.00111678, 0.555396, 15.1711, 77.5673, 0.781629, 10.1137, 45.6486, -0.000479044, -0.000195488, 0.00117906, -0.000281757, -0.000281757, -0.000281757
9146, 1,0.00095078, 0.000308356, 0.000207264, 59.4874, 19.4175, 0.0030333, 190.585, -63.4172, 0, 0.0010823, 0.00125317, 0.000839761, 78.5744, -26.0087, 0, 0.00108165, 0.000653956, 0.000445517, 40.7119, -13.2107, 0, 0.00108142, 0.745413, 14.075, 63.2058, 1.0818, 7.93832, 30.612, -0.000394888, -0.000140387, 0.000957218, -0.000186622, -0.000186622, -0.000186622
9147, 1,0.000690754, 0.000319723, 0.000214683, 43.1124, 20.1474, 0.00287383, 180.546, -60.064, 0, 0.001047, 0.00100318, 0.000672579, 62.8881, -20.8408, 0, 0.00104634, 0.000389965, 0.000272687, 23.9426, -7.52792, 0, 0.00104611, 0.56383, 11.3258, 50.6329, 0.887117, 4.30468, 17.392, -0.000317064, -0.000118728, 0.000773875, -0.0001009, -0.0001009, -0.0001009
9148, 1,0.000423307, 0.000330052, 0.000220487, 26.398, 20.8095, 0.00271469, 170.411, -56.5602, 0, 0.00101171, 0.000749801, 0.00050141, 47.0544, -15.6359, 0, 0.00101104, 0.000116337, 8.95829E-05, 6.67691, -1.85796, 0, 0.00101081, 0.255564, 8.35792, 38.2944, 0.398027, 1.21389, 3.96197, -0.000241334, -0.000100156, 0.000595114, -2.15496E-05, -2.15496E-05, -2.15496E-05
9149, 1,0.00109262, 0.000261719, 0.000175386, 68.3679, 16.485, 0.00281209, 176.499, -58.5378, 0, 0.00111674, 0.00135182, 0.000904551, 84.6974, -28.004, 0, 0.00111619, 0.000835007, 0.000561883, 52.1373, -17.1354, 0, 0.00111599, 0.529979, 13.2276, 70.2546, 0.755242, 8.89145, 41.7595, -0.000430832, -0.000184334, 0.0010695, -0.000255305, -0.000255305, -0.000255305
9150, 1,0.000842972, 0.000274585, 0.000184831, 52.6759, 17.2829, 0.00266324, 167.284, -55.6113, 0, 0.00108144, 0.00111099, 0.00074586, 69.6023, -22.9757, 0, 0.00108087, 0.000581071, 0.000398174, 36.0845, -11.6036, 0, 0.00108067, 0.718888, 12.1602, 56.0481, 1.05967, 6.77423, 26.9769, -0.000347681, -0.000129625, 0.000850044, -0.000161765, -0.000161765, -0.000161765
9151, 1,0.000588499, 0.000285085, 0.00019169, 36.6306, 17.9585, 0.00251878, 158.186, -52.5703, 0, 0.00104615, 0.000864956, 0.000581293, 54.1594, -17.8925, 0, 0.00104556, 0.00032648, 0.000232817, 19.8401, -6.04154, 0, 0.00104536, 0.540178, 9.43705, 43.7003, 0.870253, 3.19104, 14.0633, -0.000271131, -0.00010881, 0.000670193, -7.78355E-05, -7.78355E-05, -7.78355E-05
9152, 1,0.000325922, 0.000294811, 0.000197079, 20.1945, 18.5829, 0.00237748, 149.158, -49.4219, 0, 0.00101086, 0.000615786, 0.000412737, 38.5858, -12.7895, 0, 0.00101026, 7.44111E-05, 6.93867E-05, 3.62095, -0.498847, 0, 0.00101006, 0.235438, 6.52321, 31.6097, 0.382792, 0.17722, 0.936528, -0.000196908, -9.07846E-05, 0.000495139, -4.29897E-07, -4.29897E-07, -4.29897E-07
9153, 1,0.000980207, 0.000229139, 0.000153722, 61.2899, 14.4232, 0.00243102, 152.482, -50.4674, 0, 0.00111597, 0.00120674, 0.000808794, 75.556, -24.9156, 0, 0.00111551, 0.000755266, 0.000509415, 47.1204, -15.4273, 0, 0.00111534, 0.503732, 11.2194, 63.0237, 0.727563, 7.6276, 37.9267, -0.000382723, -0.000174495, 0.000961446, -0.000228952, -0.000228952, -0.000228952
9154, 1,0.000736012, 0.000240879, 0.000162442, 45.9114, 15.1519, 0.00229369, 144.008, -47.8069, 0, 0.00108068, 0.000969568, 0.000652628, 60.6737, -19.9501, 0, 0.00108019, 0.000509223, 0.000351801, 31.5127, -10.0014, 0, 0.00108002, 0.69082, 10.1841, 48.9755, 1.03499, 5.57331, 23.3958, -0.000300622, -0.000120136, 0.000744411, -0.000137039, -0.000137039, -0.000137039
9155, 1,0.000487618, 0.000250512, 0.000168739, 30.2171, 15.7732, 0.00216421, 135.849, -45.0781, 0, 0.00104538, 0.000727614, 0.000490813, 45.4765, -14.9505, 0, 0.00104487, 0.000266154, 0.000196062, 15.892, -4.55877, 0, 0.00104469, 0.51554, 7.49207, 36.8438, 0.851343, 2.04741, 10.7776, -0.000225318, -0.000100038, 0.00056788, -5.48707E-05, -5.48707E-05, -5.48707E-05
9156, 1,0.000230784, 0.000259603, 0.000173696, 14.065, 16.3579, 0.00204086, 127.93, -42.28, 0, 0.00101009, 0.000482584, 0.000324857, 30.1467, -9.94561, 0, 0.00100956, 5.61734E-05, 7.28719E-05, 1.8026, 0.859418, 0, 0.00100938, 0.214588, 4.63383, 24.9884, 0.366267, -0.886842, -2.05768, -0.00015254, -8.24615E-05, 0.000396312, 2.06478E-05, 2.06478E-05, 2.06478E-05
9157, 1,0.000868295, 0.000196658, 0.000132139, 54.2433, 12.3658, 0.00205129, 128.527, -42.3945, 0, 0.00111508, 0.00106223, 0.000713541, 66.4492, -21.8319, 0, 0.00111471, 0.000675948, 0.000457312, 42.1318, -13.7232, 0, 0.00111456, 0.476544, 9.156, 55.8631, 0.698492, 6.32822, 34.143, -0.000334707, -0.000165778, 0.000854685, -0.00020269, -0.00020269, -0.00020269
9158, 1,0.00063015, 0.00020724, 0.000140097, 39.2064, 13.0245, 0.00192476, 120.765, -40.0059, 0, 0.0010798, 0.000829097, 0.00056027, 51.7976, -16.9316, 0, 0.0010794, 0.000438758, 0.00030676, 27.0137, -8.40375, 0, 0.00107925, 0.662558, 8.15789, 41.9744, 1.00869, 4.34208, 19.8605, -0.000253678, -0.000111697, 0.000640059, -0.000112419, -0.000112419, -0.000112419
9159, 1,0.000388946, 0.000216002, 0.000145832, 23.9113, 13.5915, 0.00181042, 113.542, -37.5772, 0, 0.00104454, 0.000591551, 0.000401546, 36.8575, -12.0144, 0, 0.0010441, 0.000211004, 0.00016445, 12.1967, -3.07915, 0, 0.00104395, 0.490184, 5.50095, 30.052, 0.83039, 0.879426, 7.52763, -0.000179613, -9.22106E-05, 0.000466716, -3.19984E-05, -3.19984E-05, -3.19984E-05
9160, 1,0.000141847, 0.000224432, 0.000150339, 8.15132, 14.1349, 0.00170544, 106.756, -35.1357, 0, 0.00100928, 0.000351011, 0.000238594, 21.7639, -7.10382, 0, 0.00100882, 5.91199E-05, 9.75421E-05, 1.04328, 2.21719, 0, 0.00100867, 0.193349, 2.69882, 18.4193, 0.348844, -1.9731, -5.02732, -0.000108213, -7.50061E-05, 0.000298429, 4.16976E-05, 4.16976E-05, 4.16976E-05
9161, 1,0.000756998, 0.000164324, 0.000110684, 47.235, 10.3153, 0.00167335, 104.676, -34.3464, 0, 0.0011143, 0.000918451, 0.000618962, 57.3853, -18.7523, 0, 0.00111402, 0.000597137, 0.000405668, 37.1767, -12.0229, 0, 0.0011139, 0.449336, 7.04825, 48.7594, 0.668872, 5.00018, 30.3997, -0.000286756, -0.000157964, 0.000748961, -0.000176498, -0.000176498, -0.000176498
9162, 1,0.000525899, 0.000173687, 0.000117816, 32.5858, 10.9015, 0.00155719, 97.5502, -32.1573, 0, 0.00107903, 0.000689995, 0.000469209, 42.9941, -13.9186, 0, 0.00107871, 0.000370301, 0.000263679, 22.618, -6.80994, 0, 0.00107859, 0.633148, 6.08951, 35.0333, 0.980268, 3.08582, 16.3637, -0.000206843, -0.000104134, 0.000536782, -8.79021E-05, -8.79021E-05, -8.79021E-05
9163, 1,0.00029433, 0.000181568, 0.000122981, 17.8007, 11.414, 0.00145842, 91.3151, -30.0695, 0, 0.00104377, 0.000457675, 0.000314408, 28.3445, -9.08335, 0, 0.00104342, 0.000164456, 0.000141408, 8.92156, -1.60222, 0, 0.00104329, 0.464117, 3.47271, 23.3132, 0.807512, -0.307378, 4.30652, -0.000134001, -8.51424E-05, 0.000366488, -9.20906E-06, -9.20906E-06, -9.20906E-06
9164, 1,7.52236E-05, 0.000189307, 0.000127019, 3.21208, 11.9142, 0.00137212, 85.6775, -27.9873, 0, 0.00100853, 0.000223735, 0.00015661, 13.5304, -4.26364, 0, 0.00100814, 7.1888E-05, 0.000132037, 0.709085, 3.575, 0, 0.00100802, 0.171689, 0.727266, 11.892, 0.330286, -3.07655, -7.97872, -6.39209E-05, -6.82386E-05, 0.000201295, 6.27226E-05, 6.27226E-05, 6.27226E-05
9165, 1,0.000646557, 0.00013224, 8.94627E-05, 40.2781, 8.27645, 0.00129981, 80.9173, -26.1416, 0, 0.00111342, 0.000775705, 0.000525382, 48.3808, -15.6756, 0, 0.00111323, 0.000518999, 0.000354657, 32.2648, -10.3255, 0, 0.00111313, 0.421464, 4.90585, 41.6995, 0.638171, 3.64955, 26.6887, -0.000238862, -0.000150848, 0.000644037, -0.000150373, -0.000150373, -0.000150373
9166, 1,0.000424198, 0.000140257, 9.56303E-05, 26.0967, 8.78476, 0.00119399, 74.5236, -24.2835, 0, 0.00107814, 0.000553052, 0.000380255, 34.3032, -10.9112, 0, 0.00107791, 0.000304903, 0.000223622, 18.3775, -5.21981, 0, 0.00107781, 0.60382, 3.99056, 28.1393, 0.950553, 1.81128, 12.8976, -0.000160094, -9.72222E-05, 0.000434333, -6.34695E-05, -6.34695E-05, -6.34695E-05
9167, 1,0.000208154, 0.000147227, 0.000100207, 12.0979, 9.24131, 0.00110937, 69.2167, -22.5481, 0, 0.00104291, 0.000328237, 0.000231662, 20.0434, -6.1569, 0, 0.00104263, 0.000131022, 0.000131461, 6.2848, -0.12769, 0, 0.00104253, 0.437701, 1.41777, 16.6152, 0.782905, -1.50702, 1.10718, -8.84702E-05, -7.86258E-05, 0.000266966, 1.35057E-05, 1.35057E-05, 1.35057E-05
9168, 1,6.02016E-05, 0.000154242, 0.000103749, 1.10053, 9.69671, 0.00104277, 64.7789, -20.8302, 0, 0.00100767, 0.000113121, 9.12799E-05, 5.9411, -1.42442, 0, 0.00100735, 8.86498E-05, 0.000170532, 0.531003, 4.93322, 0, 0.00100725, 0.149988, -1.27124, 5.39451, 0.310923, -4.19184, -10.9187, -1.96457E-05, -6.19653E-05, 0.000104688, 8.37358E-05, 8.37358E-05, 8.37358E-05
9169, 1,0.000537402, 0.000100649, 6.87221E-05, 33.3969, 6.26093, 0.00093639, 57.5075, -17.7581, 0, 0.00111262, 0.000634594, 0.000433412, 39.4686, -12.6012, 0, 0.00111253, 0.000441803, 0.000304558, 27.4123, -8.63062, 0, 0.00111245, 0.393656, 2.73927, 34.6706, 0.606957, 2.28288, 23.002, -0.000191001, -0.000144212, 0.000539665, -0.000124299, -0.000124299, -0.000124299
9170, 1,0.000327025, 0.000107042, 7.36249E-05, 19.8362, 6.67864, 0.000838323, 51.8534, -16.4066, 0, 0.00107738, 0.000420065, 0.000295213, 25.8133, -7.90773, 0, 0.00107723, 0.000244436, 0.000188466, 14.3824, -3.63241, 0, 0.00107716, 0.573848, 1.87006, 21.2793, 0.919212, 0.524267, 9.45374, -0.00011342, -9.07705E-05, 0.000332483, -3.9115E-05, -3.9115E-05, -3.9115E-05
9171, 1,0.000140771, 0.000113039, 7.7568E-05, 7.31127, 7.07642, 0.000766423, 47.3919, -15.0085, 0, 0.00104218, 0.000210043, 0.000160123, 12.2798, -3.23392, 0, 0.00104198, 0.000113539, 0.00013745, 4.4119, 1.34519, 0, 0.00104191, 0.410777, -0.655099, 9.94609, 0.756623, -2.71427, -2.07793, -4.30057E-05, -7.24765E-05, 0.000167934, 3.61579E-05, 3.61579E-05, 3.61579E-05
9172, 1,7.79778E-05, 0.000119278, 8.05691E-05, 0.567064, 7.48415, 0.000722451, 44.2902, -13.6552, 0, 0.00100695, 6.80338E-05, 9.14674E-05, 1.64787, 1.41457, 0, 0.0010067, 0.000107309, 0.000210907, 0.420989, 6.29218, 0, 0.00100662, 0.128157, -3.28764, -1.08424, 0.290721, -5.31363, -13.8536, 2.46215E-05, -5.60003E-05, 8.40135E-06, 0.000104741, 0.000104741, 0.000104741
9173, 1,0.000430407, 7.02034E-05, 4.91338E-05, 26.6396, 4.30006, 0.000596362, 35.2572, -9.43705, 0, 0.00111174, 0.000496397, 0.000344341, 30.7168, -9.52763, 0, 0.00111174, 0.000366057, 0.000255884, 22.6486, -6.93733, 0, 0.00111169, 0.365541, 0.558204, 27.6591, 0.574973, 0.906157, 19.3309, -0.000143163, -0.000137849, 0.000435602, -9.82676E-05, -9.82676E-05, -9.82676E-05
9174, 1,0.000238754, 7.43083E-05, 5.20399E-05, 14.018, 4.59598, 0.00049951, 29.9744, -8.51574, 0, 0.00107651, 0.000295549, 0.000218603, 17.7476, -4.90778, 0, 0.00107644, 0.000192087, 0.000161404, 10.7833, -2.0474, 0, 0.00107639, 0.54353, -0.261369, 14.4412, 0.886314, -0.768933, 6.02482, -6.68124E-05, -8.45674E-05, 0.000231006, -1.48339E-05, -1.48339E-05, -1.48339E-05
9175, 1,0.000107004, 7.91548E-05, 5.52162E-05, 4.15552, 4.9266, 0.00044161, 26.4157, -7.46062, 0, 0.0010413, 0.000124695, 0.0001214, 6.10749, -0.313992, 0, 0.00104118, 0.00011018, 0.000157557, 3.1994, 2.81675, 0, 0.00104113, 0.383587, -2.73518, 3.29357, 0.728741, -3.92305, -5.25593, 2.4024E-06, -6.64798E-05, 6.91618E-05, 5.87529E-05, 5.87529E-05, 5.87529E-05
9176, 1,0.000105148, 8.45298E-05, 5.75917E-05, 0.368647, 5.28219, 0.000429939, 25.0853, -6.44829, 0, 0.00100611, 8.83555E-05, 0.000157059, 0.706565, 4.25379, 0, 0.00100593, 0.000127343, 0.000252477, 0.345818, 7.65219, 0, 0.00100588, 0.106424, -5.31227, -7.55551, 0.269908, -6.43656, -16.7899, 6.8892E-05, -5.01482E-05, -8.77791E-05, 0.000125748, 0.000125748, 0.000125748
9177, 1,0.000327484, 4.30716E-05, 3.28936E-05, 20.1091, 2.49853, 0.000334208, 16.7853, -1.23594, 0, 0.00111092, 0.00036415, 0.00026121, 22.2847, -6.45472, 0, 0.00111101, 0.000292758, 0.000209636, 18.0293, -5.24557, 0, 0.00111099, 0.337746, -1.62627, 20.6527, 0.542785, -0.473536, 15.6675, -9.53322E-05, -0.000131549, 0.000331621, -7.2267E-05, -7.2267E-05, -7.2267E-05
9178, 1,0.000168657, 4.30641E-05, 3.18172E-05, 9.07963, 2.5855, 0.000237126, 11.7444, -0.662503, 0, 0.00107572, 0.00019179, 0.000162729, 10.6979, -1.91033, 0, 0.00107574, 0.000152354, 0.000146946, 7.78441, -0.464184, 0, 0.00107572, 0.513194, -2.39394, 7.61175, 0.852356, -2.06233, 2.60253, -2.02499E-05, -7.84057E-05, 0.000129656, 9.39258E-06, 9.39258E-06, 9.39258E-06
9179, 1,0.000106053, 4.61572E-05, 3.37262E-05, 2.54459, 2.81982, 0.000204239, 9.56431, 0.0965682, 0, 0.00104053, 0.000101437, 0.000144745, 2.92076, 2.60371, 0, 0.00104049, 0.000116449, 0.00018729, 2.4277, 4.28728, 0, 0.00104046, 0.356231, -4.81286, -3.35449, 0.699584, -5.12746, -8.43396, 4.77675E-05, -6.04372E-05, -2.95776E-05, 8.13015E-05, 8.13015E-05, 8.13015E-05
9180, 1,0.00013556, 5.04285E-05, 3.52385E-05, 0.268514, 3.11177, 0.00023934, 10.6633, 0.80447, 0, 0.00100535, 0.000125377, 0.000239345, 0.431328, 7.09351, 0, 0.00100525, 0.000148569, 0.000294957, 0.290701, 9.01328, 0, 0.00100521, 0.0850014, -7.3352, -14.0303, 0.248653, -7.5548, -19.7337, 0.000113174, -4.42086E-05, -0.000184067, 0.000146759, 0.000146759, 0.000146759
9181, 1,0.000233168, -2.77283E-05, 2.69621E-05, 14.0348, -1.38696, 0.000258036, 7.17261, 6.83257, 0, 0.00111003, 0.000245843, 0.000192035, 14.5683, -3.38111, 0, 0.00111021, 0.000223936, 0.00016786, 13.6608, -3.5544, 0, 0.00111021, 0.310386, -3.80408, 13.637, 0.510497, -1.85005, 12.0028, -4.74843E-05, -0.000125106, 0.000227468, -4.62808E-05, -4.62808E-05, -4.62808E-05
9182, 1,0.000129495, 1.9219E-05, 1.87122E-05, 5.58812, 0.932692, 0.000198978, 4.12972, 7.13179, 0, 0.00107485, 0.000133603, 0.000152416, 5.79656, 1.08529, 0, 0.00107496, 0.000128944, 0.000148807, 5.5417, 1.11767, 0, 0.00107496, 0.483033, -4.51748, 0.778581, 0.817493, -3.34983, -0.820664, 2.62827E-05, -7.20818E-05, 2.82031E-05, 3.35743E-05, 3.35743E-05, 3.35743E-05
9183, 1,0.000122893, 1.78716E-05, 1.68774E-05, 1.74408, 0.940717, 0.000189825, 3.2672, 7.65258, 0, 0.00103969, 0.000120544, 0.000210442, 1.70391, 5.51981, 0, 0.00103973, 0.000128531, 0.000222846, 1.91892, 5.75736, 0, 0.00103972, 0.329115, -6.8782, -10.0103, 0.669435, -6.32187, -11.6197, 9.31076E-05, -5.41453E-05, -0.000128515, 0.000103818, 0.000103818, 0.000103818
9184, 1,0.000167464, 1.9926E-05, 1.6435E-05, 0.208834, 1.11631, 0.00022753, 4.67363, 8.11736, 0, 0.00100456, 0.000166771, 0.000326014, 0.308946, 9.93444, 0, 0.00100453, 0.0001701, 0.000337812, 0.248233, 10.376, 0, 0.00100452, 0.0641648, -9.34681, -20.5207, 0.22719, -8.66303, -22.6922, 0.000157485, -3.79798E-05, -0.000280692, 0.00016779, 0.00016779, 0.00016779
9185, 1,0.000158259, -4.84927E-05, 3.67285E-05, 8.90745, -2.89223, 0.000315024, 3.94697, 14.7602, 0, 0.00110922, 0.000161445, 0.000156791, 8.46126, -0.305955, 0, 0.00110949, 0.000163865, 0.000134836, 9.74463, -1.86337, 0, 0.00110952, 0.283284, -5.96464, 6.59922, 0.478047, -3.21655, 8.32862, 3.91061E-07, -0.000118312, 0.000122912, -2.03021E-05, -2.03021E-05, -2.03021E-05
9186, 1,0.000122636, -3.75313E-05, 2.74735E-05, 3.57347, -2.30511, 0.000281349, 2.26113, 14.8576, 0, 0.00107407, 0.000128392, 0.000195081, 3.32676, 4.07989, 0, 0.00107425, 0.000121311, 0.000166452, 4.01851, 2.69866, 0, 0.00107428, 0.453229, -6.62159, -6.0713, 0.781978, -4.62497, -4.25297, 7.28009E-05, -6.53886E-05, -7.35878E-05, 5.77241E-05, 5.77241E-05, 5.77241E-05
9187, 1,0.00014766, -3.26943E-05, 2.28458E-05, 1.29918, -2.00956, 0.00027627, 1.73707, 15.2051, 0, 0.00103893, 0.000154664, 0.000291149, 1.16702, 8.43513, 0, 0.00103904, 0.000144074, 0.000261882, 1.56595, 7.22748, 0, 0.00103906, 0.30225, -8.92133, -16.6863, 0.638359, -7.50053, -14.8203, 0.000138436, -4.74003E-05, -0.000227881, 0.000126311, 0.000126311, 0.000126311
9188, 1,0.000200117, -2.84136E-05, 2.03118E-05, 0.169647, -1.7438, 0.000301986, 2.70844, 15.5001, 0, 0.00100382, 0.000209873, 0.000414421, 0.243465, 12.7777, 0, 0.00100386, 0.00019173, 0.000380897, 0.21394, 11.7411, 0, 0.00100388, 0.0436463, -11.3381, -27.0386, 0.20531, -9.75631, -25.6724, 0.000201835, -3.12668E-05, -0.000377878, 0.000188847, 0.000188847, 0.000188847
9189, 1,0.000119139, -7.71211E-05, 5.43124E-05, 5.36436, -4.7704, 0.000410839, 2.67453, 22.5409, 0, 0.00110832, 0.000132789, 0.000177322, 4.81904, 2.77145, 0, 0.00110867, 0.000120216, 0.000118241, 6.58614, -0.171981, 0, 0.00110873, 0.256817, -8.09746, -0.473713, 0.445743, -4.56659, 4.63679, 4.83086E-05, -0.000110959, 1.77183E-05, 5.67954E-06, 5.67954E-06, 5.67954E-06
9190, 1,0.000135846, -6.79709E-05, 4.70346E-05, 2.48025, -4.27866, 0.000387621, 1.58184, 22.5123, 0, 0.00107321, 0.000151864, 0.000266443, 2.18349, 7.07442, 0, 0.00107348, 0.000125238, 0.000195675, 3.02285, 4.27942, 0, 0.00107353, 0.423622, -8.69633, -12.9505, 0.745724, -5.88179, -7.7022, 0.000119316, -5.81214E-05, -0.000175949, 8.18501E-05, 8.18501E-05, 8.18501E-05
9191, 1,0.000176198, -6.39867E-05, 4.36365E-05, 1.02279, -4.03483, 0.000383262, 1.178, 22.7535, 0, 0.00103809, 0.000194344, 0.000377421, 0.879207, 11.3505, 0, 0.00103828, 0.000161753, 0.000303088, 1.30901, 8.6982, 0, 0.00103833, 0.275763, -10.9325, -23.3948, 0.606515, -8.65784, -18.0433, 0.00018377, -4.00018E-05, -0.000327908, 0.000148796, 0.000148796, 0.000148796
9192, 1,0.000233156, -6.06618E-05, 4.10148E-05, 0.142956, -3.82599, 0.000401625, 1.87262, 22.9573, 0, 0.00100297, 0.000253834, 0.000503735, 0.206478, 15.6236, 0, 0.00100309, 0.00021344, 0.000424178, 0.18551, 13.1089, 0, 0.00100313, 0.0237843, -13.2991, -33.5953, 0.18329, -10.8291, -28.6808, 0.000246239, -2.38682E-05, -0.000475847, 0.00020994, 0.00020994, 0.00020994
9193, 1,0.000116594, -0.000108283, 7.43896E-05, 3.39373, -6.76909, 0.000517829, 2.04528, 30.1735, 0, 0.0011075, 0.00014617, 0.000239936, 3.05384, 5.85192, 0, 0.00110794, 9.98248E-05, 0.000124921, 4.40347, 1.52021, 0, 0.00110801, 0.231045, -10.192, -7.59479, 0.413725, -5.89345, 0.919107, 9.62836E-05, -0.000102841, -8.83479E-05, 3.16752E-05, 3.16752E-05, 3.16752E-05
9194, 1,0.000158937, -0.000100584, 6.85261E-05, 1.84957, -6.3555, 0.000500035, 1.24946, 30.0943, 0, 0.00107241, 0.000186922, 0.000349419, 1.58828, 10.0692, 0, 0.00107276, 0.000136413, 0.000232175, 2.36212, 5.86011, 0, 0.00107283, 0.394737, -10.7311, -19.8712, 0.709197, -7.11382, -11.1757, 0.000165849, -5.00684E-05, -0.000279118, 0.000105968, 0.000105968, 0.000105968
9195, 1,0.000206747, -9.7499E-05, 6.59887E-05, 0.836702, -6.1656, 0.000496395, 0.911379, 30.2972, 0, 0.0010373, 0.000236582, 0.000466259, 0.704556, 14.2664, 0, 0.00103757, 0.000180822, 0.000345722, 1.11474, 10.1697, 0, 0.00103764, 0.250212, -12.9018, -30.1477, 0.574471, -9.78791, -21.2958, 0.000229131, -3.17501E-05, -0.000428824, 0.000171289, 0.000171289, 0.000171289
9196, 1,0.00026643, -9.50976E-05, 6.3796E-05, 0.125967, -6.01298, 0.000510927, 1.43679, 30.4871, 0, 0.00100225, 0.000298308, 0.000593621, 0.187357, 18.4721, 0, 0.00100244, 0.000235235, 0.000467641, 0.161894, 14.479, 0, 0.00100251, 0.00519096, -15.2195, -40.2019, 0.161751, -11.8751, -31.7236, 0.00029071, -1.55829E-05, -0.000574813, 0.000231081, 0.000231081, 0.000231081
9197, 1,0.000134488, -0.000140446, 9.54312E-05, 2.35654, -8.81584, 0.000628346, 1.69302, 37.6611, 0, 0.00110661, 0.000178003, 0.000321064, 2.16961, 8.93602, 0, 0.00110712, 9.97292E-05, 0.000151924, 3.0689, 3.21344, 0, 0.00110722, 0.206042, -12.2375, -14.7766, 0.382121, -7.19018, -2.83227, 0.000144336, -9.37538E-05, -0.000195521, 5.77007E-05, 5.77007E-05, 5.77007E-05
9198, 1,0.000186951, -0.000133854, 9.05553E-05, 1.45332, -8.46369, 0.000614331, 1.0566, 37.6101, 0, 0.00107156, 0.000227078, 0.000437533, 1.2374, 13.0654, 0, 0.00107199, 0.000151958, 0.000273082, 1.90624, 7.44138, 0, 0.00107209, 0.36659, -12.7165, -26.8462, 0.672618, -8.31533, -14.6814, 0.000212424, -4.10339E-05, -0.000383332, 0.0001301, 0.0001301, 0.0001301
9199, 1,0.000238481, -0.000131572, 8.86697E-05, 0.704166, -8.32295, 0.000612099, 0.769458, 37.8358, 0, 0.00103648, 0.000280253, 0.000556534, 0.590816, 17.1834, 0, 0.00103683, 0.00020084, 0.000389354, 0.963238, 11.6425, 0, 0.00103693, 0.225735, -14.8189, -36.9571, 0.542371, -10.8848, -24.5851, 0.000274536, -2.24422E-05, -0.000530858, 0.000193804, 0.000193804, 0.000193804
9200, 1,0.000299897, -0.000130047, 8.69969E-05, 0.118007, -8.22472, 0.000625181, 1.18311, 38.0847, 0, 0.00100146, 0.000343154, 0.000683958, 0.181171, 21.3247, 0, 0.00100173, 0.000257135, 0.000511305, 0.141477, 15.8528, 0, 0.00100182, -0.0126647, -17.0896, -46.8719, 0.140185, -12.8894, -34.8093, 0.000335263, -6.2039E-06, -0.000675022, 0.000252281, 0.000252281, 0.000252281
9201, 1,0.000161569, -0.00017312, 0.000116951, 1.77148, -10.8875, 0.000739801, 1.48347, 45.0183, 0, 0.00110576, 0.000217593, 0.000410019, 1.67434, 12.0244, 0, 0.00110635, 0.000111554, 0.000190881, 2.27125, 4.90817, 0, 0.00110648, 0.181745, -14.2234, -22.0315, 0.35083, -8.45017, -6.62518, 0.000192476, -8.34792E-05, -0.000304038, 8.37614E-05, 8.37614E-05, 8.37614E-05
9202, 1,0.000217634, -0.000167421, 0.000112817, 1.1861, -10.5862, 0.000729236, 0.938999, 45.0643, 0, 0.00107071, 0.000269842, 0.000528302, 1.012, 16.0633, 0, 0.00107122, 0.00017019, 0.000316724, 1.5782, 9.02348, 0, 0.00107134, 0.339197, -14.642, -33.8871, 0.635985, -9.47986, -18.2266, 0.000259051, -3.08132E-05, -0.000488815, 0.000154251, 0.000154251, 0.000154251
9203, 1,0.000270972, -0.000165879, 0.000111485, 0.606053, -10.4913, 0.000729146, 0.687921, 45.3777, 0, 0.00103568, 0.00032488, 0.000647759, 0.514189, 20.1027, 0, 0.00103611, 0.000221545, 0.000433728, 0.842162, 13.1172, 0, 0.00103623, 0.202182, -16.6748, -43.8353, 0.510298, -11.9432, -27.9186, 0.000320001, -1.18904E-05, -0.000634233, 0.000216357, 0.000216357, 0.000216357
9204, 1,0.000333534, -0.000165212, 0.000110356, 0.119628, -10.4469, 0.000742406, 1.02649, 45.7395, 0, 0.00100069, 0.000388289, 0.00077468, 0.184912, 24.1824, 0, 0.00100104, 0.000279149, 0.00055518, 0.123738, 17.2309, 0, 0.00100116, -0.0296095, -18.9003, -53.6174, 0.118844, -13.8667, -37.945, 0.000379918, 4.44822E-06, -0.000776689, 0.000273556, 0.000273556, 0.000273556
9205, 1,0.000193042, -0.000206114, 0.000138758, 1.41155, -12.9752, 0.00085145, 1.38462, 52.2407, 0, 0.00110495, 0.000260933, 0.000502808, 1.36997, 15.1182, 0, 0.00110562, 0.000129512, 0.000236011, 1.77334, 6.60506, 0, 0.00110577, 0.158249, -16.1403, -29.3725, 0.320077, -9.66745, -10.4678, 0.000240719, -7.18046E-05, -0.000414146, 0.000109868, 0.000109868, 0.000109868
9206, 1,0.000249909, -0.000201167, 0.000135213, 0.996935, -12.7172, 0.000844502, 0.849376, 52.5048, 0, 0.00106992, 0.000314154, 0.000620664, 0.860139, 19.0635, 0, 0.0010705, 0.000190156, 0.000362153, 1.33388, 10.6067, 0, 0.00107064, 0.313106, -16.4975, -41.0061, 0.599802, -10.6012, -21.8186, 0.000305751, -1.92005E-05, -0.0005958, 0.00017844, 0.00017844, 0.00017844
9207, 1,0.000303987, -0.000200319, 0.000134379, 0.532474, -12.6658, 0.000847157, 0.648049, 52.924, 0, 0.00103492, 0.000370239, 0.000739701, 0.463644, 23.024, 0, 0.00103542, 0.00024278, 0.000478685, 0.74416, 14.5936, 0, 0.00103557, 0.180337, -18.4585, -50.7937, 0.478775, -12.9565, -31.3032, 0.000365545, 1.08766E-07, -0.000739168, 0.000238958, 0.000238958, 0.000238958
9208, 1,0.000367353, -0.00020051, 0.00013381, 0.130467, -12.6756, 0.000861638, 0.932388, 53.4371, 0, 0.000999965, 0.000433698, 0.000865782, 0.197825, 27.046, 0, 0.00100039, 0.000301294, 0.000599286, 0.108285, 18.6138, 0, 0.00100053, -0.045483, -20.6413, -60.4511, 0.0978158, -14.8011, -41.1382, 0.000424691, 1.65749E-05, -0.000880043, 0.000294917, 0.000294917, 0.000294917
9209, 1,0.000226903, -0.000239343, 0.000160766, 1.17784, -15.0748, 0.000964676, 1.34365, 59.4863, 0, 0.00110403, 0.000306384, 0.000597798, 1.17458, 18.2173, 0, 0.00110477, 0.000150751, 0.000284466, 1.44711, 8.30409, 0, 0.00110494, 0.135775, -17.9761, -36.8115, 0.289917, -10.8344, -14.3678, 0.000289081, -5.84935E-05, -0.000526097, 0.000136034, 0.000136034, 0.000136034
9210, 1,0.000283218, -0.000235042, 0.000157705, 0.858544, -14.8545, 0.000960566, 0.78739, 59.9591, 0, 0.00106906, 0.000359518, 0.000714114, 0.755676, 22.0668, 0, 0.00106972, 0.0002113, 0.000408816, 1.14668, 12.1916, 0, 0.00106989, 0.288236, -18.273, -48.2158, 0.564105, -11.6733, -25.4655, 0.000352538, -5.99256E-06, -0.00070452, 0.000202676, 0.000202676, 0.000202676
9211, 1,0.000337394, -0.000234856, 0.000157332, 0.47702, -14.8448, 0.000965968, 0.637678, 60.4805, 0, 0.0010341, 0.00041617, 0.000832222, 0.432324, 25.9487, 0, 0.00103468, 0.000264458, 0.000524137, 0.663855, 16.0728, 0, 0.00103484, 0.159996, -20.1608, -57.8452, 0.447717, -13.9194, -34.7466, 0.000411183, 1.37459E-05, -0.00084589, 0.00026162, 0.00026162, 0.00026162
9212, 1,0.000401341, -0.000235908, 0.000157332, 0.147594, -14.9091, 0.000982209, 0.880351, 61.163, 0, 0.000999161, 0.000479346, 0.000957237, 0.217903, 29.916, 0, 0.000999667, 0.000323566, 0.000643617, 0.0953221, 20.002, 0, 0.000999828, -0.060421, -22.3034, -67.3842, 0.0769943, -15.6874, -44.3954, 0.000469589, 3.03513E-05, -0.000985278, 0.000316368, 0.000316368, 0.000316368
9213, 1,0.00026223, -0.000272763, 0.000182931, 1.01835, -17.1844, 0.00108064, 1.27835, 66.9365, 0, 0.00110322, 0.000353171, 0.000694227, 1.04416, 21.3235, 0, 0.00110404, 0.000173916, 0.000334888, 1.22201, 10.0064, 0, 0.00110424, 0.113834, -19.7232, -44.3613, 0.260131, -11.9462, -18.3331, 0.000337568, -4.33463E-05, -0.000640126, 0.000162262, 0.000162262, 0.000162262
9214, 1,0.00031726, -0.000269027, 0.000180276, 0.755316, -16.9971, 0.00107795, 0.781995, 67.4201, 0, 0.00106827, 0.000405707, 0.000808404, 0.684439, 25.074, 0, 0.00106901, 0.000233278, 0.000456377, 0.999994, 13.7786, 0, 0.0010692, 0.2645, -19.9582, -55.5282, 0.528746, -12.6895, -29.1749, 0.000399417, 9.01634E-06, -0.000815193, 0.000226961, 0.000226961, 0.000226961
9215, 1,0.000372446, -0.000269472, 0.000180335, 0.436253, -17.0274, 0.00108539, 0.642218, 68.0554, 0, 0.00103334, 0.000462522, 0.000925209, 0.416583, 28.8773, 0, 0.00103399, 0.000286546, 0.000570029, 0.597881, 17.5549, 0, 0.00103418, 0.141168, -21.7723, -65.0007, 0.417144, -14.8263, -38.2556, 0.000456921, 2.92028E-05, -0.000954598, 0.000284346, 0.000284346, 0.000284346
9216, 1,0.000435498, -0.000271391, 0.000180915, 0.170032, -17.1466, 0.00110371, 0.863015, 68.9015, 0, 0.000998433, 0.000525223, 0.00104904, 0.245007, 32.7922, 0, 0.000999018, 0.000345964, 0.000688173, 0.10546, 21.395, 0, 0.000999203, -0.0737998, -23.8755, -74.4274, 0.056906, -16.5192, -47.7228, 0.00051462, 4.59724E-05, -0.00109259, 0.000337916, 0.000337916, 0.000337916
9217, 1,0.000298595, -0.00030635, 0.000205231, 0.908287, -19.3029, 0.0011984, 1.23136, 74.4751, 0, 0.00110231, 0.000400941, 0.000791737, 0.958391, 24.4372, 0, 0.00110321, 0.000198367, 0.000386626, 1.06211, 11.7124, 0, 0.00110344, 0.0928684, -21.3705, -52.0341, 0.230941, -12.996, -22.3721, 0.000386192, -2.61305E-05, -0.00075648, 0.00018856, 0.00018856, 0.00018856
9218, 1,0.000351912, -0.000303112, 0.000202919, 0.677856, -19.1447, 0.0011964, 0.795281, 74.9216, 0, 0.00106739, 0.000452616, 0.000903413, 0.637942, 28.0862, 0, 0.00106821, 0.00025588, 0.000504631, 0.883133, 15.3685, 0, 0.00106843, 0.241642, -21.5442, -62.9559, 0.493618, -13.6446, -32.9545, 0.000446396, 2.60205E-05, -0.000928045, 0.000251299, 0.000251299, 0.000251299
9219, 1,0.000407815, -0.000304167, 0.000203392, 0.408723, -19.2135, 0.00120541, 0.666597, 75.6419, 0, 0.0010325, 0.000509208, 0.00101861, 0.415036, 31.8104, 0, 0.00103324, 0.00030907, 0.000616358, 0.544098, 19.0405, 0, 0.00103345, 0.123655, -23.2825, -72.2724, 0.386842, -15.6709, -41.8373, 0.000502762, 4.66916E-05, -0.00106551, 0.000307137, 0.000307137, 0.000307137
9220, 1,0.000469825, -0.000306962, 0.00020456, 0.196299, -19.3885, 0.00122586, 0.870455, 76.6478, 0, 0.000997649, 0.000571329, 0.0011412, 0.277632, 35.6765, 0, 0.000998313, 0.000368489, 0.000732963, 0.128215, 22.7942, 0, 0.000998521, -0.086662, -25.3494, -81.5934, 0.0367787, -17.2915, -51.1278, 0.00055979, 6.36205E-05, -0.0012022, 0.000359561, 0.000359561, 0.000359561
9221, 1,0.000335736, -0.000340097, 0.000227655, 0.832313, -21.4299, 0.00131691, 1.22653, 82.0044, 0, 0.00110149, 0.000449461, 0.000890119, 0.904037, 27.5596, 0, 0.00110246, 0.000223738, 0.000439318, 0.946054, 13.4228, 0, 0.00110272, 0.0725096, -22.9088, -59.8424, 0.202167, -13.9779, -26.4927, 0.000434962, -6.65339E-06, -0.000875384, 0.000214935, 0.000214935, 0.000214935
9222, 1,0.000387293, -0.000337296, 0.000225634, 0.621248, -21.2973, 0.00131542, 0.813821, 82.4514, 0, 0.00106659, 0.000500146, 0.000999058, 0.612054, 31.104, 0, 0.00106747, 0.000278969, 0.000553452, 0.789645, 16.9619, 0, 0.00106772, 0.219756, -23.0218, -70.51, 0.458721, -14.5329, -36.8115, 0.000493486, 4.52153E-05, -0.00104329, 0.000275698, 0.000275698, 0.000275698
9223, 1,0.000443313, -0.000338935, 0.000226497, 0.392493, -21.4031, 0.00132584, 0.702295, 83.2396, 0, 0.00103172, 0.00055614, 0.00111237, 0.424246, 34.7493, 0, 0.00103253, 0.00033211, 0.000663145, 0.500497, 20.5302, 0, 0.00103277, 0.106888, -24.6839, -79.6709, 0.356484, -16.4488, -45.4981, 0.000548712, 6.63699E-05, -0.00117882, 0.000329994, 0.000329994, 0.000329994
9224, 1,0.00050432, -0.000342614, 0.000228265, 0.226509, -21.6342, 0.00134844, 0.897382, 84.3962, 0, 0.000996893, 0.000617654, 0.00123371, 0.315765, 38.5682, 0, 0.000997635, 0.000391138, 0.000777981, 0.153653, 24.199, 0, 0.000997867, -0.0983443, -26.7143, -88.8919, 0.0171385, -17.9981, -54.616, 0.000605103, 8.34858E-05, -0.00131429, 0.000381306, 0.000381306, 0.000381306
9225, 1,0.000373478, -0.000373994, 0.000250193, 0.782206, -23.565, 0.0014358, 1.23917, 89.5343, 0, 0.00110057, 0.000498579, 0.000989234, 0.87374, 30.6913, 0, 0.00110162, 0.000249811, 0.000492748, 0.862117, 15.1382, 0, 0.0011019, 0.0527067, -24.329, -67.7976, 0.173756, -14.8859, -30.7026, 0.000483896, 1.52614E-05, -0.000997042, 0.0002414, 0.0002414, 0.0002414
9226, 1,0.000423672, -0.000371569, 0.000248413, 0.581797, -23.4543, 0.00143465, 0.8439, 89.9795, 0, 0.00106572, 0.000548144, 0.00109522, 0.602537, 34.1283, 0, 0.00106669, 0.00030245, 0.000602741, 0.714869, 18.5593, 0, 0.00106696, 0.198427, -24.3826, -78.2008, 0.42383, -15.3491, -40.7525, 0.000540689, 6.67648E-05, -0.00116111, 0.000300161, 0.000300161, 0.000300161
9227, 1,0.000478947, -0.000373774, 0.000249654, 0.388452, -23.596, 0.00144655, 0.748501, 90.8411, 0, 0.00103091, 0.000603294, 0.00120646, 0.444211, 37.6935, 0, 0.0010318, 0.000355651, 0.000710374, 0.467355, 22.0239, 0, 0.00103206, 0.0917852, -25.9664, -87.206, 0.326686, -17.154, -49.2444, 0.000594781, 8.84298E-05, -0.00129472, 0.000352928, 0.000352928, 0.000352928
9228, 1,0.000538986, -0.000378352, 0.000252036, 0.260203, -23.8842, 0.00147145, 0.940734, 92.1496, 0, 0.000996122, 0.000664202, 0.00132658, 0.358766, 41.4684, 0, 0.000996941, 0.000413914, 0.000823234, 0.181283, 25.6101, 0, 0.000997198, -0.109161, -27.9616, -96.3343, -0.00232734, -18.6341, -58.194, 0.000650566, 0.00010575, -0.00142908, 0.000403154, 0.000403154, 0.000403154
9229, 1,0.000411763, -0.000408049, 0.000272851, 0.753205, -25.7087, 0.00155499, 1.27142, 97.0564, 0, 0.00109974, 0.000548262, 0.00108906, 0.863916, 33.833, 0, 0.00110087, 0.000276484, 0.00054682, 0.802918, 16.859, 0, 0.00110117, 0.0337496, -25.6204, -75.9124, 0.145917, -15.7132, -35.0096, 0.000532999, 3.98332E-05, -0.00112169, 0.000267958, 0.000267958, 0.000267958
9230, 1,0.00046073, -0.000405946, 0.000271269, 0.559091, -25.6164, 0.00155403, 0.889734, 97.4949, 0, 0.00106495, 0.000596568, 0.0011919, 0.609606, 37.1592, 0, 0.00106599, 0.000326283, 0.000652462, 0.656582, 20.1608, 0, 0.00106628, 0.1779, -25.6149, -86.0405, 0.388853, -16.0861, -44.7853, 0.000588008, 9.09012E-05, -0.00128174, 0.000324685, 0.000324685, 0.000324685
9231, 1,0.000514748, -0.000408697, 0.000272869, 0.394968, -25.7928, 0.00156759, 0.81062, 98.4422, 0, 0.00103013, 0.000650681, 0.00130093, 0.472841, 40.6452, 0, 0.0010311, 0.000379565, 0.000757987, 0.443383, 23.523, 0, 0.00103139, 0.0768047, -27.1221, -94.8904, 0.296168, -17.7817, -53.0835, 0.000640968, 0.000113055, -0.00141342, 0.00037593, 0.00037593, 0.00037593
9232, 1,0.000573833, -0.000414179, 0.000275878, 0.297679, -26.1386, 0.00159498, 0.999557, 99.9157, 0, 0.000995376, 0.000710981, 0.00141984, 0.40676, 44.3775, 0, 0.000996274, 0.000436824, 0.000868737, 0.211454, 27.0279, 0, 0.000996554, -0.118999, -29.0825, -103.931, -0.0214108, -19.1941, -61.868, 0.00069619, 0.000130596, -0.00154674, 0.000425113, 0.000425113, 0.000425113
9233, 1,0.000450458, -0.00044225, 0.000295615, 0.737797, -27.8604, 0.00167394, 1.31223, 104.552, 0, 0.00109883, 0.000598381, 0.00118949, 0.866732, 36.9868, 0, 0.00110004, 0.000303606, 0.000601403, 0.760173, 18.5867, 0, 0.00110036, 0.0141709, -26.7774, -84.1971, 0.117387, -16.4561, -39.4214, 0.000582269, 6.71866E-05, -0.00124948, 0.000294603, 0.000294603, 0.000294603
9234, 1,0.000498062, -0.000440418, 0.000294193, 0.548791, -27.7836, 0.00167298, 0.935965, 104.982, 0, 0.00106407, 0.000645274, 0.00128899, 0.626734, 40.1989, 0, 0.00106519, 0.000351439, 0.000703063, 0.610989, 21.7679, 0, 0.0010655, 0.156027, -26.7141, -94.0387, 0.352232, -16.7405, -48.9155, 0.000635434, 0.000117736, -0.00140532, 0.000349257, 0.000349257, 0.000349257
9235, 1,0.000550685, -0.000443694, 0.000296139, 0.411276, -27.9932, 0.00168902, 0.894366, 106.038, 0, 0.0010293, 0.000698256, 0.00139571, 0.508476, 43.6045, 0, 0.00103035, 0.000403701, 0.000805887, 0.429285, 25.0276, 0, 0.00103066, 0.0614659, -28.144, -102.731, 0.264633, -18.3278, -57.0198, 0.000687264, 0.00014038, -0.00153505, 0.000398996, 0.000398996, 0.000398996
9236, 1,0.000608859, -0.000450091, 0.000299786, 0.337718, -28.3972, 0.00171935, 1.07442, 107.713, 0, 0.00099458, 0.000757984, 0.00151347, 0.45815, 47.2967, 0, 0.000995556, 0.000459871, 0.000914492, 0.243235, 28.453, 0, 0.00099586, -0.128859, -30.0703, -111.691, -0.0409219, -19.6745, -65.6436, 0.00074197, 0.00015817, -0.00166746, 0.000447179, 0.000447179, 0.000447179
9237, 1,0.000489554, -0.000476607, 0.000318496, 0.738769, -30.0204, 0.00179169, 1.35746, 111.965, 0, 0.00109802, 0.000648953, 0.00129053, 0.886205, 40.1502, 0, 0.0010993, 0.000331119, 0.000656446, 0.734797, 20.3194, 0, 0.00109965, -0.00476453, -27.785, -92.6608, 0.0889682, -17.1039, -43.9434, 0.000631707, 9.7546E-05, -0.00138061, 0.000321332, 0.000321332, 0.000321332
9238, 1,0.000535623, -0.000475001, 0.0003172, 0.552201, -29.9562, 0.00179119, 1.0033, 112.391, 0, 0.00106328, 0.000694285, 0.0013865, 0.656038, 43.2466, 0, 0.00106447, 0.000377486, 0.000754316, 0.578559, 23.3802, 0, 0.00106482, 0.133572, -27.6698, -102.204, 0.313998, -17.3066, -53.1481, 0.000682968, 0.000147456, -0.00153202, 0.000373877, 0.000373877, 0.000373877
9239, 1,0.000586826, -0.000478774, 0.000319473, 0.438102, -30.1975, 0.00181167, 1.04105, 113.625, 0, 0.00102854, 0.000746087, 0.00149087, 0.553301, 46.5707, 0, 0.00102966, 0.000428053, 0.000854086, 0.4265, 26.5374, 0, 0.00102999, 0.0464472, -29.0209, -110.738, 0.232291, -18.7856, -61.059, 0.000733673, 0.000170622, -0.00165983, 0.000422125, 0.000422125, 0.000422125
9240, 1,0.000644101, -0.000486093, 0.000323771, 0.382231, -30.6603, 0.00184534, 1.17896, 115.574, 0, 0.000993863, 0.000805253, 0.00160754, 0.51522, 50.2256, 0, 0.000994918, 0.000483085, 0.000960543, 0.278114, 29.8855, 0, 0.000995246, -0.137405, -30.9144, -119.625, -0.0598067, -20.0691, -69.5276, 0.000787928, 0.000188688, -0.00179146, 0.000469374, 0.000469374, 0.000469374
9241, 1,0.000528921, -0.000511122, 0.000341491, 0.745987, -32.1891, 0.00190481, 1.30539, 119.216, 0, 0.00109708, 0.000699851, 0.00139209, 0.911598, 43.3272, 0, 0.00109843, 0.000358879, 0.000711835, 0.7168, 22.0599, 0, 0.00109881, -0.0249265, -28.6387, -101.318, 0.0596435, -17.6533, -48.5861, 0.000681326, 0.000131033, -0.00151526, 0.000348158, 0.000348158, 0.000348158
9242, 1,0.000573401, -0.000509682, 0.00034028, 0.568882, -32.1341, 0.00190901, 1.13974, 119.674, 0, 0.00106238, 0.000743571, 0.00148442, 0.695987, 46.302, 0, 0.00106365, 0.000403721, 0.000805872, 0.560414, 24.9964, 0, 0.00106402, 0.111695, -28.4748, -110.543, 0.276434, -17.7783, -57.4874, 0.00073063, 0.000180178, -0.00166198, 0.000398568, 0.000398568, 0.000398568
9243, 1,0.00062311, -0.000513938, 0.000342868, 0.470954, -32.406, 0.00193758, 1.33825, 121.216, 0, 0.00102774, 0.000794103, 0.00158638, 0.60175, 49.5472, 0, 0.00102893, 0.000452546, 0.000902555, 0.433919, 28.0546, 0, 0.00102929, 0.0313731, -29.7518, -118.921, 0.199595, -19.1549, -65.2085, 0.000780241, 0.000203854, -0.00178793, 0.000445362, 0.000445362, 0.000445362
9244, 1,0.000679577, -0.000522193, 0.000347834, 0.429513, -32.9283, 0.00197429, 1.32461, 123.566, 0, 0.000993077, 0.000852802, 0.00170207, 0.575767, 53.167, 0, 0.000994212, 0.000506486, 0.00100692, 0.314785, 31.3273, 0, 0.000994565, -0.146044, -31.6094, -127.745, -0.0790711, -20.3747, -73.528, 0.000834081, 0.000222315, -0.00191896, 0.000491707, 0.000491707, 0.000491707
9245, 1,0.000568535, -0.000545797, 0.000364604, 0.763183, -34.3664, 0.00201265, 1.18304, 126.234, 0, 0.00109627, 0.000751062, 0.00149407, 0.946544, 46.5087, 0, 0.00109769, 0.000386843, 0.000767464, 0.709886, 23.7996, 0, 0.00109809, -0.0389843, -29.3318, -110.155, 0.0365431, -18.1003, -53.335, 0.000731135, 0.000167672, -0.00165333, 0.000375094, 0.000375094, 0.000375094
9246, 1,0.00061141, -0.000544475, 0.000363444, 0.59716, -34.3175, 0.00203393, 1.70149, 126.853, 0, 0.00106161, 0.000793161, 0.00158285, 0.745556, 49.3661, 0, 0.00106294, 0.00043012, 0.00085778, 0.556271, 26.6186, 0, 0.00106334, 0.0952463, -29.1188, -119.075, 0.24333, -18.1497, -61.9494, 0.000778535, 0.000216153, -0.00179558, 0.000423439, 0.000423439, 0.000423439
9247, 1,0.000659691, -0.000549197, 0.000366337, 0.516243, -34.6192, 0.00207091, 1.95251, 128.856, 0, 0.00102696, 0.000842462, 0.00168242, 0.662509, 52.5303, 0, 0.00102824, 0.000477307, 0.000951426, 0.456007, 29.576, 0, 0.00102862, 0.022544, -30.322, -127.292, 0.171994, -19.4256, -69.4744, 0.000827042, 0.000240327, -0.0019196, 0.000468773, 0.000468773, 0.000468773
9248, 1,0.000715253, -0.000558384, 0.000371969, 0.478056, -35.2012, 0.0021084, 1.54857, 131.781, 0, 0.000992334, 0.000900593, 0.00179705, 0.638087, 56.1198, 0, 0.000993553, 0.000530046, 0.00105362, 0.351872, 32.7774, 0, 0.000993929, -0.15266, -32.149, -136.058, -0.0967475, -20.5875, -77.6481, 0.000880457, 0.000259189, -0.00205012, 0.000514208, 0.000514208, 0.000514208
9249, 1,0.000608575, -0.000580632, 0.000387835, 0.790438, -36.5524, 0.00213014, 1.50256, 133.272, 0, 0.00109539, 0.000802762, 0.00159674, 0.990462, 49.7009, 0, 0.00109688, 0.00041518, 0.000823577, 0.714652, 25.5444, 0, 0.00109731, -0.049182, -29.8663, -119.187, 0.0175265, -18.4498, -58.2008, 0.000781187, 0.000207651, -0.00179516, 0.000402189, 0.000402189, 0.000402189
9250, 1,0.000649576, -0.000579375, 0.000386686, 0.635462, -36.5068, 0.00217096, 2.76872, 134.134, 0, 0.00106075, 0.000842972, 0.00168171, 0.800992, 52.4372, 0, 0.00106216, 0.000456609, 0.000909964, 0.568608, 28.2433, 0, 0.00106258, 0.0885956, -29.6046, -127.796, 0.220324, -18.4233, -66.5268, 0.000826747, 0.000255355, -0.00193282, 0.000448554, 0.000448554, 0.000448554
9251, 1,0.000696426, -0.000584539, 0.000389864, 0.563286, -36.8367, 0.00221325, 2.85591, 136.685, 0, 0.00102613, 0.000891001, 0.00177886, 0.724009, 55.5235, 0, 0.00102748, 0.000502207, 0.00100062, 0.483022, 31.1043, 0, 0.00102789, 0.0201964, -30.7269, -135.864, 0.15028, -19.5931, -73.8702, 0.000874136, 0.000280208, -0.00205514, 0.000492417, 0.000492417, 0.000492417
9252, 1,0.000751232, -0.000594686, 0.000396191, 0.533822, -37.4797, 0.00225059, 1.88391, 140.361, 0, 0.000991527, 0.000948739, 0.00189256, 0.708948, 59.0809, 0, 0.000992836, 0.000553855, 0.00110067, 0.394456, 34.2327, 0, 0.000993236, -0.154849, -32.5208, -144.567, -0.110935, -20.6989, -81.8884, 0.000927059, 0.000299536, -0.00218512, 0.000536867, 0.000536867, 0.000536867
9253, 1,0.000649348, -0.000615638, 0.000411189, 0.837568, -38.7481, 0.002265, 2.25944, 140.826, 0, 0.00109455, 0.000855269, 0.0017004, 1.05484, 52.9051, 0, 0.00109611, 0.000444176, 0.00088044, 0.738922, 27.2955, 0, 0.00109657, -0.0597877, -30.2236, -128.432, -0.00253088, -18.6864, -63.1975, 0.00083141, 0.000251565, -0.00194129, 0.000429353, 0.000429353, 0.000429353
9254, 1,0.000688222, -0.000614399, 0.000410021, 0.688133, -38.7024, 0.00232022, 3.99696, 141.974, 0, 0.00105994, 0.00089334, 0.00178133, 0.869663, 55.5232, 0, 0.00106143, 0.000483498, 0.000962716, 0.597938, 29.8798, 0, 0.00106187, 0.0792563, -29.9214, -136.728, 0.193234, -18.5932, -71.2394, 0.000875134, 0.000298262, -0.00207419, 0.000473764, 0.000473764, 0.000473764
9255, 1,0.000733238, -0.000619978, 0.000413465, 0.613485, -39.059, 0.00236473, 3.87459, 144.942, 0, 0.00102536, 0.000939658, 0.00187557, 0.788547, 58.5166, 0, 0.0010268, 0.000527149, 0.00104994, 0.515206, 32.6302, 0, 0.00102723, 0.0308661, -30.9631, -144.618, 0.140055, -19.6573, -78.3734, 0.000921511, 0.000323471, -0.00219435, 0.000516269, 0.000516269, 0.000516269
9256, 1,0.000787402, -0.000631083, 0.000420479, 0.587581, -39.7637, 0.00240128, 2.196, 149.512, 0, 0.00099077, 0.000997106, 0.00198843, 0.777572, 62.0532, 0, 0.000992177, 0.000577825, 0.00114797, 0.434795, 35.695, 0, 0.000992601, -0.158158, -32.7256, -153.276, -0.126223, -20.7083, -86.2505, 0.000973821, 0.000343416, -0.00232399, 0.00055962, 0.00055962, 0.00055962
9257, 1,0.00069065, -0.000650806, 0.000434649, 0.890544, -40.9537, 0.00241774, 3.11488, 149.385, 0, 0.00109364, 0.00090837, 0.00180494, 1.12568, 56.1348, 0, 0.00109529, 0.000473627, 0.000937949, 0.768065, 29.0656, 0, 0.00109578, -0.0821017, -30.3964, -137.926, -0.0347835, -18.8029, -68.3592, 0.000881791, 0.000299819, -0.00209233, 0.000456562, 0.000456562, 0.000456562
9258, 1,0.00072718, -0.000649541, 0.000433433, 0.746061, -40.9048, 0.00248139, 5.07436, 150.769, 0, 0.00105905, 0.000944042, 0.00188138, 0.943867, 58.6191, 0, 0.00106064, 0.000510681, 0.00101578, 0.632589, 31.5217, 0, 0.0010611, 0.0625291, -30.0566, -145.863, 0.157352, -18.6459, -76.0765, 0.000923531, 0.000345105, -0.00221967, 0.000498883, 0.000498883, 0.000498883
9259, 1,0.000770402, -0.000655524, 0.000437143, 0.667597, -41.287, 0.00252528, 4.70951, 154.02, 0, 0.00102449, 0.000988707, 0.00197279, 0.857075, 61.5259, 0, 0.00102603, 0.000552401, 0.00109964, 0.551221, 34.169, 0, 0.00102648, 0.0267772, -31.0305, -153.574, 0.113755, -19.6195, -83.0012, 0.000968847, 0.00037043, -0.00233747, 0.000540002, 0.000540002, 0.000540002
9260, 1,0.000823741, -0.00066758, 0.000444847, 0.641321, -42.0524, 0.00256346, 2.4626, 159.456, 0, 0.000989963, 0.0010457, 0.00208462, 0.847647, 65.0276, 0, 0.000991481, 0.000601906, 0.00119543, 0.473346, 37.1574, 0, 0.000991929, -0.156963, -32.7614, -162.164, -0.138468, -20.6195, -90.7143, 0.00102073, 0.000390804, -0.00246655, 0.000582454, 0.000582454, 0.000582454
9261, 1,0.000732003, -0.000686137, 0.000458217, 0.949122, -43.1693, 0.00258771, 3.89267, 159.136, 0, 0.00109278, 0.000961585, 0.00190986, 1.20287, 59.3723, 0, 0.00109455, 0.000503063, 0.000995601, 0.801981, 30.8367, 0, 0.00109506, -0.0932217, -30.3747, -147.649, -0.0563438, -18.7899, -73.6639, 0.000932549, 0.000352198, -0.002248, 0.000484031, 0.000484031, 0.000484031
9262, 1,0.000766238, -0.000684808, 0.000456935, 0.795817, -43.1143, 0.00265381, 5.94786, 160.546, 0, 0.00105823, 0.000994877, 0.0019817, 1.01234, 61.7338, 0, 0.00105993, 0.000537935, 0.00106896, 0.656768, 33.1788, 0, 0.00106042, 0.0240821, -30.0183, -155.207, 0.0979309, -18.5928, -81.0415, 0.000971799, 0.000395773, -0.00236914, 0.000523774, 0.000523774, 0.000523774
9263, 1,0.000807802, -0.000691174, 0.000460896, 0.728523, -43.5203, 0.00269784, 5.40912, 164.038, 0, 0.00102369, 0.00103802, 0.00207031, 0.933412, 64.5407, 0, 0.00102534, 0.00057786, 0.00114952, 0.59299, 35.7106, 0, 0.00102582, 0.0164918, -30.9203, -162.718, 0.0793048, -19.473, -87.738, 0.00101617, 0.000421087, -0.00248437, 0.000563638, 0.000563638, 0.000563638
9264, 1,0.000860413, -0.000704189, 0.000469298, 0.691526, -44.3473, 0.00274352, 2.81724, 170.416, 0, 0.000989182, 0.00109467, 0.00218134, 0.914789, 68.0218, 0, 0.000990827, 0.00062627, 0.00124327, 0.507524, 38.6361, 0, 0.000991299, -0.172173, -32.6375, -171.256, -0.167593, -20.4431, -95.2976, 0.00106762, 0.000441818, -0.00261304, 0.000605211, 0.000605211, 0.000605211
9265, 1,0.000773136, -0.000721632, 0.000481911, 0.983606, -45.3936, 0.00277349, 4.64803, 169.92, 0, 0.00109181, 0.00101467, 0.00201488, 1.25859, 62.6439, 0, 0.00109371, 0.00053219, 0.0010531, 0.809575, 32.6383, 0, 0.00109425, -0.134901, -30.1899, -157.607, -0.110186, -18.6866, -79.1182, 0.00098322, 0.000408299, -0.00240786, 0.000511322, 0.000511322, 0.000511322
9266, 1,0.000805492, -0.000720198, 0.000480533, 0.880869, -45.3298, 0.00284237, 7.1105, 170.954, 0, 0.0010573, 0.00104597, 0.0020824, 1.11777, 64.8252, 0, 0.00105913, 0.000565329, 0.00112236, 0.715645, 34.8099, 0, 0.00105964, 0.0309398, -29.7634, -164.743, 0.0817157, -18.3956, -86.1159, 0.00102069, 0.000450324, -0.00252275, 0.000549209, 0.000549209, 0.000549209
9267, 1,0.000845917, -0.000726921, 0.000484726, 0.812619, -45.7581, 0.00289062, 6.56267, 174.725, 0, 0.00102281, 0.0010881, 0.00216857, 1.03672, 67.5706, 0, 0.00102459, 0.000603992, 0.00120001, 0.652954, 37.2663, 0, 0.00102509, -0.0193327, -30.6038, -172.089, 0.0163262, -19.1958, -92.6193, 0.00106323, 0.00047605, -0.00263557, 0.000586935, 0.000586935, 0.000586935
9268, 1,0.00089799, -0.000740882, 0.000493816, 0.803845, -46.646, 0.00294557, 3.56512, 182.242, 0, 0.00098831, 0.0011446, 0.00227902, 1.04575, 70.9919, 0, 0.000990096, 0.000651483, 0.00129191, 0.60138, 40.0893, 0, 0.000990592, -0.151159, -32.2603, -180.564, -0.162338, -20.0916, -100.014, 0.00111492, 0.000497587, -0.00276431, 0.00062832, 0.00062832, 0.00062832
9269, 1,0.000815094, -0.000757352, 0.000505772, 1.11384, -47.6305, 0.0029827, 5.85798, 181.58, 0, 0.00109086, 0.00106869, 0.00212123, 1.41068, 65.8524, 0, 0.00109291, 0.000562039, 0.00111161, 0.912263, 34.3699, 0, 0.00109347, -0.0412795, -29.7391, -167.777, -0.0290984, -18.3949, -84.6857, 0.00103577, 0.000468732, -0.00257291, 0.000540381, 0.000540381, 0.000540381
9270, 1,0.00084405, -0.000755721, 0.000504236, 0.882995, -47.5518, 0.00306527, 10.1672, 180.996, 0, 0.0010564, 0.00109645, 0.00218276, 1.14116, 68.0007, 0, 0.00105834, 0.000591936, 0.0011752, 0.691538, 36.5227, 0, 0.00105888, -0.0650386, -29.3944, -174.543, -0.0391501, -18.1611, -91.3679, 0.00106877, 0.000508143, -0.00268018, 0.000573755, 0.000573755, 0.000573755
9271, 1,0.000882287, -0.000762756, 0.000508631, 0.822409, -48.0003, 0.00312057, 9.7028, 185.101, 0, 0.00102194, 0.00113647, 0.00226568, 1.0664, 70.6017, 0, 0.00102384, 0.000628348, 0.00124923, 0.639886, 38.8205, 0, 0.00102437, -0.00292662, -30.1529, -181.649, 0.00593882, -18.8594, -97.6082, 0.00111146, 0.000533386, -0.00279031, 0.000611365, 0.000611365, 0.000611365
9272, 1,0.000933613, -0.000777752, 0.000518459, 0.756093, -48.9548, 0.00317247, 5.2855, 194.336, 0, 0.000987494, 0.00119266, 0.00237523, 1.01873, 74.062, 0, 0.000989423, 0.000674669, 0.00133884, 0.532472, 41.6362, 0, 0.000989944, -0.237407, -31.8217, -190.127, -0.264015, -19.755, -104.889, 0.00116155, 0.00055583, -0.002919, 0.000650661, 0.000650661, 0.000650661
9273, 1,0.000856518, -0.000793574, 0.000529992, 0.99206, -49.8981, 0.00323828, 9.16521, 193.362, 0, 0.00108987, 0.00112239, 0.00222752, 1.31357, 69.375, 0, 0.00109207, 0.000591133, 0.00116935, 0.760758, 36.3951, 0, 0.00109265, -0.397664, -29.3301, -178.397, -0.394027, -18.2181, -90.573, 0.00108375, 0.000532936, -0.00274225, 0.00056463, 0.00056463, 0.00056463
9274, 1,0.000885807, -0.000791486, 0.000528128, 1.27708, -49.789, 0.0033745, 18.2512, 189.76, 0, 0.00105553, 0.00115029, 0.00228625, 1.55486, 70.8814, 0, 0.00105757, 0.000621563, 0.00123077, 1.06125, 37.9282, 0, 0.00105814, 0.266389, -28.4492, -184.461, 0.274572, -17.4302, -96.6289, 0.00112128, 0.000572866, -0.00284415, 0.000602691, 0.000602691, 0.000602691
9275, 1,0.000925021, -0.000798802, 0.000532688, 1.22356, -50.2544, 0.0034247, 17.4282, 194.026, 0, 0.00102111, 0.00119135, 0.0023671, 1.48903, 73.5336, 0, 0.00102311, 0.000658888, 0.00130238, 1.01272, 40.2672, 0, 0.00102366, -0.0523064, -29.0977, -191.451, -0.0691281, -18.004, -102.729, 0.00115679, 0.000601183, -0.00295101, 0.000632795, 0.000632795, 0.000632795
9276, 1,0.000976734, -0.000814935, 0.000543338, 1.33086, -51.282, 0.00342998, 8.01755, 207.012, 0, 0.000986573, 0.00124837, 0.00247746, 1.61411, 76.7868, 0, 0.00098866, 0.000705178, 0.0013913, 1.08513, 42.8249, 0, 0.000989205, 0.0364726, -30.6091, -199.788, -0.00131624, -18.7349, -109.739, 0.00121037, 0.000624478, -0.00308068, 0.000675095, 0.000675095, 0.000675095
9277, 1,0.000907766, -0.00082979, 0.000554213, 2.27309, -52.1688, 0.00353185, 14.2079, 205.227, 0, 0.00108887, 0.001186, 0.00234603, 2.61261, 71.6215, 0, 0.00109124, 0.000629864, 0.001239, 2.01035, 37.1309, 0, 0.00109185, 1.41754, -27.1998, -189.082, 1.43281, -16.4032, -96.4223, 0.00115752, 0.00061285, -0.00293239, 0.000614908, 0.000614908, 0.000614908
9278, 1,0.000918357, -0.00082777, 0.000552253, 0.496477, -52.0531, 0.00384477, 38.6432, 192.212, 0, 0.00105477, 0.00119493, 0.00238049, 0.797167, 74.7797, 0, 0.00105678, 0.000641933, 0.00127658, 0.246629, 40.3434, 0, 0.00105737, -0.961428, -28.2197, -195.158, -1.01016, -17.4723, -102.548, 0.00115677, 0.000637522, -0.00300756, 0.000613683, 0.000613683, 0.000613683
9279, 1,0.000942724, -0.000834639, 0.000556681, 0.135416, -52.5013, 0.00398867, 45.4439, 192.188, 0, 0.00102044, 0.00122075, 0.00244739, 0.424393, 76.8916, 0, 0.00102235, 0.000665334, 0.00133528, -0.0946491, 42.1331, 0, 0.00102293, -0.278577, -29.1593, -201.237, -0.286501, -18.3147, -107.798, 0.00120513, 0.000651048, -0.00310372, 0.000657889, 0.000657889, 0.000657889
9280, 1,0.000997023, -0.000852287, 0.000568262, 0.174245, -53.6204, 0.00386543, 23.7651, 211.824, 0.00101629, 0.000985799, 0.00128047, 0.00256174, 0.429622, 80.4049, 4.24965E-07, 0.000987906, 0.000714075, 0.00142667, 0.0159304, 44.8992, 4.24965E-07, 0.000988475, -0.284018, -30.8868, -210.044, -0.342086, -19.253, -115.103, 0.00126085, 0.000675189, -0.00324059, 0.000700872, 0.000700872, 0.000700872
9281, 1,0.000924648, -0.000866283, 0.00057847, -1.55128, -54.4578, 0.00384909, 24.7325, 211.244, 0, 0.00108794, 0.00121514, 0.00240369, -1.18009, 78.4764, 0, 0.00109029, 0.000634311, 0.00124751, -1.86498, 42.459, 0, 0.00109093, -6.2567, -28.9134, -200.259, -6.24984, -18.3995, -102.728, 0.00110302, 0.000683852, -0.00306013, 0.000536252, 0.000536252, 0.000536252
9282, 1,0.000967205, -0.000862731, 0.000575793, 2.20502, -54.2593, 0.00468733, 51.6951, 196.609, 0.0178806, 0.00105387, 0.00125235, 0.00249134, 2.28027, 76.4363, 0, 0.00105596, 0.000683198, 0.00134413, 2.16947, 40.5157, 0, 0.00105657, 2.07966, -25.8133, -205.575, 2.0844, -15.4339, -108.198, 0.00124717, 0.000714272, -0.0032016, 0.000681946, 0.000681946, 0.000681946
9283, 1,0.00100178, -0.000870855, 0.000580442, 1.66506, -54.7738, 0.00502809, 46.2643, 202.756, 0.0309006, 0.00101944, 0.00128972, 0.00256391, 1.8766, 79.2883, 0, 0.00102155, 0.000714099, 0.0014054, 1.50793, 43.041, 0, 0.00102215, 1.09534, -26.3748, -212.585, 0.972812, -15.8714, -114.225, 0.00127238, 0.000748985, -0.00330779, 0.000699358, 0.000699358, 0.000699358
9284, 1,0.00105697, -0.000888542, 0.00059226, 0.338468, -55.9163, 0.00483093, 17.0187, 223.211, 0.0365008, 0.000984845, 0.00135295, 0.00265839, 0.652949, 84.6632, 0, 0.000987136, 0.000761004, 0.00147413, 0.0442338, 47.6158, 0, 0.000987729, -4.49246, -28.7115, -220.785, -4.53681, -17.4047, -120.906, 0.00123938, 0.00079276, -0.00340579, 0.000655481, 0.000655481, 0.000655481
9285, 1,0.0010577, -0.000902939, 0.000602902, 6.8436, -56.7645, 0.00527491, 21.1756, 221.835, 0.0503286, 0.00108686, 0.00135462, 0.00259957, 6.88702, 76.6031, 0, 0.00108953, 0.000761322, 0.00140068, 6.81883, 39.0717, 0, 0.0010902, 6.34426, -23.8587, -212.295, 6.30026, -13.8529, -109.662, 0.00134002, 0.000769921, -0.00335281, 0.000748461, 0.000748461, 0.000748461
9286, 1,0.000991285, -0.000898284, 0.000599598, 0.207188, -56.5061, 0.00589527, 33.1374, 214.275, 0.066955, 0.00105265, 0.00129071, 0.00256802, 0.531228, 81.5067, 0, 0.00105507, 0.000692185, 0.00137055, -0.0754166, 44.0967, 0, 0.00105571, -2.25862, -26.2055, -216.056, -2.23384, -16.2831, -113.773, 0.00123525, 0.000791355, -0.00334904, 0.000647129, 0.000647129, 0.000647129
9287, 1,0.00104191, -0.000907611, 0.000604818, 1.73272, -57.0773, 0.00635818, 30.5551, 215.534, 0.0858655, 0.00101836, 0.00134392, 0.0026611, 2.05831, 82.7217, 0, 0.00102073, 0.000739897, 0.00145203, 1.42977, 44.9894, 0, 0.00102136, -0.777487, -24.3846, -223.003, -0.997536, -14.3528, -119.618, 0.00128753, 0.000852075, -0.00348175, 0.000689135, 0.000689135, 0.000689135
9288, 1,0.00116042, -0.000925646, 0.000617187, 7.28977, -58.2529, 0.00646118, 15.2058, 226.804, 0.0978302, 0.000983983, 0.00146495, 0.00282338, 7.36515, 82.7442, 0, 0.000986496, 0.000856017, 0.00159342, 7.2377, 44.1684, 0, 0.000987113, 6.85172, -25.1376, -229.947, 6.81474, -14.3856, -124.934, 0.00144975, 0.000848309, -0.00364057, 0.000842021, 0.000842021, 0.000842021
9289, 1,0.00103833, -0.000939415, 0.000627243, 0.0595029, -59.0872, 0.00754354, 8.84784, 232.22, 0.142299, 0.00108561, 0.00135326, 0.00264483, 0.503785, 84.431, 0, 0.00108857, 0.000723449, 0.00139083, -0.357526, 45.3552, 0, 0.00108926, -5.49898, -23.9118, -223.882, -5.50082, -14.4925, -116.072, 0.00121275, 0.000908992, -0.00349164, 0.000597948, 0.000597948, 0.000597948
9290, 1,0.00107516, -0.000935892, 0.000624685, 3.63736, -58.8588, 0.00789199, 5.70177, 234.143, 0.158146, 0.00105124, 0.00138699, 0.00272625, 3.90992, 82.5894, 0, 0.00105422, 0.000763803, 0.00147896, 3.40648, 43.6989, 0, 0.00105489, 2.70452, -22.3248, -228.148, 2.5861, -13.0788, -120.604, 0.0013575, 0.00090343, -0.00360093, 0.000743206, 0.000743206, 0.000743206
9291, 1,0.00108783, -0.000942547, 0.000628446, 2.05249, -59.2988, 0.00799097, 3.58683, 232.899, 0.166656, 0.001017, 0.00139922, 0.00276379, 2.32276, 85.4236, 0, 0.00101984, 0.00077656, 0.00151005, 1.82614, 46.2112, 0, 0.00102048, 0.932483, -23.7653, -233.438, 0.785313, -14.3372, -125.082, 0.00136708, 0.00091911, -0.00367217, 0.000746995, 0.000746995, 0.000746995
9292, 1,0.00111257, -0.000962673, 0.000641675, -0.281179, -60.5916, 0.00812261, 1.47391, 235.686, 0.171827, 0.000982828, 0.00143291, 0.00283915, 0.0787699, 90.1104, 0, 0.000985553, 0.000792491, 0.00155711, -0.63049, 49.9954, 0, 0.000986194, -3.44961, -25.6867, -241.195, -3.53202, -15.4083, -131.046, 0.00134868, 0.000965162, -0.00377587, 0.000715819, 0.000715819, 0.000715819
9293, 1,0.00118914, -0.000978368, 0.000653857, 9.33515, -61.525, 0.0107972, 0.973284, 240.953, 0.269322, 0.0010841, 0.00151328, 0.00285666, 9.51284, 82.6434, 0, 0.00108764, 0.000865956, 0.00155574, 9.18296, 42.0305, 0, 0.00108836, 7.1682, -19.1207, -235.978, 7.11603, -10.5782, -122.629, 0.00145291, 0.000997115, -0.00379091, 0.000813028, 0.000813028, 0.000813028
9294, 1,0.00112633, -0.000970824, 0.000648323, 3.60286, -61.0868, 0.0112078, 1.3659, 253.283, 0.266043, 0.00104965, 0.00144949, 0.00280765, 4.00897, 87.1388, 0, 0.00105323, 0.000803402, 0.00151386, 3.24449, 46.7673, 0, 0.00105392, -2.27825, -21.734, -237.404, -2.30026, -13.2666, -124.735, 0.00132403, 0.00100072, -0.00373857, 0.000688698, 0.000688698, 0.000688698
9295, 1,0.00115924, -0.000980368, 0.000653629, 3.95757, -61.6551, 0.0113604, 3.03097, 252.18, 0.270099, 0.00101554, 0.0014848, 0.00289155, 4.27335, 88.8862, 0, 0.00101897, 0.000834474, 0.00158756, 3.65124, 48.2084, 0, 0.00101964, -0.250886, -20.695, -245.713, -0.576831, -12.0338, -132.015, 0.00139734, 0.00105054, -0.00389004, 0.000750533, 0.000750533, 0.000750533
9296, 1,0.00123022, -0.000999295, 0.000666339, 5.07126, -62.9126, 0.0111185, -3.23424, 245.094, 0.283762, 0.0009816, 0.00156044, 0.00300138, 5.34658, 90.6924, 0, 0.000984799, 0.000900148, 0.00167267, 4.82471, 49.06, 0, 0.000985465, 2.52892, -22.6267, -251.979, 2.46232, -13.1928, -136.449, 0.00148549, 0.00105432, -0.00401128, 0.000829296, 0.000829296, 0.000829296
9297, 1,0.00112067, -0.00101746, 0.000680505, 1.60988, -63.9738, 0.0138359, -0.394355, 247.715, 0.376154, 0.00108281, 0.00146348, 0.00289645, 2.21326, 89.3881, 0, 0.00108676, 0.000778388, 0.00153688, 1.1154, 47.199, 0, 0.0010875, 0.368552, -19.8399, -248.693, 0.359323, -12.3784, -129.578, 0.00141573, 0.0010934, -0.00395945, 0.000752197, 0.000752197, 0.000752197
9298, 1,0.00115159, -0.00101018, 0.00067505, 2.74079, -63.4968, 0.0143964, 0.0132501, 262.955, 0.36914, 0.0010484, 0.00149108, 0.00294021, 3.29322, 90.4083, 0, 0.00105251, 0.000812386, 0.00159121, 2.23561, 48.5863, 0, 0.00105322, 0.540681, -19.8355, -251.93, 0.31939, -12.4585, -133.62, 0.00143555, 0.00109821, -0.00400062, 0.000773295, 0.000773295, 0.000773295
9299, 1,0.00117874, -0.00101453, 0.000677159, 2.47874, -63.8179, 0.0145761, 2.13117, 263.317, 0.370227, 0.00101427, 0.00151726, 0.00295477, 3.01323, 92.3236, 0, 0.00101822, 0.000840699, 0.00160274, 1.96242, 50.2015, 0, 0.00101892, -3.578, -18.2881, -255.105, -3.74169, -10.6379, -136.225, 0.00138128, 0.00116082, -0.00404003, 0.00071539, 0.00071539, 0.00071539
9300, 1,0.00125884, -0.00104034, 0.000694504, 6.39114, -65.4363, 0.0142933, -2.56869, 249.33, 0.395467, 0.000980368, 0.00159988, 0.00311532, 6.44351, 92.8889, 0, 0.000983987, 0.000918192, 0.00173539, 6.35825, 49.7195, 0, 0.000984677, 6.14267, -20.9261, -263.883, 5.95251, -12.6009, -142.51, 0.00159681, 0.00113223, -0.00423613, 0.000914024, 0.000914024, 0.000914024
9301, 1,0.00122981, -0.00105978, 0.000710129, 3.82247, -66.5722, 0.0156839, -4.03507, 250.338, 0.449058, 0.00108162, 0.00158799, 0.00305323, 4.47319, 94.2131, 0, 0.00108584, 0.000872299, 0.00163621, 3.21587, 50.4079, 0, 0.00108661, -2.22738, -16.9522, -263.46, -2.20157, -10.9413, -138.081, 0.00143677, 0.00122664, -0.004192, 0.00074866, 0.00074866, 0.00074866
9302, 1,0.00120927, -0.00104613, 0.000699733, 4.2529, -65.7339, 0.0163913, 1.67776, 261.934, 0.437621, 0.00104739, 0.00156028, 0.00300466, 4.89185, 92.9467, 0, 0.00105171, 0.000858546, 0.00160781, 3.68019, 49.6665, 0, 0.00105245, -2.69897, -16.3755, -259.766, -2.8329, -10.2704, -135.896, 0.0014071, 0.00120775, -0.0041229, 0.0007239, 0.0007239, 0.0007239
9303, 1,0.00126405, -0.00105329, 0.000704055, 5.57821, -66.1897, 0.0166568, -0.620745, 262.987, 0.450577, 0.00101326, 0.00161564, 0.00313835, 5.98867, 94.9201, 0, 0.00101748, 0.000913304, 0.00173471, 5.199, 51.3316, 0, 0.0010182, 2.17222, -15.4536, -271.479, 1.96352, -9.16474, -146.793, 0.00154321, 0.00125894, -0.00434221, 0.00085346, 0.00085346, 0.00085346
9304, 1,0.00126541, -0.00108175, 0.000722872, 0.517711, -68.0093, 0.0162502, -3.25854, 251.925, 0.464732, 0.000979348, 0.0016281, 0.00316973, 1.16798, 100.917, 0, 0.000983157, 0.000902958, 0.00172634, -0.0915816, 56.0667, 0, 0.000983873, -5.23894, -20.9813, -276.531, -5.37649, -13.8999, -148.924, 0.00148157, 0.00125015, -0.00436908, 0.00077361, 0.00077361, 0.00077361
9305, 1,0.00127747, -0.00110278, 0.000739746, 7.71315, -69.1907, 0.0169779, -3.74916, 249.522, 0.49824, 0.00108061, 0.00164019, 0.00320114, 7.84769, 93.326, 0, 0.00108505, 0.000918189, 0.00173814, 7.67943, 47.9025, 0, 0.00108585, 7.45819, -9.71721, -277.719, 7.41836, -5.45411, -145.672, 0.00162787, 0.00135251, -0.00449458, 0.000912977, 0.000912977, 0.000912977
9306, 1,0.00126682, -0.00108305, 0.00072551, 4.05185, -67.9673, 0.01739, -1.10531, 258.241, 0.487334, 0.00104652, 0.00163404, 0.00315943, 4.93237, 97.2631, 0, 0.00105091, 0.00089996, 0.00171003, 3.19597, 52.6277, 0, 0.00105167, -2.79624, -10.8122, -278.181, -3.01015, -6.39474, -148.478, 0.00147236, 0.00138311, -0.00443356, 0.000766222, 0.000766222, 0.000766222
9307, 1,0.00127035, -0.00109039, 0.00073003, 4.33741, -68.4445, 0.0176111, 1.3578, 256.837, 0.491485, 0.00101252, 0.00163963, 0.00315574, 5.16448, 97.3698, 0, 0.00101674, 0.000901383, 0.00169673, 3.54088, 52.387, 0, 0.00101748, -3.90917, -10.898, -277.302, -4.11109, -6.2417, -146.808, 0.00145187, 0.0013829, -0.00441458, 0.000740468, 0.000740468, 0.000740468
9308, 1,0.00139751, -0.00112615, 0.000753862, 12.0803, -70.7087, 0.0175665, -3.42613, 250.038, 0.51782, 0.000978423, 0.0017646, 0.00338905, 12.1284, 95.6384, 0, 0.000982496, 0.0010308, 0.00189745, 12.0648, 49.1324, 0, 0.000983238, 11.9821, -8.60146, -290.296, 11.8153, -3.29177, -155.921, 0.00176213, 0.00141694, -0.00473077, 0.00102763, 0.00102763, 0.00102763
9309, 1,0.00128864, -0.00114631, 0.000769603, 1.03173, -71.8562, 0.0177088, -7.36339, 253.664, 0.526471, 0.00107978, 0.00168102, 0.00325639, 2.07981, 103.633, 0, 0.00108427, 0.000896527, 0.00171847, 0.0168391, 56.5042, 0, 0.0010851, -7.34157, -10.648, -292.91, -7.39148, -8.1442, -153.977, 0.00147666, 0.0014767, -0.00463482, 0.000734706, 0.000734706, 0.000734706
9310, 1,0.00128947, -0.00112147, 0.000751455, 3.89945, -70.2779, 0.0182357, -2.2526, 257.195, 0.522951, 0.0010457, 0.00166579, 0.0032462, 4.68728, 99.522, 0, 0.00105018, 0.000914047, 0.00174928, 3.19441, 53.4844, 0, 0.00105097, 1.03472, -9.38218, -290.219, 0.589345, -6.70919, -154.333, 0.00158843, 0.00143352, -0.0046367, 0.000855381, 0.000855381, 0.000855381
9311, 1,0.00133061, -0.00112936, 0.000756662, 4.89844, -70.7841, 0.0182869, -5.46229, 259.118, 0.529691, 0.00101159, 0.00171019, 0.00332218, 5.56337, 101.228, 0, 0.00101598, 0.000952126, 0.00181456, 4.28316, 54.8368, 0, 0.00101674, 1.11591, -8.17508, -296.624, 0.699667, -5.31698, -159.893, 0.00161803, 0.0014867, -0.00474715, 0.000879987, 0.000879987, 0.000879987
9312, 1,0.00129512, -0.00117142, 0.000785139, -2.77971, -73.4658, 0.0177495, -7.89458, 253.697, 0.529384, 0.000977704, 0.00169297, 0.00334608, -1.78267, 109.421, -2.71051E-20, 0.000981689, 0.00089757, 0.00177805, -3.73417, 61.1792, -2.71051E-20, 0.000982458, -8.16067, -15.9297, -304.173, -8.39967, -12.4613, -162.677, 0.0015522, 0.00145958, -0.00478714, 0.000788894, 0.000788894, 0.000788894
9313, 1,0.00145101, -0.00118597, 0.000792713, 13.4734, -74.469, 0.0211478, -1.99738, 259.454, 0.619658, 0.0010781, 0.00183876, 0.00349755, 13.4873, 98.6411, 0, 0.00108332, 0.00106394, 0.0019252, 13.4841, 49.4615, 0, 0.00108419, 12.7559, -0.486095, -308.193, 12.7033, 1.71683, -162.805, 0.00182377, 0.00159167, -0.00501591, 0.00104963, 0.00104963, 0.00104963
9314, 1,0.00139436, -0.00116464, 0.00077809, 6.11848, -73.0943, 0.0225696, 3.04103, 276.422, 0.612964, 0.00104424, 0.00178483, 0.00340548, 6.80075, 103.712, 0, 0.00104961, 0.00100431, 0.00185163, 5.44309, 55.5301, 0, 0.00105044, -1.75094, -3.0485, -306.335, -2.10567, -0.797574, -163.687, 0.00159596, 0.00162077, -0.00489948, 0.000831209, 0.000831209, 0.000831209
9315, 1,0.00140987, -0.00117824, 0.000787576, 6.05609, -73.9092, 0.0225552, 1.50549, 279.748, 0.60961, 0.00101026, 0.00180538, 0.00345491, 6.68045, 105.319, 0, 0.0010155, 0.00101486, 0.00188219, 5.44456, 56.6643, 0, 0.0010163, -2.49631, -3.1355, -310.327, -2.88567, -0.926643, -166.181, 0.00160531, 0.00164598, -0.00496013, 0.000832207, 0.000832207, 0.000832207
9316, 1,0.00148775, -0.00121864, 0.000814576, 10.9776, -76.4943, 0.0212549, -0.978922, 259.54, 0.61993, 0.000976404, 0.00188598, 0.00362889, 11.0487, 104.898, 0, 0.00098104, 0.00108991, 0.0020136, 10.9483, 54.4308, 0, 0.000981844, 10.8398, -3.49435, -322.038, 10.646, -0.842284, -173.096, 0.00188289, 0.00162808, -0.00521294, 0.00108548, 0.00108548, 0.00108548
9317, 1,0.00134931, -0.00123889, 0.000826524, -2.90907, -78.0886, 0.0226637, -35.8308, 311.287, 0.652219, 0.00107765, 0.00175228, 0.00353611, -3.33946, 115.965, 0, 0.0010842, 0.000947159, 0.00189561, -2.4477, 63.6904, 0, 0.00108512, -6.28939, -12.8764, -328.729, -5.76689, -9.3411, -175.963, 0.00169698, 0.00158501, -0.0051636, 0.000886339, 0.000886339, 0.000886339
9318, 1,0.00147491, -0.00124546, 0.000832371, 2.75438, -78.8436, 0.0256831, -35.9107, 360.602, 0.641111, 0.00104308, 0.0018926, 0.00366952, 2.65766, 115.79, 0, 0.00105065, 0.00105773, 0.0020072, 2.90642, 62.3116, 0, 0.00105156, -3.76366, -9.70093, -333.906, -1.4203, -5.52495, -179.99, 0.00174507, 0.00165987, -0.00528371, 0.000953743, 0.000953743, 0.000953743
9319, 1,0.00150345, -0.0012643, 0.000845221, 4.31117, -80.0321, 0.0259581, -28.8691, 355.572, 0.640722, 0.00100902, 0.00192644, 0.00369558, 4.09387, 116.36, 0, 0.0010162, 0.00108136, 0.00200918, 4.56997, 62.0716, 0, 0.00101709, -6.89275, -6.65518, -335.532, -4.14134, -2.70446, -179.369, 0.00168445, 0.0017321, -0.00530456, 0.000888917, 0.000888917, 0.000888917
9320, 1,0.00144624, -0.00129437, 0.00086478, 1.96004, -81.4605, 0.0232763, -26.8874, 303.885, 0.662665, 0.000975358, 0.00186894, 0.00372816, 1.77882, 116.609, 0, 0.000981162, 0.00102568, 0.00201335, 2.27276, 62.2995, 0, 0.000982027, 0.169337, -8.16579, -341.831, 0.82758, -5.00116, -182.725, 0.00183966, 0.00169349, -0.00542519, 0.000999527, 0.000999527, 0.000999527
9321, 1,0.00207766, 0.000631706, 0.000513263, 114.726, 35.3647, 0.00654831, 350.777, -55.524, 0, 0.000780206, 0.00270895, 0.00220593, 150.07, -29.6193, 0, 0.000779878, 0.00144674, 0.00118049, 79.3994, -14.8312, 0, 0.000779691, -2.32002, -1.57826, 92.7561, -2.2915, -2.57876, 49.3638, -0.000516664, -0.000505432, 0.0015027, -0.000283356, -0.000283356, -0.000283356
9322, 1,0.00178163, 0.000531554, 0.000427021, 101.322, 30.088, 0.00531874, 297.653, -62.1819, 0, 0.000747203, 0.00231287, 0.00185456, 131.392, -29.6495, 0, 0.000746809, 0.00125065, 0.00100119, 71.2671, -16.3177, 0, 0.000746647, 1.53449, 18.3143, 69.0997, 1.33274, 10.4831, 37.1374, -0.000435005, -8.37487E-05, 0.000999863, -0.000229477, -0.000229477, -0.000229477
9323, 1,0.000763632, 0.000231719, 0.000172495, 43.3919, 13.1869, 0.00240803, 137.149, -31.3578, 0, 0.00109248, 0.000995337, 0.000742679, 56.578, -12.8052, 0, 0.00109216, 0.000531938, 0.000397712, 30.2065, -6.8007, 0, 0.00109205, -6.42219, 37.7854, 7.05227, -3.42606, 20.1329, 3.69521, -0.000337683, 0.000596177, -5.06871E-05, -0.000179771, -0.000179771, -0.000179771
9324, 1,0.00138945, 0.000420646, 0.00033777, 78.1839, 23.7019, 0.00439634, 248.924, -55.2789, 0, 0.00105935, 0.00180997, 0.00145385, 101.879, -21.9384, 0, 0.00105877, 0.000969024, 0.000778571, 54.4948, -11.6775, 0, 0.0010586, -0.758446, 32.4866, 34.0869, -0.36904, 17.2701, 18.1313, -0.000361878, 0.000338403, 0.000379474, -0.000192136, -0.000192136, -0.000192136
9325, 1,0.000348016, 0.000104793, 8.12248E-05, 19.8178, 5.98299, 0.00110085, 63.3343, -15.1868, 0, 0.000863856, 0.000452788, 0.000351225, 25.7996, -5.90453, 0, 0.000863726, 0.000243262, 0.000188855, 13.837, -3.13821, 0, 0.000863687, -7.33381, 10.6368, 14.4106, -3.96628, 5.61946, 7.76144, -0.000248077, 0.000131401, 0.000212492, -0.000133292, -0.000133292, -0.000133292
9326, 1,0.00133352, -0.000467179, 0.000436966, 57.7103, -23.7671, 0.00494988, 217.712, 21.7711, 0, 0.0014616, 0.00174018, 0.00186894, 75.2468, 9.4036, 0, 0.00146189, 0.000926948, 0.000995561, 40.1787, 4.88018, 0, 0.001462, -1.82414, -1.28613, -25.1005, -0.727544, -0.506771, -13.4062, 0.000108953, 0.000115804, -0.000377348, 6.09849E-05, 6.09849E-05, 6.09849E-05
9327, 1,0.00202292, 0.000618452, 0.000421866, 125.624, 38.8422, 0.00641651, 399.798, -129.703, 0, 0.000723969, 0.00264118, 0.00179147, 164.458, -53.2461, 0, 0.000723071, 0.00140483, 0.000948048, 86.7978, -27.4167, 0, 0.000722768, 0.191674, 161.36, -1.8131, -1.63214, 85.0568, -1.17461, -0.000834804, 0.00257468, -0.000875774, -0.0004666, -0.0004666, -0.0004666
9328, 1,0.00120976, 0.00036884, 0.000266848, 72.3875, 22.1439, 0.00384447, 230.653, -65.7722, 0, 0.000699004, 0.0015786, 0.0011449, 94.5312, -26.7615, 0, 0.000698562, 0.00084093, 0.000611217, 50.2438, -14.1025, 0, 0.000698418, -2.28506, 82.2012, 0.368467, -1.32567, 43.6189, 0.0143654, -0.00047003, 0.00131594, -0.00041161, -0.000250395, -0.000250395, -0.000250395
9329, 1,0.0016404, 0.000498484, 0.000399716, 92.6599, 28.1545, 0.00523027, 293.278, -61.9158, 0, 0.000837995, 0.00213879, 0.00171799, 120.81, -26.5014, 0, 0.000837513, 0.00114208, 0.00091886, 64.5134, -14.1566, 0, 0.000837346, 0.272952, 92.0474, -12.8162, 0.305274, 48.8086, -6.64412, -0.000411664, 0.00152788, -0.000686125, -0.000216535, -0.000216535, -0.000216535
9330, 1,0.00153755, 0.000475508, 0.000367927, 89.0359, 27.4761, 0.0051637, 296.881, -70.9838, 0, 0.000897442, 0.002013, 0.00156149, 116.51, -28.7125, 0, 0.000896826, 0.00106215, 0.000825993, 61.5645, -15.2709, 0, 0.000896631, 0.591586, 102.009, -16.4635, 0.628189, 53.6242, -8.43987, -0.000439651, 0.00170505, -0.000799428, -0.000227128, -0.000227128, -0.000227128
9331, 1,0.000798598, 0.000256519, 0.000251639, 38.1135, 12.2676, 0.00273902, 134.647, -6.98517, 0, 0.000725839, 0.00105505, 0.00104388, 50.3779, -0.692733, 0, 0.000725765, 0.000542217, 0.000540836, 25.8521, -0.305137, 0, 0.00072576, -0.722502, 48.0415, -45.2408, -0.11032, 24.4935, -23.4678, -2.58445E-05, 0.00100549, -0.000968363, -6.62793E-06, -6.62793E-06, -6.62793E-06
9332, 1,0.00153678, 0.00047741, 0.000357706, 91.0018, 28.0251, 0.00560112, 340.374, -101.644, 0, 0.000785633, 0.00201413, 0.0015064, 119.024, -32.0202, 0, 0.000784746, 0.00105949, 0.000791963, 62.9821, -17.344, 0, 0.000784559, -0.31431, 117.332, -20.9572, 0.276006, 61.9752, -10.2192, -0.000510893, 0.00197818, -0.000947631, -0.000267208, -0.000267208, -0.000267208
9333, 1,0.00257922, 0.000785551, 0.000538567, 158.733, 49.6485, 0.00994586, 472.156, -167.128, 0.0515996, 0.000745276, 0.00336475, 0.00227898, 208.38, -66.3103, 0, 0.000743997, 0.00179372, 0.00123778, 109.087, -32.6637, 0, 0.000743591, -3.01706, 208.24, -6.29212, -7.17323, 109.03, -3.86531, -0.00110836, 0.00336173, -0.00117725, -0.000666364, -0.000666364, -0.000666364
9334, 1,0.00232179, 0.000716829, 0.000492117, 145.252, 45.2209, 0.00753796, 453.605, -141.246, 0.00328842, 0.000780785, 0.00303855, 0.00205258, 190.469, -62.9623, 0, 0.00077979, 0.00160511, 0.00108949, 100.037, -32.4858, 0, 0.000779405, 1.79679, 188.813, -1.72306, -1.74454, 99.0781, 0.123839, -0.000953916, 0.00300301, -0.00102731, -0.00054886, -0.00054886, -0.00054886
9335, 1,0.00373367, 0.00113055, 0.000766804, 229.49, 70.8716, 0.0582375, 508.889, -191.208, 0.920253, 0.000962442, 0.00486384, 0.00331124, 300.353, -94.4139, 0, 0.000957788, 0.00260381, 0.00178031, 158.633, -47.6021, 0, 0.000957061, -4.13459, -6.89116, 294.268, -6.08242, -6.58714, 155.476, -0.00157094, -0.00164535, 0.00474821, -0.000875113, -0.000875113, -0.000875113
9336, 1,0.00411112, 0.00122376, 0.000815874, 262.633, 77.7112, 0.0675809, 611.355, -214.239, 1, 0.00106963, 0.00533422, 0.00354378, 340.305, -118.389, 0, 0.00106329, 0.00288857, 0.00191632, 184.994, -65.0623, 0, 0.00106237, 7.71391, 13.7718, 333.681, 4.61606, 9.67168, 180.899, -0.00169188, -0.00160375, 0.00521649, -0.000917485, -0.000917485, -0.000917485
9337, 1,0.00124779, 0.000394206, 0.000383121, 60.3879, 19.6087, 0.00709233, 345.552, -14.0549, 0, 0.00108404, 0.0016417, 0.0016124, 79.9835, -3.24224, 0, 0.00108385, 0.000854154, 0.00084719, 40.8043, -0.618972, 0, 0.0010838, 2.77209, -9.3242, 16.2788, 0.769011, -6.52841, 7.61632, 6.3079E-06, -0.00025502, 0.000301291, 5.32341E-06, 5.32341E-06, 5.32341E-06
9338, 1,0.00142864, 0.000440439, 0.000319211, 85.8378, 27.0543, 0.0310414, 470.427, -151.515, 0.458815, 0.00139926, 0.00186825, 0.00136255, 112.879, -32.911, 0, 0.00139539, 0.000989751, 0.000726481, 58.8084, -16.1754, 0, 0.00139501, 1.41881, -1.0589, 98.3729, -0.762338, -2.37395, 51.6625, -0.000484359, -0.000566394, 0.00158471, -0.000266732, -0.000266732, -0.000266732
9339, 1,0.0017147, 0.000518776, 0.000457916, 90.3161, 27.3035, 0.00549394, 288.208, -38.373, 0, 0.00114378, 0.00223335, 0.00197304, 117.613, -16.1917, 0, 0.00114337, 0.00119615, 0.0010576, 63.0254, -8.71428, 0, 0.00114323, -0.0940988, 46.2812, 2.38814, 0.215849, 24.7312, 1.19585, -0.000257439, 0.000719724, -0.000199521, -0.000133157, -0.000133157, -0.000133157
9340, 1,0.00149923, 0.000457688, 0.000447518, 71.9539, 22.0707, 0.0050859, 240.53, -0.226935, 0, 0.00125407, 0.00195683, 0.001919, 94.0202, -2.06385, 0, 0.0012541, 0.00104172, 0.00102441, 49.8913, -0.886015, 0, 0.00125408, -0.425604, 38.777, -32.1598, -0.281602, 20.0082, -17.0685, -4.167E-05, 0.000784407, -0.000709219, -1.99937E-05, -1.99937E-05, -1.99937E-05
9341, 1,0.00209112, 0.000634321, 0.000494702, 125.065, 36.8064, 0.0129046, 398.236, -44.7172, 0.103221, 0.000951917, 0.00272515, 0.00213725, 161.853, -44.367, 0, 0.000951869, 0.00145737, 0.00114832, 88.2937, -26.0418, 0, 0.000951586, 11.8355, 8.44479, 112.821, 10.5129, 6.11817, 61.4943, -0.000449681, -0.000527115, 0.0016967, -0.000189246, -0.000189246, -0.000189246
9342, 1,0.00168382, 0.000516878, 0.000358117, 103.37, 31.7381, 0.0053849, 330.016, -101.456, 0, 0.000554817, 0.00220066, 0.00152495, 135.107, -41.7813, 0, 0.00055428, 0.001167, 0.000808836, 71.6338, -22.1414, 0, 0.000554104, -1.04227, 130.728, -4.3415, -0.576554, 69.2407, -2.23982, -0.000680277, 0.00210679, -0.000748465, -0.000361112, -0.000361112, -0.000361112
9343, 1,0.000789306, 0.000236344, 0.000166713, 46.8495, 13.9348, 0.00251736, 148.095, -39.1184, 0, 0.00101422, 0.00102556, 0.000719773, 60.7787, -16.5227, 0, 0.00101385, 0.000553129, 0.000386575, 32.9251, -9.10015, 0, 0.00101373, -4.75963, 9.11473, 45.2129, -2.28047, 5.19445, 24.3865, -0.000361006, -6.86961E-05, 0.000697808, -0.000191763, -0.000191763, -0.000191763
9344, 1,0.0015261, 0.00045259, 0.000315735, 91.6514, 27.4978, 0.00489568, 299.283, -91.2221, 0, 0.000895416, 0.00197845, 0.00139311, 119.136, -34.425, 0, 0.000894591, 0.00107396, 0.000762035, 64.1772, -18.0272, 0, 0.000894353, -3.58536, 1.22685, 105.634, -2.27356, -0.6099, 56.9651, -0.00061837, -0.000518108, 0.00169507, -0.000332594, -0.000332594, -0.000332594
9345, 1,0.00241853, 0.000710167, 0.000484784, 151.973, 44.0716, 0.0101899, 436.452, -107.478, 0.0526671, 0.00085922, 0.00312799, 0.00211963, 196.004, -64.6772, 5.18211E-07, 0.000858578, 0.00170967, 0.00115119, 107.977, -36.4685, 5.18211E-07, 0.000858186, 2.9548, 6.702, 184.375, 2.95757, 5.33036, 101.118, -0.000956838, -0.000879447, 0.00288575, -0.00051292, -0.00051292, -0.00051292
9346, 1,0.00220997, 0.000625202, 0.000502554, 125.025, 34.9301, 0.0335556, 531.067, -246.847, 0.508536, 0.000900309, 0.00283343, 0.00221663, 159.873, -34.5941, 0, 0.000895791, 0.00158783, 0.00121407, 90.2375, -20.1572, 0, 0.000895581, -5.32563, -19.2247, 128.333, -4.00378, -8.24226, 72.7175, -0.000656572, -0.000967223, 0.00218507, -0.000401253, -0.000401253, -0.000401253
9347, 1,0.00323728, 0.000948305, 0.00064447, 205.731, 59.3529, 0.0302635, 487.193, -174.766, 0.440633, 0.000918925, 0.00418504, 0.00282197, 265.045, -89.9975, 0, 0.000916813, 0.00228997, 0.00153467, 146.449, -50.9883, 0, 0.000916233, 7.25954, 9.22756, 253.506, 5.72945, 8.19553, 139.04, -0.00126343, -0.00122607, 0.00394983, -0.000681975, -0.000681975, -0.000681975
9348, 1,0.00093839, -0.000304445, 0.000297462, 43.3001, -14.6203, 0.00338035, 157.765, 2.6759, 0, 0.00122757, 0.00122867, 0.00126778, 56.7901, 1.71997, 0, 0.00122759, 0.000648285, 0.000673527, 29.818, 1.10392, 0, 0.0012276, 1.00988, 31.4224, -37.5922, 0.613395, 15.7383, -19.6634, 4.84502E-05, 0.00069058, -0.000766914, 3.04783E-05, 3.04783E-05, 3.04783E-05
9349, 1,0.00155588, 0.000472597, 0.000380347, 86.3067, 26.3012, 0.00495468, 274.105, -53.6583, 0, 0.000735392, 0.00202843, 0.00163571, 112.606, -22.4804, 0, 0.00073502, 0.00108337, 0.000875168, 60.0099, -11.8292, 0, 0.000734893, -3.31292, 78.2206, -7.46658, -1.8472, 41.4799, -4.1451, -0.000424379, 0.00129792, -0.000508714, -0.000225634, -0.000225634, -0.000225634
9350, 1,0.00179697, 0.000542161, 0.000477461, 96.1563, 29.0788, 0.0058596, 315.593, -51.9699, 0, 0.000941316, 0.00233896, 0.00205768, 125.226, -19.7172, 0, 0.000940824, 0.00125513, 0.00110321, 67.0943, -10.4414, 0, 0.000940682, 3.28564, 21.731, 34.1349, 1.62077, 11.3648, 18.3385, -0.000241767, 0.000143932, 0.000417779, -0.000130981, -0.000130981, -0.000130981
9351, 1,0.000435937, -0.000188361, 0.000157435, 1.37048, -14.4768, 0.00148583, 7.44463, 84.3523, 0, 0.000971371, 0.000562343, 0.000679118, 1.7763, 33.327, 0, 0.000972176, 0.00030962, 0.000365268, 0.970322, 18.3591, 0, 0.000972412, 1.12954, -41.7252, -59.3855, 0.510261, -24.0497, -31.5379, 0.000549173, -0.000358025, -0.000731949, 0.000300548, 0.000300548, 0.000300548
9352, 1,0.000480613, -0.000302289, 0.000220428, -1.17059, -21.3752, 0.00166658, -1.34995, 107.653, 0, 0.00147251, 0.000618779, 0.000958573, -1.72428, 41.6288, 0, 0.00147409, 0.000342791, 0.000519216, -0.597751, 22.5929, 0, 0.00147454, -2.39722, -48.8117, -73.6775, -1.19376, -27.7009, -38.8842, 0.000605097, -0.000378025, -0.000902583, 0.000330985, 0.000330985, 0.000330985
9353, 1,0.000490478, -0.000365667, 0.000258611, -1.39929, -24.3872, 0.00206329, 14.68, 111.321, 0, 0.00140815, 0.000641561, 0.00108508, -1.35855, 42.5929, 0, 0.00140972, 0.000339812, 0.00056926, -1.41635, 23.5148, 0, 0.00141016, -1.53238, -46.1504, -80.096, -1.64471, -26.4582, -42.4417, 0.000638216, -0.000308192, -0.00102118, 0.000335597, 0.000335597, 0.000335597
9354, 1,0.000419197, -0.000356135, 0.000254002, -6.2043, -23.5106, 0.00454705, 199.672, 20.4211, 0, 0.0013379, 0.000570164, 0.00102143, -5.74501, 43.8901, 0, 0.00133739, 0.000269056, 0.000515647, -6.61547, 25.9603, 0, 0.00133778, -6.27915, -40.2551, -85.1362, -6.87962, -23.5975, -47.4039, 0.000558306, -0.000165306, -0.00110521, 0.000263478, 0.000263478, 0.000263478
9355, 1,0.000367862, -0.000256618, 0.000197094, -7.28969, -19.2638, 0.00308288, 105.186, 54.241, 0, 0.00129623, 0.000503842, 0.00075562, -7.98889, 42.6266, 0, 0.00129648, 0.000233505, 0.000365089, -6.50698, 23.4737, 0, 0.00129688, -9.04501, -42.0373, -76.7976, -7.54052, -23.0596, -39.821, 0.00048081, -0.000224014, -0.000948503, 0.00021127, 0.00021127, 0.00021127
9356, 1,0.00111203, -0.000764787, 0.000546071, -1.39945, -51.9012, 0.00381965, 8.18392, 231.535, 0, 0.000895145, 0.00143929, 0.00241901, -1.68774, 93.6664, 0, 0.00089715, 0.000784844, 0.00132701, -1.10614, 51.3309, 0, 0.000897766, -2.90325, -228.197, -49.8993, -1.90114, -125.396, -26.6952, 0.00141424, -0.003353, 0.000418735, 0.000768848, 0.000768848, 0.000768848
9357, 1,0.00116867, -0.000697842, 0.000515546, 2.78334, -48.6369, 0.00404029, 17.0832, 233.6, 0, 0.0010349, 0.00150163, 0.00230771, 2.86712, 91.5158, 0, 0.00103729, 0.000835958, 0.00127741, 2.71379, 49.4554, 0, 0.001038, 1.77762, -189.714, -86.6109, 1.88646, -104.427, -45.8257, 0.00147941, -0.00257099, -0.000393517, 0.000819547, 0.000819547, 0.000819547
9358, 1,0.00104913, -0.000770484, 0.00056426, -9.04626, -52.976, 0.00459841, 38.7677, 239.919, 0, 0.00099331, 0.00140606, 0.00236197, -8.73186, 101.047, 0, 0.000995551, 0.000693431, 0.00123654, -9.2937, 56.5674, 0, 0.00099627, -9.98961, -139.651, -153.5, -10.4641, -77.7198, -81.5182, 0.00138056, -0.00135852, -0.00166174, 0.000670393, 0.000670393, 0.000670393
9359, 1,0.00139577, -0.000966986, 0.000676759, 7.56284, -64.7895, 0.00800827, -20.634, 306.875, 0.124163, 0.000942247, 0.00178227, 0.00300083, 6.77333, 103.972, -3.38813E-21, 0.000945705, 0.00100931, 0.00164998, 8.35332, 52.7296, -3.38813E-21, 0.000946492, 6.36571, -85.8637, -232.419, 8.16565, -46.3356, -120.019, 0.00177373, -0.00017004, -0.0032908, 0.00100536, 0.00100536, 0.00100536
9360, 1,0.00159591, -0.0011344, 0.000769669, 6.37159, -74.8831, 0.0155165, -59.2282, 356.006, 0.38289, 0.000908581, 0.0019978, 0.00351144, 4.14006, 121.024, 0, 0.000913485, 0.00119525, 0.00197755, 8.67124, 63.9752, 0, 0.000914331, 4.12673, -58.5569, -308.64, 8.4782, -34.7174, -165.686, 0.00199767, 0.000683656, -0.00464507, 0.00119225, 0.00119225, 0.00119225
9361, 1,0.00177767, 0.000529703, 0.000430238, 100.555, 29.6811, 0.00499482, 251.933, -21.324, 0, 0.000758223, 0.00230728, 0.00186961, 130.231, -28.41, 0, 0.00075831, 0.00124814, 0.00100971, 70.8838, -15.9379, 0, 0.000758157, 1.52818, -0.911996, 84.6138, 1.47983, 0.757596, 45.5762, -0.000414839, -0.000471113, 0.00134694, -0.00021959, -0.00021959, -0.00021959
9362, 1,0.00149631, 0.000446248, 0.000350274, 85.8121, 25.5849, 0.00411944, 227.962, -44.6835, 0, 0.000727021, 0.00194254, 0.00152325, 111.395, -26.2821, 0, 0.000726804, 0.0010501, 0.000822802, 60.2309, -14.2142, 0, 0.000726661, 0.0616781, 15.2071, 63.5776, -0.009433, 8.4323, 34.2198, -0.000412265, -9.56038E-05, 0.000934338, -0.000223809, -0.000223809, -0.000223809
9363, 1,0.000701523, 0.000210399, 0.000156283, 38.6028, 11.6238, 0.00214784, 119.369, -23.9855, 0, 0.00105737, 0.000911887, 0.000682284, 50.2253, -9.56176, 0, 0.00105712, 0.000491189, 0.000369813, 26.9814, -5.04844, 0, 0.00105704, -12.0659, 35.9035, 4.84762, -6.6401, 19.2131, 2.57229, -0.000405733, 0.000607809, -4.68975E-05, -0.000219875, -0.000219875, -0.000219875
9364, 1,0.00116894, 0.0003514, 0.000274992, 66.1259, 19.8895, 0.00350342, 197.755, -43.219, 0, 0.00103045, 0.00152034, 0.00118883, 86.0149, -19.0027, 0, 0.00103004, 0.000817548, 0.000638904, 46.2374, -10.1895, 0, 0.0010299, -2.75349, 30.0808, 29.6807, -1.54145, 16.2689, 15.841, -0.000357286, 0.000334423, 0.000331225, -0.000192887, -0.000192887, -0.000192887
9365, 1,0.000339765, 9.98985E-05, 9.16E-05, 17.3258, 5.08804, 0.00102432, 53.295, -6.5526, 0, 0.000856463, 0.00043964, 0.000402826, 22.4131, -2.17883, 0, 0.000856402, 0.00023991, 0.000219754, 12.2392, -1.19495, 0, 0.000856388, -15.1377, 10.0099, 11.6643, -8.21614, 5.42182, 6.37916, -0.000354102, 0.000176947, 0.000212517, -0.000192158, -0.000192158, -0.000192158
9366, 1,0.000937842, -0.000389826, 0.000337875, 36.1274, -20.8938, 0.00287664, 101.326, 46.4868, 0, 0.0014232, 0.00122376, 0.00144615, 47.1732, 14.3327, 0, 0.00142394, 0.000651935, 0.000770438, 25.0822, 7.70245, 0, 0.0014241, -0.583871, -13.5561, -28.8581, -0.410645, -7.03102, -15.6657, 0.00021293, -6.49308E-05, -0.000380577, 0.000112229, 0.000112229, 0.000112229
9367, 1,0.00206843, 0.000627092, 0.000426894, 130.374, 39.7777, 0.00646748, 404.716, -133.07, 0, 0.00070354, 0.00269541, 0.00182861, 170.146, -57.4413, 0, 0.000702678, 0.00144155, 0.000975093, 90.6066, -30.1947, 0, 0.000702367, 5.15561, 168.255, -1.08694, 1.76625, 89.5878, -0.770034, -0.000795713, 0.00265479, -0.000926896, -0.000438303, -0.000438303, -0.000438303
9368, 1,0.00116313, 0.00035127, 0.000246263, 69.3668, 21.0281, 0.00361013, 216.673, -61.8648, 0, 0.000675578, 0.00151431, 0.00106576, 90.3914, -25.2777, 0, 0.000675177, 0.000812014, 0.00057356, 48.3454, -13.3842, 0, 0.000675047, -5.93405, 81.6856, 0.0816893, -3.39692, 43.5828, -0.0333785, -0.000523692, 0.00132888, -0.000394963, -0.000282715, -0.000282715, -0.000282715
9369, 1,0.0015036, 0.000455939, 0.000358033, 86.5129, 26.3296, 0.0046581, 265.801, -61.3257, 0, 0.000817048, 0.00195952, 0.0015377, 112.842, -27.1771, 0, 0.000816596, 0.0010477, 0.000821818, 60.1849, -14.3316, 0, 0.000816425, 1.30842, 92.5551, -12.3321, 0.377578, 49.4005, -6.78329, -0.000400536, 0.00152848, -0.000686891, -0.000217898, -0.000217898, -0.000217898
9370, 1,0.00149119, 0.000454215, 0.000347393, 87.8529, 27.0503, 0.00503545, 296.298, -78.3405, 0, 0.000887092, 0.00194538, 0.00149059, 114.902, -30.8461, 0, 0.000886409, 0.00103702, 0.000796458, 60.8051, -15.8442, 0, 0.000886193, 3.43783, 105.318, -16.2175, 0.975189, 55.8273, -9.26981, -0.00041327, 0.0017417, -0.000827837, -0.000229066, -0.000229066, -0.000229066
9371, 1,0.000671292, -0.000235206, 0.000221338, 29.8265, -11.6052, 0.00235912, 114.433, -3.94887, 0, 0.000733749, 0.000878758, 0.000946709, 39.1444, 3.20657, 0, 0.000733664, 0.000463829, 0.000504222, 20.5088, 1.89752, 0, 0.00073368, 0.850733, 37.5764, -48.0468, 0.433438, 19.6531, -25.7791, 6.85505E-05, 0.000845492, -0.000966043, 3.92294E-05, 3.92294E-05, 3.92294E-05
9372, 1,0.00154391, 0.000466374, 0.000351203, 91.5745, 27.9206, 0.00576383, 357.14, -113.837, 0, 0.000788846, 0.00201027, 0.00151637, 119.495, -32.8972, 0, 0.00078781, 0.00107754, 0.000815011, 63.6542, -17.1003, 0, 0.000787609, 2.23832, 118.487, -22.0338, 0.285304, 63.0935, -12.078, -0.000470847, 0.00198884, -0.000984107, -0.000263327, -0.000263327, -0.000263327
9373, 1,0.00266331, 0.000802118, 0.000550774, 167.656, 51.0781, 0.0105788, 482, -184.962, 0.0659769, 0.000745895, 0.00346539, 0.0023796, 218.733, -73.8288, 0, 0.000744465, 0.00186127, 0.00128038, 116.582, -38.4445, 0, 0.000744038, 8.57001, 218.644, -5.72772, 2.62425, 116.541, -3.83122, -0.000981526, 0.00346348, -0.00128383, -0.000549993, -0.000549993, -0.000549993
9374, 1,0.0024278, 0.000730574, 0.000499652, 153.77, 46.4742, 0.00796029, 458.347, -147.662, 0.0117327, 0.000768526, 0.00315823, 0.00213815, 200.238, -68.4852, 0, 0.000767527, 0.00169747, 0.00113931, 107.307, -36.3864, 0, 0.000767128, 7.15401, 199.226, -0.924594, 2.29227, 106.709, 0.158271, -0.000927363, 0.0031365, -0.00109774, -0.000524667, -0.000524667, -0.000524667
9375, 1,0.00361193, 0.00107985, 0.00073516, 227.61, 68.2794, 0.0535606, 530.727, -235.022, 0.858094, 0.000933405, 0.004691, 0.00319861, 295.838, -99.157, 0, 0.00092809, 0.00253355, 0.00172999, 159.426, -52.9047, 0, 0.000927394, 8.78327, -2.63201, 291.32, 4.10474, -1.98251, 156.592, -0.00137382, -0.00162523, 0.00460796, -0.000745052, -0.000745052, -0.000745052
9376, 1,0.00388363, 0.00117148, 0.000783811, 249.504, 75.1177, 0.0669934, 616.076, -231.699, 1, 0.00103471, 0.00505505, 0.00339935, 324.593, -115.148, 0, 0.00102786, 0.00271227, 0.00183269, 174.439, -62.1805, 0, 0.00102698, 16.7508, 9.31892, 319.376, 10.0681, 5.51888, 170.955, -0.00145666, -0.00163998, 0.00496492, -0.00076427, -0.00076427, -0.00076427
9377, 1,0.000883741, -0.000295762, 0.000279211, 41.4374, -14.1989, 0.00485321, 221.26, 10.7693, 0, 0.00104734, 0.00114638, 0.00119561, 53.6323, 0.760806, 0, 0.00104751, 0.000621114, 0.000637909, 29.2437, 0.174214, 0, 0.00104752, 3.89387, -16.8544, 10.6781, 1.54102, -8.02123, 5.95757, 9.384E-05, -0.000349225, 0.000243009, 3.48751E-05, 3.48751E-05, 3.48751E-05
9378, 1,0.00120094, 0.000374483, 0.000270903, 77.3858, 23.5663, 0.0296736, 490.1, -184.778, 0.435601, 0.00135019, 0.00157534, 0.00110664, 100.94, -35.2, 0, 0.00134562, 0.00082661, 0.000566407, 53.8417, -19.4653, 0, 0.00134527, 8.49677, 3.73705, 93.3663, 4.86027, 4.06044, 49.4751, -0.000373276, -0.000489032, 0.00143341, -0.000202389, -0.000202389, -0.000202389
9379, 1,0.0014159, 0.000428167, 0.000377987, 74.0872, 22.4221, 0.00424662, 219.261, -24.9317, 0, 0.00111351, 0.00184406, 0.00162755, 96.5086, -12.5528, 0, 0.00111328, 0.000987741, 0.000871691, 51.6665, -6.6824, 0, 0.00111318, -1.53441, 40.4217, -1.2288, -0.873006, 21.7817, -0.861543, -0.000230255, 0.000653971, -0.000220002, -0.000123811, -0.000123811, -0.000123811
9380, 1,0.00121166, -0.000372559, 0.000370456, 57.2258, -17.6045, 0.00382531, 179.065, 2.31491, 0, 0.00122632, 0.00158001, 0.00159104, 74.6402, 0.0527561, 0, 0.00122636, 0.000843312, 0.000850301, 39.8118, 0.0672745, 0, 0.00122636, 0.955253, 32.5576, -33.6711, 0.525599, 17.4743, -18.2017, 2.08771E-05, 0.000686879, -0.000708587, 1.20893E-05, 1.20893E-05, 1.20893E-05
9381, 1,0.00174787, 0.0005386, 0.000413084, 99.6429, 32.0158, 0.00810482, 376.032, -11.7141, 0.00659136, 0.000920935, 0.00228588, 0.00176724, 131.627, -31.5874, 0, 0.000921231, 0.00121039, 0.000942131, 67.6853, -13.9772, 0, 0.000920968, -1.16635, -4.93799, 100.866, -4.00426, -5.69103, 51.6269, -0.000522106, -0.000606454, 0.00164109, -0.000305009, -0.000305009, -0.000305009
9382, 1,0.00168564, 0.000511547, 0.000351555, 104.083, 31.7847, 0.00527259, 325.989, -103.173, 0, 0.000536748, 0.00219701, 0.0015055, 135.86, -43.0227, 0, 0.000536224, 0.00117441, 0.000802752, 72.3134, -22.58, 0, 0.000536046, -0.0169683, 132.946, -3.86033, -0.728071, 70.6526, -2.18446, -0.000678034, 0.00213454, -0.000758307, -0.000371121, -0.000371121, -0.000371121
9383, 1,0.00070816, 0.000209861, 0.000154536, 40.2969, 11.9417, 0.002134, 119.015, -24.3813, 0, 0.000994207, 0.000918018, 0.000676676, 52.2386, -11.8619, 0, 0.000994005, 0.000498303, 0.000367623, 28.3553, -6.42977, 0, 0.000993917, -11.4954, 7.03782, 40.0434, -6.27064, 3.85113, 21.7088, -0.000429316, -3.8998E-05, 0.000660793, -0.000233247, -0.000233247, -0.000233247
9384, 1,0.00137973, 0.000410874, 0.000280846, 83.7148, 24.8361, 0.00419164, 249.785, -69.4026, 0, 0.000870388, 0.0017906, 0.00122611, 108.55, -32.0939, 0, 0.000869861, 0.000968864, 0.000664446, 58.8799, -17.5486, 0, 0.000869656, -5.31593, 3.14663, 98.4509, -2.55757, 1.88474, 53.3185, -0.000617037, -0.000440446, 0.00157825, -0.000329724, -0.000329724, -0.000329724
9385, 1,0.00219694, 0.00065972, 0.000448332, 135.485, 41.2784, 0.00717076, 396.906, -77.8863, 0, 0.000833914, 0.00285664, 0.00197699, 176.762, -55.9942, 0, 0.000833618, 0.00153726, 0.0010808, 94.2107, -28.8806, 0, 0.000833252, 0.932695, -2.52258, 169.573, -0.0373488, -3.63731, 90.3166, -0.000860723, -0.000937211, 0.00270651, -0.000454509, -0.000454509, -0.000454509
9386, 1,0.00192577, 0.00052845, 0.000430443, 110.58, 29.547, 0.0271551, 545.998, -280.337, 0.39686, 0.000871965, 0.0024541, 0.00198517, 140.122, -32.0272, 0, 0.000867335, 0.00139754, 0.00112465, 81.0433, -19.7748, 0, 0.000867163, 3.63713, -27.2684, 119.713, 3.75526, -13.5426, 69.1117, -0.000427138, -0.00108888, 0.00203566, -0.000231927, -0.000231927, -0.000231927
9387, 1,0.0030368, 0.000902725, 0.000613695, 194.484, 57.0129, 0.0240428, 477.247, -165.799, 0.326245, 0.000890285, 0.0039384, 0.00265171, 251.425, -87.2417, 0, 0.000888618, 0.00213616, 0.00142653, 137.603, -48.7376, 0, 0.000888063, 10.256, 7.28681, 244.182, 6.7411, 6.45889, 133.013, -0.00115526, -0.00122131, 0.00379219, -0.000623834, -0.000623834, -0.000623834
9388, 1,0.000718677, -0.000267211, 0.000243923, 31.3233, -13.3824, 0.00254366, 116.428, 5.08574, 0, 0.00122006, 0.00093931, 0.00104512, 40.999, 4.56056, 0, 0.00122007, 0.000498046, 0.000557392, 21.6477, 2.54057, 0, 0.00122011, 2.94763, 22.994, -39.6233, 1.62827, 12.1007, -21.3507, 0.000134107, 0.000557277, -0.000765367, 7.44848E-05, 7.44848E-05, 7.44848E-05
9389, 1,0.00139171, 0.000422297, 0.000329558, 79.087, 24.059, 0.00428347, 243.565, -55.2404, 0, 0.000712894, 0.00181399, 0.00141486, 103.145, -23.3845, 0, 0.000712526, 0.000969437, 0.000755791, 55.0288, -12.3683, 0, 0.000712399, -2.36565, 78.5973, -6.07818, -1.45388, 41.9651, -3.40641, -0.00041844, 0.00129235, -0.000494406, -0.000225649, -0.000225649, -0.000225649
9390, 1,0.00144795, 0.000436387, 0.00038813, 77.4897, 23.3245, 0.00422332, 222.268, -30.4726, 0, 0.000916927, 0.00188431, 0.00167515, 100.812, -15.7687, 0, 0.000916709, 0.00101161, 0.000899129, 54.1695, -8.51991, 0, 0.000916601, 4.0921, 15.8992, 27.3148, 2.27154, 9.04616, 14.242, -0.000161972, 8.382E-05, 0.000334025, -8.63762E-05, -8.63762E-05, -8.63762E-05
9391, 1,0.000589453, -0.000184493, 0.000179795, 4.13269, -15.8443, 0.00203321, 25.1632, 95.3088, 0, 0.000901774, 0.000764484, 0.000781758, 5.28402, 41.4634, 0, 0.000902563, 0.000414478, 0.000423067, 2.98501, 22.3251, 0, 0.000902843, 4.28577, -64.5811, -64.0949, 2.33572, -35.2079, -34.103, 0.000743895, -0.000713463, -0.000703273, 0.000401409, 0.000401409, 0.000401409
9392, 1,0.000605035, -0.000271932, 0.000226937, 0.348583, -21.3249, 0.00225507, 20.3149, 115.918, 0, 0.00138585, 0.000786934, 0.000974174, 0.477181, 49.356, 0, 0.00138734, 0.000423175, 0.000520586, 0.222711, 26.5965, 0, 0.00138786, -0.107032, -69.8065, -78.1544, -0.163949, -38.0299, -41.5955, 0.000775016, -0.000700231, -0.000875696, 0.00041556, 0.00041556, 0.00041556
9393, 1,0.000633802, -0.000303471, 0.000248831, 1.06936, -22.9644, 0.00258978, 27.645, 127.334, 0, 0.00134034, 0.000827985, 0.00105078, 1.63161, 50.4177, 0, 0.00134201, 0.000439629, 0.000553309, 0.507993, 27.2605, 0, 0.00134251, 1.39748, -64.666, -87.9845, 0.360609, -34.8459, -47.2961, 0.000823225, -0.000575497, -0.00106586, 0.000436763, 0.000436763, 0.000436763
9394, 1,0.000613974, -0.000298935, 0.000242148, 2.19613, -22.6218, 0.00233513, 65.5135, 60.2359, 0, 0.00127887, 0.000799104, 0.00104012, 2.46437, 47.4215, 0, 0.00127913, 0.00042905, 0.000556205, 1.93682, 24.6146, 0, 0.00127961, 1.72591, -51.8436, -92.1468, 1.3923, -26.4824, -48.7536, 0.000783073, -0.000351883, -0.0012007, 0.00041704, 0.00041704, 0.00041704
9395, 1,0.000535343, -0.000274544, 0.00021604, -1.20577, -21.3187, 0.0016219, 1.53133, 100.837, 0, 0.00124497, 0.000692665, 0.000910259, -2.09817, 46.7507, 0, 0.00124606, 0.000378215, 0.000481099, -0.305924, 24.352, 0, 0.00124651, -2.51163, -51.2436, -86.4969, -0.52486, -28.3495, -44.1816, 0.000683234, -0.000348045, -0.00109381, 0.000372765, 0.000372765, 0.000372765
9396, 1,0.00121365, -0.000927247, 0.000645238, -6.954, -63.0491, 0.00443923, 10.4467, 267.838, 0, 0.000834765, 0.00157686, 0.00281082, -9.01309, 112.249, 0, 0.000836875, 0.000850451, 0.00152038, -4.89382, 60.5903, 0, 0.000837577, -10.1589, -271.641, -54.947, -5.55858, -146.979, -29.2337, 0.00155309, -0.00397949, 0.000604818, 0.000836955, 0.000836955, 0.000836955
9397, 1,0.00120304, -0.000867152, 0.00061675, -6.96832, -60.0886, 0.00484119, 27.2756, 270.768, 0, 0.000976689, 0.00156937, 0.00267113, -8.75462, 111.439, 0, 0.000979218, 0.000836727, 0.00143773, -5.1817, 60.1091, 0, 0.000980034, -9.37106, -227.474, -97.4714, -5.47766, -123.174, -51.6759, 0.00155676, -0.00305544, -0.000309723, 0.00083093, 0.00083093, 0.00083093
9398, 1,0.00128677, -0.000936898, 0.000658971, -4.9289, -64.4535, 0.00592826, 59.7887, 281.406, 0.0064826, 0.000947441, 0.00166771, 0.0028577, -7.08786, 115.463, 0, 0.000950012, 0.000905933, 0.00154041, -2.76358, 61.275, 0, 0.000950847, -7.71649, -168.158, -170.514, -3.21296, -91.3621, -89.2498, 0.00165486, -0.00173267, -0.00179583, 0.000897034, 0.000897034, 0.000897034
9399, 1,0.00131789, -0.001105, 0.000750244, -14.6526, -74.7354, 0.00846294, -121.213, 405.644, 0.174051, 0.00089932, 0.00170629, 0.00327823, -18.7996, 133.636, 0, 0.000903938, 0.000935399, 0.00179474, -10.2065, 73.1908, 0, 0.000904825, -21.0893, -109.063, -270.754, -13.3193, -60.3798, -145.873, 0.00165861, -0.000188625, -0.00363844, 0.000871491, 0.000871491, 0.000871491
9400, 1,0.0012365, -0.001205, 0.000798785, -23.9092, -80.3989, 0.0171171, -105.664, 438.031, 0.404351, 0.000869294, 0.00161663, 0.00339365, -29.2988, 141.685, 0, 0.000875295, 0.000864298, 0.00181415, -18.145, 78.7704, 0, 0.000876189, -32.4381, -62.154, -330.462, -22.6151, -34.9657, -178.73, 0.00154619, 0.000941644, -0.00478684, 0.000763895, 0.000763895, 0.000763895
9401, 1,0.00169154, 0.000507078, 0.000416293, 94.9087, 28.1407, 0.00498525, 252.948, -23.239, 0, 0.000736585, 0.00219818, 0.00180161, 123.024, -25.5873, 0, 0.000736614, 0.00118529, 0.000970055, 66.8154, -14.3782, 0, 0.00073648, 1.07967, -1.436, 77.1181, 1.25293, 0.920577, 40.9611, -0.00037838, -0.000437701, 0.00123126, -0.000198252, -0.000198252, -0.000198252
9402, 1,0.00141954, 0.000428742, 0.000340594, 80.7108, 24.4235, 0.00410852, 227.052, -44.1279, 0, 0.000706992, 0.00184826, 0.00146869, 105.132, -23.8281, 0, 0.000706759, 0.000990843, 0.000787694, 56.2908, -12.6557, 0, 0.000706631, -0.0176601, 14.1114, 57.3906, -0.257268, 7.77054, 30.4538, -0.000374398, -8.00517E-05, 0.000841098, -0.000203537, -0.000203537, -0.000203537
9403, 1,0.0007016, 0.000209785, 0.000149061, 39.373, 11.7774, 0.00214007, 121.388, -27.1881, 0, 0.00102145, 0.000911304, 0.000645311, 51.1468, -10.8336, 0, 0.00102118, 0.000491964, 0.000348307, 27.6022, -5.8293, 0, 0.0010211, -9.57409, 37.9798, 4.09502, -5.26476, 20.6268, 2.12584, -0.000372914, 0.000631724, -8.29935E-05, -0.000202922, -0.000202922, -0.000202922
9404, 1,0.00114138, 0.000343081, 0.000271478, 64.3085, 19.3169, 0.00346828, 195.162, -41.9574, 0, 0.00100133, 0.00148444, 0.00117211, 83.6238, -18.0609, 0, 0.00100094, 0.000798341, 0.000629283, 44.9944, -9.72873, 0, 0.00100081, -2.28529, 30.2649, 26.2031, -1.34675, 16.7021, 13.8308, -0.000332142, 0.000353223, 0.000272, -0.000181062, -0.000181062, -0.000181062
9405, 1,0.000347736, 0.000102065, 9.36227E-05, 17.7133, 5.19374, 0.00102616, 53.5279, -6.74507, 0, 0.000848842, 0.000449751, 0.000412643, 22.905, -2.19362, 0, 0.00084878, 0.000245764, 0.000225614, 12.5232, -1.20042, 0, 0.000848766, -14.9384, 11.0037, 10.5156, -8.17558, 6.08459, 5.69226, -0.000349908, 0.000197727, 0.000187783, -0.000191147, -0.000191147, -0.000191147
9406, 1,0.000851124, -0.000387134, 0.000322235, 30.1463, -21.3754, 0.00263167, 85.9156, 51.6701, 0, 0.00138505, 0.00110834, 0.00138547, 39.2256, 17.7048, 0, 0.00138581, 0.000594016, 0.000741839, 21.0729, 9.43783, 0, 0.001386, -0.49999, -18.3531, -34.2614, -0.285991, -9.0275, -19, 0.000268189, -0.000113135, -0.00044235, 0.000142532, 0.000142532, 0.000142532
9407, 1,0.0020841, 0.000625693, 0.000428448, 132.19, 39.8627, 0.00647765, 405.714, -133.765, 0, 0.0006826, 0.00270971, 0.00185332, 172.048, -59.0889, 0, 0.000681774, 0.00145858, 0.000996595, 92.3359, -31.4368, 0, 0.000681468, 8.3839, 170.38, -1.49719, 3.84095, 91.5186, -1.04922, -0.000753299, 0.00267381, -0.000961597, -0.000413891, -0.000413891, -0.000413891
9408, 1,0.00116603, 0.000349516, 0.000243521, 70.5973, 21.2055, 0.00360721, 219.911, -66.3997, 0, 0.000651706, 0.00151543, 0.00105418, 91.7973, -27.0935, 0, 0.000651291, 0.000816735, 0.000567403, 49.4021, -14.5011, 0, 0.000651158, -2.67771, 84.1487, -0.190512, -1.67923, 45.4071, -0.224638, -0.000483316, 0.00135243, -0.00042943, -0.000263867, -0.000263867, -0.000263867
9409, 1,0.00149681, 0.000447504, 0.000356124, 86.3142, 25.7858, 0.00463297, 263.968, -60.4564, 0, 0.000795575, 0.00194428, 0.0015414, 112.098, -27.1444, 0, 0.000795145, 0.00104936, 0.000829331, 60.5314, -14.6888, 0, 0.000794984, 2.96496, 92.4505, -13.9821, 1.40919, 50.1994, -7.54233, -0.000364952, 0.00152684, -0.000721367, -0.000201681, -0.000201681, -0.000201681
9410, 1,0.00147789, 0.00044415, 0.000346322, 87.1415, 26.2783, 0.00508914, 299.888, -79.7536, 0, 0.00087542, 0.001922, 0.00149326, 113.418, -30.3372, 0, 0.000874719, 0.0010338, 0.000800882, 60.8665, -16.1314, 0, 0.000874517, 5.33217, 103.967, -18.2878, 2.35198, 55.9845, -9.94218, -0.000365222, 0.00172116, -0.000863604, -0.000204513, -0.000204513, -0.000204513
9411, 1,0.000593004, -0.000242132, 0.000208536, 23.8683, -12.7977, 0.00213948, 97.5423, 4.79736, 0, 0.000739538, 0.000767934, 0.000903466, 30.7831, 7.40285, 0, 0.000739507, 0.00041808, 0.000486766, 16.9538, 3.76847, 0, 0.000739551, 1.62212, 29.2653, -53.096, 0.761861, 16.1496, -28.2169, 0.000150562, 0.000735732, -0.00100639, 7.51816E-05, 7.51816E-05, 7.51816E-05
9412, 1,0.00151414, 0.000449475, 0.000346564, 89.6359, 26.5902, 0.00577979, 357.622, -113.472, 0, 0.00078981, 0.00196361, 0.00150373, 116.226, -31.4687, 0, 0.00078876, 0.00106466, 0.000810836, 63.0458, -17.1004, 0, 0.000788576, 4.09142, 115.207, -24.8925, 1.83082, 62.4951, -13.0246, -0.000409336, 0.00194194, -0.0010219, -0.000230841, -0.000230841, -0.000230841
9413, 1,0.00267045, 0.000796867, 0.000549363, 169.129, 50.7879, 0.0108811, 483.019, -186.797, 0.072237, 0.000744303, 0.00346728, 0.00239264, 219.915, -75.2976, -5.42101E-20, 0.000742863, 0.00187363, 0.00129399, 118.344, -40.0266, -5.42101E-20, 0.000742438, 12.2304, 219.829, -6.16601, 5.71146, 118.313, -3.94488, -0.00092725, 0.00346541, -0.0013162, -0.000509622, -0.000509622, -0.000509622
9414, 1,0.00241947, 0.000728319, 0.000500464, 154.741, 46.454, 0.00814993, 461.478, -152.958, 0.0158791, 0.000755118, 0.00314779, 0.00215174, 201.194, -70.4346, 0, 0.000754091, 0.00169115, 0.00115115, 108.287, -38.1039, 0, 0.000753695, 12.3033, 200.271, -1.27036, 6.49942, 107.809, 0.00280074, -0.000849088, 0.00312792, -0.00113579, -0.000462665, -0.000462665, -0.000462665
9415, 1,0.00331281, 0.00102301, 0.000698185, 208.811, 64.766, 0.0466415, 514.015, -213.675, 0.743641, 0.000902577, 0.00433567, 0.00295246, 273.576, -91.7945, 0, 0.00089858, 0.00229008, 0.00155909, 144.045, -47.7746, 0, 0.000897938, 7.99678, -2.10662, 269.493, 2.68502, -1.29777, 141.936, -0.00127096, -0.00149734, 0.00425775, -0.000690894, -0.000690894, -0.000690894
9416, 1,0.00369005, 0.00110565, 0.000739107, 237.7, 70.9367, 0.0647519, 569.894, -230.265, 1, 0.000999859, 0.00479467, 0.00324294, 308.542, -109.941, 0, 0.000993211, 0.00258632, 0.00176734, 166.937, -59.8593, 0, 0.000992404, 18.432, 7.86568, 303.524, 12.042, 4.18632, 163.35, -0.00133711, -0.00158677, 0.00470769, -0.000684219, -0.000684219, -0.000684219
9417, 1,0.00073359, -0.000282455, 0.000250392, 31.7134, -14.3554, 0.00412217, 176.585, 24.4587, 0, 0.00101098, 0.000951459, 0.00108386, 41.0072, 5.38743, 0, 0.00101129, 0.000516089, 0.000584836, 22.4367, 2.68948, 0, 0.00101133, 4.36502, -22.1193, 1.59196, 2.39657, -11.2032, 0.73823, 0.000177383, -0.000387414, 0.000122586, 9.32658E-05, 9.32658E-05, 9.32658E-05
9418, 1,0.00107687, 0.000317584, 0.000227357, 70.2039, 19.9987, 0.0271709, 498.558, -199.484, 0.388592, 0.0013015, 0.00139352, 0.000971754, 90.1187, -32.1027, 0, 0.00129681, 0.000761055, 0.000522436, 50.3628, -18.7324, 0, 0.00129653, 8.40655, 4.75783, 83.1439, 5.25716, 5.56436, 45.3756, -0.000326107, -0.00041532, 0.00126228, -0.00018231, -0.00018231, -0.00018231
9419, 1,0.00137712, 0.00041442, 0.000370055, 71.7161, 21.5613, 0.00418457, 215.175, -23.3711, 0, 0.00108268, 0.0017915, 0.00159642, 93.275, -11.5391, 0, 0.00108247, 0.000962762, 0.000856541, 50.1592, -6.23511, 0, 0.00108238, -1.00964, 39.6859, -4.059, -0.61868, 21.8783, -2.55428, -0.00020298, 0.0006545, -0.000264255, -0.000111177, -0.000111177, -0.000111177
9420, 1,0.0011605, -0.000371726, 0.000360365, 54.0529, -17.8672, 0.00369463, 171.034, 4.81528, 0, 0.00119798, 0.00150944, 0.00155373, 70.2472, 1.4766, 0, 0.00119804, 0.000811633, 0.000833406, 37.862, 0.679228, 0, 0.00119806, 1.99133, 30.1968, -36.6179, 1.05079, 16.919, -20.0075, 6.51546E-05, 0.000659466, -0.000748557, 3.2729E-05, 3.2729E-05, 3.2729E-05
9421, 1,0.00160939, 0.000499435, 0.000387008, 91.3553, 29.5385, 0.00710541, 351.083, -20.5452, 0, 0.000891067, 0.00210872, 0.00165717, 120.89, -28.3716, 0, 0.00089118, 0.00111015, 0.000884976, 61.8241, -12.4411, 0, 0.00089095, -0.0664511, -4.6846, 89.8658, -2.90346, -4.72611, 44.9529, -0.000446533, -0.000550344, 0.00145723, -0.000255811, -0.000255811, -0.000255811
9422, 1,0.00169534, 0.000508895, 0.000352042, 106.057, 31.8548, 0.00526638, 329.086, -107.728, 0, 0.000518359, 0.0022041, 0.00152127, 137.905, -45.3188, 0, 0.000517835, 0.00118669, 0.000817396, 74.2143, -24.3516, 0, 0.000517659, 3.98245, 135.503, -3.52936, 1.89857, 73.0103, -1.85407, -0.000629517, 0.0021525, -0.000787531, -0.000343368, -0.000343368, -0.000343368
9423, 1,0.000701719, 0.000209755, 0.000161947, 39.0556, 11.7266, 0.00212188, 116.271, -21.4539, 0, 0.000974377, 0.000911466, 0.000707766, 50.782, -10.3105, 0, 0.000974201, 0.00049198, 0.000383916, 27.3294, -5.44244, 0, 0.000974124, -12.1059, 6.83922, 36.1982, -6.79871, 3.71449, 19.4115, -0.000417129, -1.87716E-05, 0.000603204, -0.000228115, -0.000228115, -0.000228115
9424, 1,0.00132602, 0.000401939, 0.000284928, 79.5635, 24.06, 0.00415559, 243.2, -62.8158, 0, 0.000845503, 0.00172788, 0.00122886, 103.618, -29.4117, 0, 0.000845045, 0.000924227, 0.000659609, 55.5133, -15.8153, 0, 0.000844858, -6.38596, 3.8199, 90.8011, -3.78417, 2.75119, 48.4789, -0.000596077, -0.000383969, 0.00145728, -0.00032687, -0.00032687, -0.00032687
9425, 1,0.0021285, 0.000638315, 0.000436676, 131.681, 39.8068, 0.00701259, 389.722, -78.231, 0, 0.000809152, 0.00276642, 0.00190372, 171.465, -54.5407, 0, 0.000808841, 0.00149091, 0.00103152, 91.9171, -28.6586, 0, 0.000808501, 1.14133, -0.188085, 162.669, -0.131216, -1.18769, 87.2946, -0.000831526, -0.000864991, 0.0025815, -0.000450885, -0.000450885, -0.000450885
9426, 1,0.00170295, 0.000481911, 0.000396846, 90.8097, 26.4914, 0.0228151, 506.011, -218.842, 0.310529, 0.000842274, 0.00218457, 0.00183957, 117.279, -18.4653, -2.71051E-20, 0.000838915, 0.00122156, 0.00104665, 64.3568, -8.51395, -2.71051E-20, 0.00083878, -5.05819, -38.9095, 99.3636, -3.99882, -24.2023, 53.743, -0.000396221, -0.00112058, 0.00181638, -0.000217397, -0.000217397, -0.000217397
9427, 1,0.00289554, 0.00086133, 0.00058831, 185.627, 54.4234, 0.0205907, 475.313, -164.033, 0.259166, 0.000862075, 0.00375639, 0.00252676, 240.023, -83.5433, 0, 0.000860562, 0.0020351, 0.0013657, 131.255, -46.7325, 0, 0.000860048, 9.73976, 10.0476, 230.843, 5.31873, 9.42348, 125.455, -0.00110451, -0.0011058, 0.0035659, -0.000618687, -0.000618687, -0.000618687
9428, 1,0.000658409, -0.000275212, 0.000235953, 26.6919, -14.4168, 0.0023866, 104.289, 11.4255, 0, 0.00121069, 0.000854994, 0.00101806, 34.5746, 7.83971, 0, 0.00121076, 0.000461913, 0.000546685, 18.8136, 4.05602, 0, 0.00121083, 3.58161, 17.2798, -44.3806, 1.86975, 9.90943, -23.9472, 0.00019893, 0.00048805, -0.000814174, 0.00010317, 0.00010317, 0.00010317
9429, 1,0.00138198, 0.000415475, 0.00032701, 78.724, 23.6899, 0.00424245, 241.87, -55.564, 0, 0.000689926, 0.00179741, 0.00141158, 102.411, -23.4484, 0, 0.000689567, 0.000966596, 0.000757705, 55.0389, -12.5574, 0, 0.000689445, -1.02201, 79.1693, -7.80211, -0.761857, 42.8821, -4.44806, -0.000390965, 0.00130353, -0.000532031, -0.000213928, -0.000213928, -0.000213928
9430, 1,0.00137394, 0.000413607, 0.000374482, 72.7097, 21.834, 0.00412684, 215.54, -27.5271, 0, 0.000892523, 0.00178743, 0.00161818, 94.5362, -13.4628, 0, 0.00089232, 0.000960564, 0.000869676, 50.8898, -7.32493, 0, 0.000892231, 4.32271, 13.991, 22.0746, 2.44928, 8.41003, 11.1155, -0.000120031, 7.98981E-05, 0.00025859, -6.3031E-05, -6.3031E-05, -6.3031E-05
9431, 1,0.000641484, -0.000213209, 0.000204708, 3.12939, -18.4586, 0.00220306, 22.8749, 109.165, 0, 0.000834541, 0.000837526, 0.000870819, 4.01364, 47.8124, 0, 0.000835372, 0.000445586, 0.000461675, 2.25328, 25.2914, 0, 0.000835677, 4.01198, -77.2991, -70.1501, 2.23351, -40.8435, -37.2642, 0.000837506, -0.00088256, -0.000730817, 0.000445263, 0.000445263, 0.000445263
9432, 1,0.000650372, -0.000275446, 0.000237562, -0.110554, -22.4703, 0.00240542, 20.143, 125.687, 0, 0.00130247, 0.000849572, 0.00100737, -0.146387, 54.1718, 0, 0.00130398, 0.000451589, 0.000533175, -0.0528712, 28.7793, 0, 0.00130452, -0.147387, -78.9821, -83.3858, -0.0877018, -41.8505, -44.3997, 0.000849543, -0.000818451, -0.000910152, 0.000450969, 0.000450969, 0.000450969
9433, 1,0.000682785, -0.000295012, 0.00025223, 0.860119, -23.3851, 0.0028476, 34.7537, 134.144, 0, 0.00127468, 0.000891174, 0.00108293, 1.26849, 54.9208, 0, 0.00127632, 0.000475286, 0.000582073, 0.497061, 29.5575, 0, 0.00127684, 1.26105, -71.1557, -94.8678, 0.455316, -37.3514, -51.7764, 0.000890976, -0.00064158, -0.0011406, 0.000474545, 0.000474545, 0.000474545
9434, 1,0.000650594, -0.000307318, 0.000251849, 2.23822, -23.8543, 0.0026196, 57.9499, 88.5242, 0, 0.00122088, 0.000845252, 0.00110658, 2.11075, 50.8806, 0, 0.00122163, 0.000457401, 0.000608177, 2.44078, 25.8253, 0, 0.00122213, 2.00131, -53.5025, -101.141, 2.20381, -25.821, -53.8589, 0.000843106, -0.000331724, -0.00133702, 0.00045293, 0.00045293, 0.00045293
9435, 1,0.000542976, -0.000323201, 0.000245691, -5.72216, -24.4556, 0.00189653, -21.2524, 149.028, 0, 0.00119395, 0.000708933, 0.00104189, -7.05723, 54.5566, 0, 0.00119578, 0.000378982, 0.000558321, -4.28598, 29.9071, 0, 0.00119626, -7.67946, -54.1739, -101.816, -5.1273, -30.5481, -54.0459, 0.000696587, -0.000286204, -0.00129567, 0.000362592, 0.000362592, 0.000362592
9436, 1,0.00123694, -0.00100427, 0.00069029, -10.5203, -68.5537, 0.00453367, 0.159226, 287.654, 0, 0.000775767, 0.00161322, 0.00295788, -13.8266, 121.026, 0, 0.000777868, 0.000860673, 0.00157734, -7.21262, 64.3574, 0, 0.000778584, -13.8274, -289.707, -59.5425, -7.21599, -154.359, -31.497, 0.00161321, -0.00422346, 0.000646247, 0.000860629, 0.000860629, 0.000860629
9437, 1,0.00121065, -0.000934044, 0.000656995, -10.8076, -64.7855, 0.0050022, 25.2589, 283.693, 0, 0.000919901, 0.00159011, 0.00278669, -13.5132, 119.159, 0, 0.000922361, 0.000831629, 0.00147389, -8.07814, 63.7028, 0, 0.000923191, -13.5529, -238.466, -105.457, -8.16835, -127.263, -55.6767, 0.00158933, -0.00316606, -0.000356936, 0.000829945, 0.000829945, 0.000829945
9438, 1,0.00130976, -0.000996204, 0.00069387, -6.18785, -68.5307, 0.00633825, 56.3843, 283.651, 0.0191086, 0.000902369, 0.00170025, 0.00297649, -9.17524, 120.358, 3.69301E-08, 0.000904808, 0.00092021, 0.00159159, -3.15077, 62.7451, 3.69301E-08, 0.000905654, -9.25774, -172.254, -179.563, -3.33235, -91.8789, -93.0241, 0.00169865, -0.00174155, -0.00191018, 0.000916846, 0.000916846, 0.000916846
9439, 1,0.001191, -0.0011448, 0.000766454, -23.0477, -77.5284, 0.0088088, -129.964, 411.573, 0.193488, 0.000857974, 0.00157321, 0.0032696, -28.3827, 138.151, 0, 0.000862487, 0.000817592, 0.00175119, -17.2833, 75.2577, 0, 0.000863367, -29.5158, -111.688, -273.249, -19.3327, -62.0882, -144.352, 0.00154901, -0.000171906, -0.00361882, 0.00077438, 0.00077438, 0.00077438
9440, 1,0.00137683, -0.00123648, 0.000814132, -17.1554, -82.4476, 0.0181395, -99.0575, 431.372, 0.433738, 0.000831251, 0.00175745, 0.00361916, -23.1292, 142.874, 0, 0.00083702, 0.00100119, 0.00200467, -10.9534, 78.4585, 0, 0.000837896, -26.933, -58.8676, -342.822, -15.9537, -32.0374, -187.384, 0.00167692, 0.00103063, -0.00502584, 0.000895543, 0.000895543, 0.000895543
9441, 1,0.00182567, 0.000544106, 0.000461102, 98.4918, 29.441, 0.00631291, 334.038, -47.8828, 0, 0.000715377, 0.00236952, 0.00200667, 127.917, -21.3268, 0, 0.000715069, 0.00128206, 0.00108524, 69.08, -11.326, 0, 0.000714953, -2.20375, -1.43195, 67.6162, -1.55273, 0.286575, 35.2441, -0.000381517, -0.000371491, 0.00109905, -0.00021033, -0.00021033, -0.00021033
9442, 1,0.00157234, 0.000476819, 0.000393334, 87.481, 26.595, 0.00525719, 291.894, -58.3216, 0, 0.000687132, 0.00204899, 0.00169412, 114.066, -23.1057, 0, 0.00068674, 0.00109583, 0.000907958, 60.9047, -12.2045, 0, 0.000686618, 1.35584, 15.3669, 52.5943, 0.668547, 8.73102, 27.214, -0.000334622, -4.27477E-05, 0.000752293, -0.000177536, -0.000177536, -0.000177536
9443, 1,0.00078966, 0.000237167, 0.000174687, 45.6801, 13.6933, 0.00255677, 148.38, -36.9999, 0, 0.000984587, 0.00102678, 0.000754644, 59.3707, -14.5574, 0, 0.000984228, 0.000552575, 0.000405395, 31.9919, -7.88374, 0, 0.000984122, -3.53458, 42.5685, 4.6384, -1.88968, 23.2663, 2.27464, -0.000304031, 0.000669872, -0.000129598, -0.00016413, -0.00016413, -0.00016413
9444, 1,0.00130246, 0.000393913, 0.000322317, 72.4781, 21.9169, 0.00435851, 243.952, -50.9903, 0, 0.000971827, 0.00169624, 0.00138705, 94.3872, -19.0839, 0, 0.000971324, 0.000908793, 0.000742816, 50.5759, -10.2221, 0, 0.000971184, -0.28294, 32.4669, 25.0678, -0.161556, 18.0211, 12.8066, -0.000306368, 0.000383191, 0.000232858, -0.000164271, -0.000164271, -0.000164271
9445, 1,0.000353706, 0.000107261, 8.29019E-05, 20.2338, 6.13032, 0.00114519, 66.3384, -16.4046, 0, 0.000840968, 0.000460945, 0.000356296, 26.3629, -6.13907, 0, 0.000840828, 0.000246487, 0.000190546, 14.1059, -3.28941, 0, 0.000840789, -6.68774, 12.8396, 12.2653, -3.61221, 7.04496, 6.43548, -0.00023793, 0.000174312, 0.00016324, -0.000127979, -0.000127979, -0.000127979
9446, 1,0.00106982, -0.000453685, 0.000386504, 40.2023, -24.8322, 0.00421543, 167.877, 42.1348, 0, 0.00134689, 0.00138862, 0.00166953, 51.8799, 18.4964, 0, 0.0013474, 0.000751461, 0.000898146, 28.5489, 9.39443, 0, 0.0013476, -1.52708, -12.2548, -41.7071, -0.314778, -4.33532, -23.5332, 0.000258895, 2.7464E-05, -0.000586491, 0.000141176, 0.000141176, 0.000141176
9447, 1,0.00215, 0.000640577, 0.000437863, 135.136, 40.2122, 0.0067783, 420.745, -134.871, 0, 0.000660884, 0.00279051, 0.00190723, 175.345, -58.3868, 0, 0.000660064, 0.00150954, 0.00103174, 94.9312, -31.6865, 0, 0.000659778, 5.31605, 172.365, -2.5202, 3.0064, 93.4887, -1.43561, -0.00080714, 0.00272667, -0.000971998, -0.000435472, -0.000435472, -0.000435472
9448, 1,0.00126726, 0.000378732, 0.000272135, 77.1161, 23.0079, 0.00408536, 248.666, -74.675, 0, 0.000627196, 0.00164593, 0.00118029, 100.12, -29.9933, 0, 0.000626741, 0.000888633, 0.000636185, 54.1148, -16.2691, 0, 0.000626601, 2.06293, 88.9914, -1.07457, 1.11126, 48.4273, -0.731144, -0.000428768, 0.00140887, -0.000493361, -0.000232747, -0.000232747, -0.000232747
9449, 1,0.00163506, 0.000483446, 0.00039241, 92.7108, 27.2475, 0.00529726, 297.168, -62.8833, 0, 0.000773482, 0.00211838, 0.00170898, 119.951, -26.6417, 0, 0.000773027, 0.00115184, 0.000924603, 65.4764, -14.8237, 0, 0.000772879, 1.80676, 94.7415, -16.6231, 1.09704, 52.3864, -9.01236, -0.000381532, 0.00158289, -0.000768993, -0.000210414, -0.000210414, -0.000210414
9450, 1,0.00154905, 0.000458882, 0.000365482, 89.5989, 26.4631, 0.00547242, 315.938, -76.9831, 0, 0.000862262, 0.00200784, 0.00159034, 116.057, -28.4327, 0, 0.000861583, 0.00109035, 0.000859751, 63.1457, -15.6016, 0, 0.000861404, 3.55103, 103.447, -21.6997, 1.84433, 56.6866, -11.726, -0.00037287, 0.00173997, -0.000905663, -0.000206884, -0.000206884, -0.000206884
9451, 1,0.000609621, -0.000266649, 0.000217993, 22.6059, -14.8361, 0.002229, 91.148, 19.0716, 0, 0.000743426, 0.000778944, 0.000961697, 28.376, 11.3362, 0, 0.000743519, 0.00044031, 0.000525953, 16.8365, 5.3383, 0, 0.000743591, 0.115958, 26.3417, -60.4662, 0.0490606, 15.778, -31.8419, 0.00018069, 0.000735802, -0.00110041, 8.48489E-05, 8.48489E-05, 8.48489E-05
9452, 1,0.00152661, 0.000443693, 0.000348974, 89.1195, 25.6519, 0.0058241, 351.169, -101.989, 0, 0.000788555, 0.0019703, 0.0015372, 114.771, -29.089, 0, 0.000787623, 0.00108294, 0.000839379, 63.4684, -16.5077, 0, 0.000787462, 2.96621, 113.307, -29.0059, 1.92785, 62.7039, -15.1087, -0.000395642, 0.00193918, -0.00107145, -0.000219447, -0.000219447, -0.000219447
9453, 1,0.00269423, 0.000797887, 0.000548199, 168.467, 50.179, 0.0109981, 474.143, -169.317, 0.0723915, 0.000740428, 0.00349211, 0.00239389, 218.645, -72.0152, 2.71051E-20, 0.000739174, 0.00189637, 0.00129773, 118.289, -38.5097, 2.71051E-20, 0.000738773, 5.02364, 218.474, -7.45176, 1.63555, 118.211, -4.31752, -0.00102807, 0.00348841, -0.00129164, -0.000572041, -0.000572041, -0.000572041
9454, 1,0.00247983, 0.000734274, 0.000502762, 156.836, 46.1671, 0.00855692, 460.37, -149.79, 0.023449, 0.000740338, 0.00321408, 0.00219027, 203.002, -68.6543, 0, 0.00073934, 0.00174559, 0.00118478, 110.671, -37.8509, 0, 0.000738971, 7.11769, 201.506, -2.66077, 4.25896, 109.917, -0.622914, -0.000930743, 0.00318198, -0.00113708, -0.000506072, -0.000506072, -0.000506072
9455, 1,0.00295204, 0.000944781, 0.000644244, 185.124, 59.1966, 0.0408766, 485.098, -164.59, 0.631974, 0.000872113, 0.00389635, 0.00263444, 244.271, -80.3707, 0, 0.000869656, 0.00200815, 0.00138355, 126.024, -41.4048, 0, 0.000869106, 0.0265498, 2.56036, 238.525, -2.0799, 3.51972, 122.775, -0.00125751, -0.0012213, 0.00378289, -0.000689736, -0.000689736, -0.000689736
9456, 1,0.00328598, 0.000998545, 0.000666764, 205.566, 63.5698, 0.0578443, 508.307, -191.432, 0.915762, 0.000964125, 0.0042818, 0.00286831, 268.907, -89.3268, 0, 0.000959408, 0.00229253, 0.00154287, 142.421, -45.4677, 0, 0.000958725, 0.0648012, 6.27577, 261.64, -2.87777, 2.85489, 136.426, -0.00140157, -0.00129844, 0.00414937, -0.000774342, -0.000774342, -0.000774342
9457, 1,0.000892356, -0.000338504, 0.000303166, 37.6949, -17.2841, 0.00549329, 232.719, 36.1626, 0, 0.000974702, 0.00116, 0.00132827, 49.0604, 7.78852, 0, 0.000975151, 0.000624869, 0.000722436, 26.3391, 4.34184, 0, 0.000975206, 3.57494, -17.7444, -9.19606, 2.33231, -9.08877, -6.26906, 0.000198455, -0.000258661, -6.61902E-05, 0.000117863, 0.000117863, 0.000117863
9458, 1,0.000790489, 0.000256078, 0.000190451, 48.0551, 15.7306, 0.0224071, 464.569, -146.462, 0.294032, 0.00125205, 0.00104465, 0.000806401, 63.6505, -18.8891, 0, 0.00124888, 0.000538029, 0.000430914, 32.5771, -9.18274, 0, 0.00124868, 5.2517, -0.434176, 51.8498, 3.40981, 0.0154585, 24.123, -0.000184257, -0.000322221, 0.000812943, -7.07046E-05, -7.07046E-05, -7.07046E-05
9459, 1,0.00158908, 0.000476925, 0.000429192, 82.9636, 24.7923, 0.00534275, 279.11, -35.7316, 0, 0.00105157, 0.00206582, 0.0018524, 107.745, -13.5679, 0, 0.00105119, 0.00111249, 0.000994642, 58.1911, -7.52143, 0, 0.00105109, 0.468594, 45.2197, -4.98451, 0.373815, 25.4776, -3.28718, -0.000203856, 0.00073902, -0.000314975, -0.000110661, -0.000110661, -0.000110661
9460, 1,0.00135437, -0.000425278, 0.000414305, 63.3671, -20.476, 0.0048107, 225.632, 2.32918, 0, 0.0011687, 0.0017575, 0.00179144, 82.0449, 1.37613, 0, 0.00116872, 0.000951416, 0.000963578, 44.6992, 0.371019, 0, 0.00116874, 1.21922, 34.7057, -40.0534, 0.722171, 20.1209, -21.9561, 4.72E-05, 0.000752798, -0.000822298, 2.08542E-05, 2.08542E-05, 2.08542E-05
9461, 1,0.00161056, 0.00051437, 0.000416916, 94.0881, 29.2007, 0.00798261, 383.503, -34.8838, 0.00848019, 0.000861774, 0.00212337, 0.00174561, 123.206, -30.5391, 0, 0.000861711, 0.00109918, 0.000916278, 65.0468, -17.4118, 0, 0.000861527, 10.2185, 6.66452, 74.7342, 8.9151, 6.59063, 36.7295, -0.00026325, -0.000345977, 0.00110476, -8.42478E-05, -8.42478E-05, -8.42478E-05
9462, 1,0.00178997, 0.00053333, 0.000370856, 111.058, 33.0902, 0.0057085, 354.248, -113.462, 0, 0.000499489, 0.00232324, 0.00161284, 144.144, -46.1368, 0, 0.000498943, 0.00125677, 0.000871307, 77.9752, -24.9541, 0, 0.000498772, 3.62406, 139.548, -4.76201, 1.805, 75.707, -2.6496, -0.000649996, 0.00222491, -0.000826187, -0.000354845, -0.000354845, -0.000354845
9463, 1,0.000722717, 0.00022086, 0.00016333, 41.6935, 12.7872, 0.00243254, 140.168, -33.8424, 0, 0.000954309, 0.000943526, 0.00070151, 54.4775, -13.2528, 0, 0.00095399, 0.000501954, 0.000375006, 28.9125, -6.94503, 0, 0.000953892, -5.51433, 8.66287, 36.61, -3.18517, 4.79107, 19.2292, -0.000324598, -2.67009E-05, 0.000566346, -0.000175955, -0.000175955, -0.000175955
9464, 1,0.00130944, 0.00040162, 0.000288477, 78.2768, 24.0453, 0.00457949, 277.783, -82.3746, 0, 0.000820838, 0.00171093, 0.00123126, 102.314, -28.7632, 0, 0.000820124, 0.000908061, 0.000654788, 54.2463, -15.1643, 0, 0.000819943, -2.79029, 3.6127, 85.4671, -1.8448, 2.36256, 44.9751, -0.00051057, -0.000378347, 0.00135563, -0.000276379, -0.000276379, -0.000276379
9465, 1,0.00199623, 0.000610971, 0.000421926, 121.753, 37.7833, 0.00734322, 417.047, -93.9683, 0, 0.00078479, 0.00260717, 0.0018141, 159.533, -48.6828, 0, 0.000784213, 0.00138532, 0.000970773, 83.9747, -24.7623, 0, 0.000783909, -1.24912, 0.0853686, 147.212, -2.03991, -1.0207, 77.3476, -0.000790945, -0.000767282, 0.00234815, -0.000430988, -0.000430988, -0.000430988
9466, 1,0.00150631, 0.00045525, 0.00039111, 72.2738, 24.0477, 0.0218991, 479.733, -171.936, 0.286056, 0.000813491, 0.00195995, 0.00171639, 96.2654, -4.68484, 0, 0.000810856, 0.00105398, 0.00093703, 48.3274, 2.07723, 0, 0.000810767, -16.1299, -43.4356, 73.6199, -13.9748, -28.6154, 36.3586, -0.0004115, -0.00100316, 0.00149063, -0.000259918, -0.000259918, -0.000259918
9467, 1,0.0026409, 0.000807873, 0.000552865, 166.969, 50.4175, 0.0196163, 480.581, -170.974, 0.239081, 0.000834397, 0.00344713, 0.00237972, 217.29, -72.7059, 0, 0.000832712, 0.00183612, 0.00127786, 116.734, -39.8705, 0, 0.000832268, 9.032, 3.75583, 205.33, 7.28834, 3.256, 109.067, -0.000948759, -0.00107006, 0.00319855, -0.000468959, -0.000468959, -0.000468959
9468, 1,0.000772853, -0.000319739, 0.000271531, 30.7453, -17.1768, 0.00301817, 128.178, 19.435, 0, 0.00119942, 0.000995955, 0.00118121, 39.2253, 10.5434, 0, 0.00119959, 0.00054994, 0.000638956, 22.2752, 4.99904, 0, 0.0011997, 1.6055, 17.4874, -50.723, 0.91954, 11.1978, -27.1145, 0.000199783, 0.000534808, -0.000905655, 9.79784E-05, 9.79784E-05, 9.79784E-05
9469, 1,0.00153322, 0.00045857, 0.000368554, 86.1272, 25.7027, 0.00495053, 276.913, -57.6883, 0, 0.000666589, 0.00199166, 0.00159482, 111.823, -23.7617, 0, 0.000666222, 0.00107488, 0.000858118, 60.4382, -12.9363, 0, 0.000666105, -1.1904, 82.46, -9.98467, -0.668979, 45.2334, -5.75544, -0.000399593, 0.00136778, -0.000582565, -0.000218078, -0.000218078, -0.000218078
9470, 1,0.00158683, 0.000474735, 0.000437301, 82.1599, 24.6167, 0.00560679, 294.742, -39.9605, 0, 0.000868077, 0.00206124, 0.00189742, 106.758, -12.5098, 0, 0.00086769, 0.00111271, 0.00102381, 57.5778, -6.65882, 0, 0.000867608, 3.49421, 17.4525, 16.5827, 1.76731, 10.6474, 7.56173, -0.000122851, 0.0001673, 0.000158548, -6.72945E-05, -6.72945E-05, -6.72945E-05
9471, 1,0.000625118, -0.000225439, 0.000211803, 0.131106, -19.9832, 0.0020908, 4.03147, 127.343, 0, 0.000769676, 0.000823071, 0.000875329, 0.159276, 52.06, 0, 0.000770617, 0.000427358, 0.000453653, 0.113367, 26.9967, 0, 0.00077093, 0.080569, -79.3169, -76.9436, 0.106786, -40.558, -40.5389, 0.000821305, -0.000858368, -0.000807731, 0.000427169, 0.000427169, 0.000427169
9472, 1,0.000637144, -0.000311949, 0.000254573, -1.35012, -24.7592, 0.00216177, -0.638436, 138.124, 0, 0.00122216, 0.000834221, 0.00107143, -2.04874, 55.7318, 0, 0.0012238, 0.000440173, 0.000563144, -0.64546, 28.8251, 0, 0.00122433, -2.32665, -75.6607, -89.208, -0.73389, -38.5772, -47.1642, 0.000828146, -0.000723788, -0.00100872, 0.000438115, 0.000438115, 0.000438115
9473, 1,0.000628859, -0.000345444, 0.000272908, -2.56206, -25.8503, 0.00238042, 8.35185, 139.941, 0, 0.00121067, 0.000829143, 0.00116519, -2.6159, 56.1754, 0, 0.00121232, 0.000428648, 0.000621219, -2.50386, 30.5925, 0, 0.00121282, -3.19511, -64.6743, -100.657, -2.73623, -33.2719, -55.7694, 0.000816625, -0.000485409, -0.00124277, 0.000423441, 0.000423441, 0.000423441
9474, 1,0.000562607, -0.000344758, 0.000268549, -3.57557, -25.3788, 0.00314181, 90.3995, 78.0229, 0, 0.00116415, 0.00075482, 0.00117486, -3.56729, 52.7454, 0, 0.00116463, 0.000370592, 0.00063806, -3.57618, 28.3471, 0, 0.00116509, -4.43871, -44.3554, -109.442, -3.93477, -20.1833, -60.9231, 0.000736224, -0.000110499, -0.00148161, 0.000362702, 0.000362702, 0.000362702
9475, 1,0.000533618, -0.000354145, 0.000265783, -10.9655, -26.4467, 0.00225898, -28.7219, 182.132, 0, 0.00114323, 0.000710193, 0.00115047, -12.3247, 61.7272, 0, 0.00114547, 0.000357913, 0.000620247, -9.55974, 35.6563, 0, 0.00114595, -14.2865, -50.83, -120.065, -11.0928, -28.255, -67.6212, 0.000669644, -0.000106345, -0.00156493, 0.000326781, 0.000326781, 0.000326781
9476, 1,0.00128276, -0.00099492, 0.000698307, -5.31863, -67.5092, 0.00442137, -1.45603, 282.689, 0, 0.000718504, 0.00168433, 0.00293698, -6.82798, 116.129, 0, 0.000720448, 0.000881315, 0.00154058, -3.80278, 61.0799, 0, 0.000721092, -7.25325, -280.63, -60.5037, -3.95016, -147.424, -31.8657, 0.00167516, -0.00410853, 0.000548819, 0.000878032, 0.000878032, 0.000878032
9477, 1,0.00133116, -0.000894439, 0.000646793, 1.08896, -61.8552, 0.00464314, 14.3852, 275.494, 0, 0.000865093, 0.0017301, 0.00276244, 0.363474, 109.38, 0, 0.000867428, 0.000932393, 0.00146927, 1.82417, 56.7676, 0, 0.000868169, -0.285412, -222.35, -105.504, 1.56575, -116.899, -54.9691, 0.00171615, -0.0029792, -0.000511935, 0.00092674, 0.00092674, 0.00092674
9478, 1,0.00112413, -0.000939227, 0.000674607, -14.3991, -64.167, 0.00511367, 43.1392, 266.765, 0, 0.000857938, 0.00153393, 0.00272967, -14.8011, 117.319, 0, 0.000860021, 0.000714499, 0.00138106, -13.9871, 64.1927, 0, 0.000860763, -15.6731, -155.917, -180.367, -14.3735, -83.1845, -95.0201, 0.00151537, -0.00144464, -0.00197447, 0.000706274, 0.000706274, 0.000706274
9479, 1,0.00159424, -0.00111943, 0.000776495, 7.3378, -74.3876, 0.00968889, -46.9831, 334.202, 0.189959, 0.000817771, 0.00201988, 0.00349252, 5.97913, 120.33, 0, 0.000821142, 0.00117496, 0.00195852, 9.00939, 62.6457, 0, 0.000821911, 5.22013, -93.9144, -272.296, 7.91723, -50.511, -145.343, 0.00200431, -7.97399E-05, -0.0038771, 0.00115316, 0.00115316, 0.00115316
9480, 1,0.00157574, -0.00123602, 0.000835612, -0.378644, -81.2366, 0.0167771, -54.2522, 349.377, 0.425763, 0.00079434, 0.00200638, 0.00368212, -2.81838, 131.291, 0, 0.000798566, 0.00114805, 0.00202029, 2.21083, 70.0546, 0, 0.00079936, -3.70076, -56.2021, -333.969, 1.50337, -32.0945, -179.573, 0.00198822, 0.000895687, -0.00501423, 0.00113454, 0.00113454, 0.00113454
9481, 1,0.001788, -0.000781657, 0.000649557, 0.0315048, -61.6362, 0.00361082, 21.5224, 200.342, 0, 0.000867977, 0.00230544, 0.00290151, -0.207731, 146.658, 0, 0.000868733, 0.00127057, 0.00160243, 0.271654, 80.3086, 0, 0.000869669, -0.393189, -234.838, -204.744, 0.181841, -128.832, -112.276, 0.00230137, -0.00265876, -0.00202248, 0.00126854, 0.00126854, 0.00126854
9482, 1,0.00122538, -0.000703362, 0.000528131, 0.51379, -50.0061, 0.00242251, 6.33963, 145.292, 0, 0.000958333, 0.00157824, 0.00236508, 0.426472, 99.6311, 0, 0.000959043, 0.000872556, 0.00130895, 0.602994, 54.5885, 0, 0.000959744, 0.348483, -76.1318, -223.11, 0.552512, -41.2043, -123.114, 0.00157654, -4.16849E-05, -0.0031516, 0.000871457, 0.000871457, 0.000871457
9483, 1,0.000998675, -0.000721768, 0.000502845, 12.7432, -44.1664, 0.00193399, 26.3534, 87.389, 0, 0.000996829, 0.00128259, 0.00225464, 16.1068, 59.7954, 0, 0.000997275, 0.000714767, 0.00124902, 9.37996, 32.7804, 0, 0.000997712, 1.66267, 13.742, -194.791, 1.04634, 8.07982, -107.467, 0.000977005, 0.00123246, -0.00317978, 0.0005385, 0.0005385, 0.0005385
9484, 1,0.00135867, -0.000630748, 0.000512086, 45.692, -35.204, 0.0026417, 90.7495, 45.8103, 0, 0.00103135, 0.00175209, 0.00227977, 58.8918, 32.1264, 0, 0.00103157, 0.000965247, 0.00125566, 32.4922, 17.6341, 0, 0.00103182, 1.34052, 55.7121, -153.432, 0.800115, 30.7437, -84.4461, 0.000534395, 0.00168473, -0.00274045, 0.000294727, 0.000294727, 0.000294727
9485, 1,0.00183845, -0.00099547, 0.000753168, 3.66027, -71.4436, 0.00411044, 33.6734, 215.737, 0, 0.00118125, 0.00234806, 0.00349496, 3.35098, 144.595, 0, 0.00118262, 0.0013299, 0.00199065, 4.01932, 79.0466, 0, 0.00118388, 1.68747, -137.531, -297.94, 2.58012, -72.5774, -167.143, 0.00231243, -0.000630931, -0.00402788, 0.00129894, 0.00129894, 0.00129894
9486, 1,0.00108607, -0.000747272, 0.000526302, 7.78945, -48.2022, 0.0022146, 21.2221, 112.101, 0, 0.00108603, 0.00139039, 0.00239523, 9.28747, 75.801, 0, 0.00108667, 0.000782641, 0.00134427, 6.33411, 41.1817, 0, 0.00108728, 7.52635, -25.7676, -209.162, 4.90613, -11.913, -116.538, 0.00135297, 0.000648018, -0.00323103, 0.000752286, 0.000752286, 0.000752286
9487, 1,0.00133557, -0.000706815, 0.000542578, 37.928, -40.8472, 0.00276365, 83.1562, 63.7542, 0, 0.00106734, 0.00171388, 0.0024377, 48.3652, 43.8407, 0, 0.00106768, 0.000957295, 0.00135265, 27.4921, 23.8453, 0, 0.00106803, 2.6924, 24.4072, -158.622, 1.68958, 14.1779, -87.4035, 0.000747373, 0.00120611, -0.0026649, 0.000411239, 0.000411239, 0.000411239
9488, 1,0.00158145, -0.000611412, 0.000535771, 63.5455, -32.1797, 0.00317446, 131.28, 25.1858, 0, 0.00108771, 0.00204156, 0.00237728, 82.0074, 19.4502, 0, 0.00108781, 0.00112135, 0.0013058, 45.0844, 10.6283, 0, 0.00108797, 2.55929, 54.774, -115.684, 1.52152, 30.1534, -63.56, 0.000360408, 0.00146471, -0.00214074, 0.000199515, 0.000199515, 0.000199515
9489, 1,0.00189466, -0.000551774, 0.000551538, 90.5193, 26.3473, 0.00379733, 184.657, -6.97721, 0, 0.00114717, 0.00244589, 0.00244968, 116.863, -1.70486, 0, 0.00114707, 0.00134347, 0.00134674, 64.1785, -0.920531, 0, 0.00114706, 3.3747, 45.8419, -44.102, 2.02152, 25.2611, -24.521, 4.42901E-05, 0.000941906, -0.000958531, 2.80032E-05, 2.80032E-05, 2.80032E-05
9490, 1,0.00209956, 0.000611235, 0.000508971, 116.418, 33.8087, 0.00425747, 237.517, -48.7764, 0, 0.00118392, 0.00271064, 0.00225679, 150.219, -29.7086, 0, 0.00118355, 0.00148861, 0.00123909, 82.6247, -16.4875, 0, 0.0011833, 2.4373, 28.0357, 58.6529, 1.69089, 15.7481, 32.0237, -0.000416699, 0.000124083, 0.000774708, -0.000224287, -0.000224287, -0.000224287
9491, 1,0.00225491, 0.000660245, 0.000454142, 138.789, 40.5634, 0.0047078, 293.319, -95.1483, 0, 0.00120199, 0.00291497, 0.00200727, 179.343, -55.8617, 0, 0.00120122, 0.00159499, 0.00109937, 98.2442, -30.7157, 0, 0.00120073, -2.91445, 7.27564, 163.224, -1.25892, 4.00828, 89.3978, -0.000941382, -0.000726262, 0.00257413, -0.000510323, -0.000510323, -0.000510323
9492, 1,0.00188953, -0.000638141, 0.000590735, 83.495, -31.9335, 0.00419154, 192.658, 7.29944, 0, 0.00114132, 0.00243276, 0.00264003, 107.395, 10.1827, 0, 0.00114126, 0.00134638, 0.00145877, 59.5995, 5.41687, 0, 0.00114135, 5.09625, 33.2828, -68.9272, 3.08272, 18.512, -37.8453, 0.000267882, 0.00086258, -0.0012957, 0.000150203, 0.000150203, 0.000150203
9493, 1,0.00252387, 0.000730625, 0.000614354, 138.524, 40.1403, 0.00517509, 275.51, -41.5666, 0, 0.00118362, 0.00325416, 0.00273101, 178.647, -33.3788, 0, 0.00118347, 0.00179386, 0.00150285, 98.4156, -18.3073, 0, 0.00118318, 1.96841, 25.6277, 72.5402, 0.960588, 14.3576, 39.6035, -0.000484435, 1.41325E-05, 0.00101195, -0.000268426, -0.000268426, -0.000268426
9494, 1,0.00327269, 0.000944081, 0.000644721, 201.63, 58.2734, 0.00693439, 400.216, -97.3976, 0, 0.00120305, 0.0042164, 0.00286372, 259.884, -81.4091, 0, 0.00120274, 0.00232927, 0.00158204, 143.393, -44.7233, 0, 0.00120202, -7.14536, 11.1202, 240.253, -5.39985, 7.47964, 132.09, -0.00143295, -0.00104793, 0.00380192, -0.000818248, -0.000818248, -0.000818248
9495, 1,0.00169243, -0.000707621, 0.000572363, 61.5184, -39.4088, 0.00392454, 141.202, 59.4735, 0, 0.00119313, 0.00212946, 0.0026979, 76.2081, 32.827, 0, 0.00119364, 0.00125544, 0.00155336, 46.8315, 16.7997, 0, 0.00119395, 6.11173, 8.98817, -113.581, 4.168, 8.18669, -62.7537, 0.00064605, 0.000704217, -0.00188296, 0.000352479, 0.000352479, 0.000352479
9496, 1,0.002858, 0.000791089, 0.000676309, 149.974, 42.6772, 0.00731441, 374.9, -39.2808, 0, 0.00120108, 0.00364886, 0.00313703, 192.642, -27.0883, 0, 0.00120084, 0.00206733, 0.00178501, 107.313, -12.881, 0, 0.00120057, -7.08412, 10.8628, 77.4863, -7.07699, 3.78808, 41.9319, -0.000576428, -0.000201659, 0.00121766, -0.000352577, -0.000352577, -0.000352577
9497, 1,0.0045044, 0.00128679, 0.000875152, 272.582, 79.3542, 0.0188516, 465.49, -146.291, 0.222559, 0.00119677, 0.00579093, 0.00402452, 351.93, -104.809, 0, 0.00119556, 0.00321807, 0.00227504, 193.241, -55.0115, 0, 0.0011946, -13.5339, -4.16528, 332.125, -10.3424, -7.13867, 182.515, -0.00193177, -0.00174318, 0.00537571, -0.00108007, -0.00108007, -0.00108007
9498, 1,0.00133217, -0.000808344, 0.00056315, 21.9714, -50.3907, 0.00338283, 61.5944, 132.013, 0, 0.00138207, 0.0016242, 0.00277736, 23.5876, 71.47, 0, 0.00138343, 0.0010493, 0.0016827, 20.7898, 38.7287, 0, 0.00138417, 10.6634, -10.9511, -214.122, 6.23604, 2.22029, -124.642, 0.0013508, 0.000890751, -0.00340131, 0.000741435, 0.000741435, 0.000741435
9499, 1,0.00352127, 0.000820772, 0.000726488, 179.093, 42.214, 0.0177452, 446.443, -122.135, 0.203784, 0.00123558, 0.004341, 0.00379418, 221.266, -21.3459, 0, 0.00123325, 0.00270214, 0.0023426, 136.945, -12.1663, 0, 0.00123307, -20.1764, -7.68015, 91.8943, -16.0397, -4.40462, 56.9433, -0.000760252, -0.000514491, 0.00162113, -0.000528279, -0.000528279, -0.000528279
9500, 1,0.00760047, 0.00172067, 0.00118416, 330.792, 100.122, 0.0448077, 504.394, -193.813, 0.702384, 0.00118775, 0.00931808, 0.00657927, 430.867, -129.362, 0.0448399, 0.00118417, 0.00588457, 0.00422208, 230.759, -68.9752, 0.0434088, 0.00118298, -16.8792, -8.2166, 413.181, -9.85393, -4.09197, 220.871, -0.00344306, -0.00322648, 0.00882261, -0.00228682, -0.00228682, -0.00228682
9501, 1,0.0157048, 0.00260809, 0.0018099, 352.254, 114.162, 0.066563, 594.365, -218.967, 1, 0.00113305, 0.0183081, 0.0133565, 466.386, -159.279, 0.216083, 0.00112729, 0.0131033, 0.0098011, 238.154, -83.6887, 0.194253, 0.00112569, 13.5105, 11.7784, 452.548, 9.87582, 11.0661, 230.124, -0.00722239, -0.00738702, 0.0175485, -0.00548825, -0.00548825, -0.00548825
9502, 1,0.0256971, 0.00398214, 0.00281425, 367.964, 119.042, 0.0719583, 724.69, -243.516, 1, 0.00103534, 0.0296483, 0.022027, 486.905, -188.787, 0.434706, 0.00103028, 0.0217566, 0.0164624, 249.126, -100.762, 0.372471, 0.00102824, 51.4981, 38.4376, 476.425, 33.0208, 27.1632, 242.102, -0.0116576, -0.0130088, 0.028711, -0.00890668, -0.00890668, -0.00890668
9503, 1,0.00453896, 0.000935918, 0.000772303, 261.92, 50.7231, 0.0290075, 477.189, -166.292, 0.424272, 0.0011785, 0.00547311, 0.00426253, 312.587, -74.9018, 0.00095803, 0.00117577, 0.00360575, 0.00272568, 211.283, -56.0485, 0.000476986, 0.00117541, 0.12655, 17.2102, 207.369, 3.03477, 20.7379, 144.373, -0.00118565, -0.000870189, 0.00327194, -0.000820802, -0.000820802, -0.000820802
9504, 1,0.008328, 0.00105505, 0.000757209, 293.326, 62.0397, 0.0312155, 451.264, -123.541, 0.462188, 0.00105023, 0.00937098, 0.00708824, 355.219, -105.787, 0.0715838, 0.00104927, 0.00728832, 0.00559613, 231.51, -66.8383, 0.0715838, 0.00104858, 0.00665667, -6.98154, 324.335, -1.35163, -8.99645, 210.863, -0.00311198, -0.00343289, 0.00833291, -0.00246999, -0.00246999, -0.00246999
9505, 1,0.00185801, -0.00121133, 0.000844893, -19.3716, -82.4332, 0.00401201, -8.62936, 266.308, 0, 0.00127319, 0.002336, 0.00444122, -21.9573, 177.816, 0, 0.00127502, 0.00138036, 0.00275262, -16.7701, 110.166, 0, 0.00127642, -25.3372, -69.4389, -438.672, -19.18, -36.6324, -274.685, 0.00226355, 0.00133281, -0.00648182, 0.00132834, 0.00132834, 0.00132834
9506, 1,0.00255446, -0.0015239, 0.0010529, -19.1182, -103.561, 0.00607196, -6.50249, 344.138, 0.0235321, 0.000981834, 0.00313198, 0.00580417, -23.3318, 230.091, 9.23704E-07, 0.000983726, 0.00198009, 0.00370511, -14.7628, 145.416, 9.23704E-07, 0.000985078, -38.545, -86.2827, -565.447, -26.4857, -49.2036, -360.557, 0.00280877, 0.00181468, -0.0083572, 0.00173036, 0.00173036, 0.00173036
9507, 1,0.00937046, -0.00404832, 0.00270992, -37.2606, -197.092, 0.0304847, -67.9044, 368.952, 0.860607, 0.000718959, 0.0107102, 0.0181907, -48.9448, 315.128, 0.249508, 0.000722982, 0.00803656, 0.0128108, -25.4662, 164.199, 0.226594, 0.000725074, -68.4004, -114.161, -762.823, -40.082, -62.3659, -390.15, 0.00978062, 0.00768608, -0.0234076, 0.00708197, 0.00708197, 0.00708197
9508, 1,0.00504069, -0.00271995, 0.00186773, 2.74501, -169.081, 0.0168417, -69.063, 355.337, 0.451176, 0.000818954, 0.00605447, 0.010263, 2.31927, 263.603, 0.0639508, 0.000821637, 0.00402778, 0.00653653, 3.1986, 139.404, 0.0631099, 0.000823357, 0.361742, -209.412, -581.758, 2.08624, -117.078, -303.22, 0.00599782, 8.71881E-05, -0.0105209, 0.00398906, 0.00398906, 0.00398906
9509, 1,0.00282077, -0.00194454, 0.00137321, 13.9598, -127.531, 0.00715643, 18.243, 272.003, 0.0817733, 0.000763075, 0.00362055, 0.0061764, 16.1303, 208.236, 0, 0.000764027, 0.00202272, 0.00343374, 11.8722, 112.508, 0, 0.000765214, 13.9004, -310.084, -328.525, 10.4501, -171.707, -176.267, 0.00357271, -0.00327427, -0.00367755, 0.00199197, 0.00199197, 0.00199197
9510, 1,0.00236553, -0.00152582, 0.00110531, 17.4911, -99.5098, 0.00476669, 64.6563, 215.786, 0, 0.000576185, 0.00305024, 0.00486979, 22.4529, 163.507, 0, 0.000576674, 0.00168091, 0.00265943, 12.5328, 89.8912, 0, 0.000577363, 21.8797, -413.835, -98.5645, 12.1652, -225.996, -55.8425, 0.00303793, -0.00618079, 0.000489589, 0.00167293, 0.00167293, 0.00167293
9511, 1,0.00200217, -0.000844219, 0.000705559, 15.0416, -63.6728, 0.00449268, 85.1606, 170.842, 0, 0.00089276, 0.00256899, 0.00316856, 18.0557, 138.862, 0, 0.000893223, 0.00143543, 0.00175773, 12.0314, 74.9848, 0, 0.00089415, 18.0022, -255.126, -179.464, 11.9794, -140.067, -96.867, 0.00256788, -0.00321082, -0.00161042, 0.00143439, 0.00143439, 0.00143439
9512, 1,0.0013029, -0.000602394, 0.000488171, 7.81818, -44.4548, 0.00273553, 30.3617, 132.895, 0, 0.000986967, 0.00167677, 0.00216527, 9.50271, 93.6986, 0, 0.000987595, 0.000929114, 0.00118921, 6.13765, 50.7506, 0, 0.000988283, 9.39194, -95.5741, -194.914, 6.03528, -52.2182, -106.069, 0.00167453, -0.000546483, -0.00264852, 0.000927103, 0.000927103, 0.000927103
9513, 1,0.000781833, -0.000628321, 0.000427674, 4.94837, -39.2037, 0.00158238, 14.7965, 80.5889, 0, 0.00102829, 0.00100879, 0.00189107, 6.16642, 55.7665, 0, 0.0010287, 0.000554935, 0.00103591, 3.73362, 30.2197, 0, 0.00102913, 5.88228, -2.59854, -170.583, 3.52763, -1.12206, -93.0645, 0.00100291, 0.000823269, -0.00273112, 0.000550754, 0.000550754, 0.000550754
9514, 1,0.00110784, -0.000555834, 0.000440145, 35.5303, -31.3105, 0.00197841, 60.3643, 44.5175, 0, 0.00106542, 0.0014323, 0.00193915, 45.8235, 29.3783, 0, 0.00106568, 0.000783387, 0.00105894, 25.2371, 15.8342, 0, 0.00106592, 3.4143, 42.9944, -134.544, 2.02976, 23.6864, -73.2189, 0.000535062, 0.00137237, -0.00238416, 0.000292474, 0.000292474, 0.000292474
9515, 1,0.00203368, -0.000983173, 0.000768562, 13.4597, -71.1334, 0.00476304, 51.5835, 233.109, 0, 0.00121165, 0.00258724, 0.00354863, 14.9545, 144.198, 0, 0.0012134, 0.00148043, 0.00201266, 11.9808, 77.922, 0, 0.0012147, 14.7316, -181.991, -265.333, 11.7705, -100.318, -145.219, 0.00258246, -0.00157756, -0.00334484, 0.00147599, 0.00147599, 0.00147599
9516, 1,0.00110348, -0.000615438, 0.000466423, 10.9878, -41.3956, 0.00227097, 30.8619, 102.726, 0, 0.00111671, 0.00142077, 0.00206875, 13.6745, 71.8394, 0, 0.00111727, 0.000786285, 0.00113637, 8.3065, 38.7677, 0, 0.00111787, 13.3291, -51.3204, -177.527, 8.07193, -27.3998, -96.9753, 0.00141349, 4.51687E-05, -0.00262442, 0.000781399, 0.000781399, 0.000781399
9517, 1,0.000943228, -0.000594854, 0.000434798, 22.3637, -34.9274, 0.00161191, 28.6697, 63.8273, 0, 0.00109925, 0.00121796, 0.00191382, 28.5346, 38.9959, 0, 0.0010997, 0.000668496, 0.00104432, 16.193, 20.6891, 0, 0.00110002, 7.20107, 8.76539, -132.954, 4.44992, 5.37107, -71.8882, 0.000766603, 0.000798982, -0.00219838, 0.000420078, 0.000420078, 0.000420078
9518, 1,0.00131246, -0.000537029, 0.000462303, 51.3682, -28.497, 0.00235578, 90.4696, 28.0326, 0, 0.00112176, 0.00170003, 0.00203094, 66.5692, 18.5065, 0, 0.00112193, 0.000924888, 0.00110643, 36.1673, 10.1339, 0, 0.00112209, 3.28437, 42.2439, -101.048, 1.80464, 22.9582, -55.1646, 0.000361011, 0.0011848, -0.00184612, 0.000197851, 0.000197851, 0.000197851
9519, 1,0.00151428, 0.000456461, 0.000441898, 77.1278, 22.9094, 0.00278849, 129.771, 2.70631, 0, 0.00118405, 0.00197064, 0.00189612, 100.032, -9.26815, 0, 0.00118428, 0.00105801, 0.00101248, 54.2281, -5.67736, 0, 0.00118421, 7.1749, 38.4535, -17.824, 4.45621, 21.2287, -8.65288, 5.72969E-06, 0.000666639, -0.000521971, 4.75426E-06, 4.75426E-06, 4.75426E-06
9520, 1,0.00201651, 0.000590094, 0.000469161, 116.256, 33.917, 0.00329047, 180.246, -33.2328, 0, 0.00122323, 0.00260638, 0.00207059, 150.161, -36.247, 0, 0.00122329, 0.00142684, 0.0011326, 82.3604, -20.05, 0, 0.00122296, 4.41998, 23.4579, 80.863, 2.75207, 12.8316, 44.5664, -0.000477458, -7.56287E-05, 0.00114128, -0.000257666, -0.000257666, -0.000257666
9521, 1,0.00229796, 0.000691956, 0.000475715, 140.536, 42.5521, 0.0043708, 263.379, -76.325, 0, 0.00124303, 0.00298985, 0.00206828, 183.084, -56.129, 0, 0.00124263, 0.00160611, 0.00111711, 97.9903, -29.6663, 0, 0.00124209, -8.79036, 4.79779, 172.379, -5.63697, 2.3004, 92.3354, -0.00106964, -0.000782913, 0.00276338, -0.000586137, -0.000586137, -0.000586137
9522, 1,0.0013972, -0.000507719, 0.000465371, 60.7804, -25.4145, 0.00269855, 110.832, 22.4326, 0, 0.00117882, 0.00182015, 0.00200563, 79.3511, 8.96063, 0, 0.00117908, 0.000974318, 0.0010752, 42.2123, 5.14839, 0, 0.00117915, 4.28505, 13.8827, -45.0496, 1.90955, 6.46944, -23.8242, 0.000231754, 0.000433208, -0.000810368, 0.000121447, 0.000121447, 0.000121447
9523, 1,0.00216303, 0.000651348, 0.000527299, 121.104, 36.6131, 0.00388539, 191.719, -10.8906, 0, 0.00122351, 0.00281429, 0.00227095, 157.712, -33.18, 0, 0.00122395, 0.00151185, 0.00121741, 84.4986, -17.5179, 0, 0.00122364, -1.3649, 11.6998, 89.2052, -1.59601, 5.87961, 48.2702, -0.000551384, -0.000276988, 0.00136679, -0.000309618, -0.000309618, -0.000309618
9524, 1,0.00331093, 0.000987175, 0.000673745, 204.018, 60.9586, 0.00652139, 365.933, -77.5674, 0, 0.00124503, 0.00429807, 0.00296107, 264.975, -83.0641, 0, 0.00124514, 0.00232382, 0.0016157, 143.063, -44.6353, 0, 0.00124436, -10.6067, 7.0449, 252.754, -7.27632, 4.93285, 136.249, -0.001532, -0.0011601, 0.00404001, -0.000856299, -0.000856299, -0.000856299
9525, 1,0.000989767, -0.000541646, 0.000404383, 28.6756, -31.5764, 0.00214499, 47.1422, 72.8394, 0, 0.00123284, 0.00125662, 0.00182151, 35.3116, 32.3524, 0, 0.00123365, 0.0007231, 0.00101357, 22.0474, 16.2928, 0, 0.00123397, 5.73729, -21.6139, -81.1807, 3.38823, -10.2022, -42.0645, 0.000630967, 4.99752E-05, -0.00120593, 0.000328326, 0.000328326, 0.000328326
9526, 1,0.00230699, 0.000658504, 0.000542012, 118.644, 35.9471, 0.00661928, 323.084, -13.8163, 0, 0.00124265, 0.0029635, 0.00243243, 154.504, -19.3814, 0, 0.00124276, 0.00165207, 0.00135508, 82.8555, -6.41972, 0, 0.0012425, -21.7143, -18.2672, 98.1258, -19.2195, -15.6312, 54.1099, -0.000764249, -0.000695369, 0.00177413, -0.000507349, -0.000507349, -0.000507349
9527, 1,0.00460178, 0.00133366, 0.000916988, 271.175, 81.6381, 0.0219807, 446.536, -116.516, 0.283453, 0.00123926, 0.00593401, 0.00422478, 352.76, -96.7144, 0, 0.00123842, 0.00327073, 0.0023975, 189.634, -46.7326, 0, 0.00123742, -42.5039, -11.7231, 344.37, -34.7747, -11.0245, 185.997, -0.00241942, -0.00177256, 0.0057614, -0.00146875, -0.00146875, -0.00146875
9528, 1,0.00114058, -0.000584384, 0.000451234, 11.8566, -40.1001, 0.00183585, 0.868041, 115.395, 0, 0.00143062, 0.00145725, 0.00202293, 14.34, 73.2702, 0, 0.0014316, 0.000825097, 0.00112563, 9.43127, 39.7375, 0, 0.00143238, 14.027, -65.413, -168.425, 9.04319, -34.8829, -93.3729, 0.00145065, -0.000231693, -0.00240793, 0.000817071, 0.000817071, 0.000817071
9529, 1,0.00296338, 0.000693579, 0.000580075, 161.91, 35.4475, 0.0190372, 490.956, -192.238, 0.231876, 0.00128148, 0.00365628, 0.00282548, 197.328, -32.6954, 0, 0.00127758, 0.0022709, 0.00166796, 126.51, -25.5441, 0, 0.00127743, -29.3444, -21.9403, 149.371, -18.6914, -3.86203, 99.1856, -0.00113455, -0.000991398, 0.0026565, -0.000796584, -0.000796584, -0.000796584
9530, 1,0.00813966, 0.0018047, 0.00126004, 335.676, 102.912, 0.0543772, 556.574, -277.432, 0.875881, 0.00123615, 0.00994144, 0.00694843, 438.552, -129.949, 0.053936, 0.00122798, 0.00633943, 0.00453485, 232.832, -71.7501, 0.0526567, 0.00122678, -23.5406, -20.3683, 433.757, -6.175, -9.21431, 230.64, -0.00385169, -0.00377939, 0.00980525, -0.00246439, -0.00246439, -0.00246439
9531, 1,0.017938, 0.00304061, 0.00211397, 360.656, 116.557, 0.0717541, 739.758, -263.313, 1, 0.00117595, 0.0209778, 0.0160051, 477.208, -179.142, 0.271199, 0.00116864, 0.0148985, 0.0117783, 244.108, -96.841, 0.235263, 0.00116675, 62.2086, 0.474178, 474.742, 43.5841, 4.19901, 242.74, -0.00661923, -0.0107714, 0.020816, -0.00454602, -0.00454602, -0.00454602
9532, 1,0.0305931, 0.00483085, 0.00351059, 374.258, 122.074, 0.0773365, 883.305, -303.052, 1, 0.00107271, 0.0353998, 0.027474, 496.263, -205.207, 0.546872, 0.00106594, 0.0257947, 0.02051, 252.32, -107.447, 0.45909, 0.00106333, 94.3865, 28.0157, 493.218, 54.3194, 18.057, 249.964, -0.0112512, -0.0190426, 0.0350864, -0.00837113, -0.00837113, -0.00837113
9533, 1,0.00481921, 0.00102445, 0.000756474, 266.379, 57.9601, 0.0317583, 501.036, -203.888, 0.478809, 0.00122578, 0.00583708, 0.00416997, 324.096, -73.5811, 0.00265276, 0.00122171, 0.00380499, 0.00267984, 208.796, -44.74, 0.00164051, 0.00122114, -43.8926, -36.3155, 300.951, -37.7352, -25.2538, 197.209, -0.00214653, -0.00201889, 0.00536121, -0.00154125, -0.00154125, -0.00154125
9534, 1,0.0121824, 0.00149543, 0.0010157, 351.426, 87.5713, 0.034042, 440.85, -109.304, 0.516268, 0.0010895, 0.0136715, 0.0101352, 438.969, -178.992, 0.144615, 0.00109023, 0.0106948, 0.00816825, 263.905, -116.443, 0.144615, 0.00108902, 72.7523, 27.7712, 436.453, 60.248, 26.2235, 262.857, -0.00408913, -0.00631766, 0.0135663, -0.00311368, -0.00311368, -0.00311368
9535, 1,0.00167155, -0.00102501, 0.000735288, -13.6682, -73.2198, 0.00380449, 12.3184, 224.984, 0, 0.00132817, 0.0021161, 0.00358864, -17.43, 157.793, 0, 0.00132962, 0.0012277, 0.00212605, -9.87285, 91.2354, 0, 0.00133106, -18.1631, -109.614, -345.601, -10.5374, -61.7294, -201.439, 0.00210047, 0.000172713, -0.00483373, 0.00121358, 0.00121358, 0.00121358
9536, 1,0.00185981, -0.00126137, 0.00085071, -15.3963, -87.3447, 0.0050172, 1.03854, 314.658, 0.00121987, 0.00102486, 0.00228686, 0.00426475, -22.9017, 175.813, 0, 0.00102717, 0.00143995, 0.00258226, -7.56098, 101.363, 0, 0.00102842, -36.4406, -91.7221, -399.276, -20.7908, -50.8259, -232.471, 0.00199769, 0.000853298, -0.00570395, 0.0011563, 0.0011563, 0.0011563
9537, 1,0.0101662, -0.00387025, 0.00253075, -37.4852, -208.611, 0.034095, -83.7645, 454.975, 0.813028, 0.000750808, 0.0113357, 0.0178113, -51.1273, 367.183, 0.213045, 0.000755896, 0.00900355, 0.0127956, -23.6823, 199.075, 0.200776, 0.000758261, -169.41, -126.759, -805.381, -109.44, -70.2258, -417.56, 0.00623951, 0.00819062, -0.0211927, 0.00400143, 0.00400143, 0.00400143
9538, 1,0.00421537, -0.00277871, 0.00187354, -44.5281, -177.649, 0.0191093, -110.78, 451.846, 0.45659, 0.000851106, 0.00512554, 0.00983409, -54.7253, 308.391, 0.0535335, 0.000855099, 0.00336903, 0.00619445, -32.158, 170.62, 0.0529299, 0.000857073, -59.6245, -276.513, -589.036, -42.1544, -159.016, -310.689, 0.00499209, -0.000819856, -0.00933071, 0.00305647, 0.00305647, 0.00305647
9539, 1,0.00310551, -0.00206393, 0.00144546, 24.7167, -135.176, 0.00810468, -27.7538, 310.936, 0.132366, 0.000785608, 0.0039322, 0.00658633, 26.1588, 214.559, 1.00446E-06, 0.000787155, 0.00227902, 0.0036991, 23.2829, 113.452, 9.6718E-07, 0.000788447, 25.8647, -364.481, -305.062, 23.0343, -204.362, -159.027, 0.00392561, -0.00432358, -0.00308375, 0.00227331, 0.00227331, 0.00227331
9540, 1,0.00266473, -0.00164551, 0.00119633, 32.8045, -105.488, 0.00636187, 139.922, 178.019, 0.0164276, 0.000591241, 0.00341176, 0.00534643, 40.3893, 162.37, 0, 0.000591407, 0.00191778, 0.00295396, 25.2242, 87.8892, 0, 0.000592122, 40.3763, -442.188, -85.2985, 25.2215, -241.693, -47.1963, 0.00341145, -0.0067985, 0.000752219, 0.00191773, 0.00191773, 0.00191773
9541, 1,0.00191665, -0.000802049, 0.000671706, 16.8311, -60.0801, 0.00430158, 81.8888, 163.102, 0, 0.000917808, 0.00245795, 0.0030163, 20.2394, 128.871, 0, 0.000918318, 0.0013754, 0.00167324, 13.4256, 69.2917, 0, 0.000919206, 18.5428, -239.03, -166.126, 12.3825, -130.986, -89.2713, 0.00242271, -0.00302762, -0.00148631, 0.00135406, 0.00135406, 0.00135406
9542, 1,0.00123695, -0.000576438, 0.000466068, 8.55205, -42.2594, 0.00263495, 29.8363, 127.212, 0, 0.00101589, 0.00159257, 0.00205576, 10.3436, 87.2226, 0, 0.00101655, 0.000881384, 0.00112385, 6.76415, 46.8778, 0, 0.00101721, 9.35796, -88.2344, -182.791, 6.11487, -48.056, -98.6923, 0.0015722, -0.000493175, -0.00249441, 0.000868202, 0.000868202, 0.000868202
9543, 1,0.000725205, -0.000604889, 0.000408717, 4.63004, -37.4909, 0.00151382, 13.6755, 77.7408, 0, 0.00105983, 0.000937686, 0.00179391, 5.76948, 51.7876, 0, 0.00106028, 0.000512777, 0.000976638, 3.49367, 27.8675, 0, 0.00106069, 5.26717, 0.728018, -161.358, 3.14686, 0.680992, -87.4302, 0.000927364, 0.000830988, -0.00259873, 0.000505802, 0.000505802, 0.000505802
9544, 1,0.00110098, -0.000537845, 0.000430942, 36.5826, -30.1302, 0.00191234, 57.6065, 44.0277, 0, 0.0010995, 0.00142502, 0.00188734, 47.1863, 27.0855, 0, 0.00109981, 0.000776947, 0.00102552, 25.979, 14.4287, 0, 0.00110003, 2.49555, 44.201, -127.953, 1.49714, 24.3333, -69.1166, 0.000479563, 0.00136179, -0.00228087, 0.000259125, 0.000259125, 0.000259125
9545, 1,0.00189219, -0.000936328, 0.00073148, 12.1761, -67.4976, 0.00454244, 50.4171, 220.668, 0, 0.0012431, 0.00241848, 0.00332355, 13.8035, 135.003, 0, 0.00124483, 0.00136617, 0.00186269, 10.5631, 72.5478, 0, 0.00124609, 12.0096, -168.098, -248.919, 9.2605, -92.7635, -134.14, 0.00238135, -0.00142856, -0.00314352, 0.0013396, 0.0013396, 0.0013396
9546, 1,0.00100281, -0.000593852, 0.000444399, 9.30878, -39.3452, 0.00212217, 28.9311, 95.8692, 0, 0.00114771, 0.00129772, 0.00194784, 11.9686, 66.3183, 0, 0.00114826, 0.000707916, 0.00105926, 6.65062, 36.0148, 0, 0.00114883, 11.3782, -43.7954, -166.538, 6.27041, -23.6821, -90.6328, 0.00128559, 0.000117403, -0.00247916, 0.000700282, 0.000700282, 0.000700282
9547, 1,0.000968844, -0.000574194, 0.000428443, 26.2689, -33.2675, 0.00158325, 30.0469, 60.1568, 0, 0.00113118, 0.0012515, 0.00187662, 33.498, 34.4592, 0, 0.00113165, 0.000686209, 0.00101986, 19.0409, 17.9888, 0, 0.00113195, 6.65603, 12.6578, -122.691, 4.10945, 7.54352, -65.6194, 0.000683739, 0.000809871, -0.00205279, 0.000370482, 0.000370482, 0.000370482
9548, 1,0.00132532, -0.00052066, 0.000456502, 53.7302, -27.3056, 0.0023171, 89.2737, 27.1839, 0, 0.0011558, 0.00171766, 0.00199478, 69.5741, 15.5903, 0, 0.00115602, 0.000932996, 0.00108184, 37.8866, 8.34028, 0, 0.00115615, 2.50765, 43.6222, -92.9008, 1.36903, 23.6736, -50.0635, 0.000298711, 0.00116801, -0.00171971, 0.000160452, 0.000160452, 0.000160452
9549, 1,0.00157317, 0.000475118, 0.000447699, 81.8682, 24.3695, 0.00279531, 131.572, 0.72049, 0, 0.00122101, 0.00204817, 0.00191439, 106.233, -12.676, 0, 0.00122128, 0.00109827, 0.00101971, 57.508, -7.53118, 0, 0.00122118, 5.98678, 38.8083, -6.76711, 3.5213, 21.0549, -1.98266, -7.28678E-05, 0.000620422, -0.000341857, -4.39899E-05, -4.39899E-05, -4.39899E-05
9550, 1,0.00215423, 0.000631034, 0.00049083, 125.64, 36.684, 0.00333241, 181.761, -32.6018, 0, 0.00126255, 0.00278522, 0.00216149, 162.322, -41.2322, 0, 0.00126272, 0.00152328, 0.00118002, 88.9588, -22.7994, 0, 0.00126235, 3.28191, 24.4946, 95.9201, 1.9438, 13.3685, 53.0859, -0.000579882, -0.000132274, 0.00138124, -0.000317882, -0.000317882, -0.000317882
9551, 1,0.0024989, 0.000754536, 0.000511201, 154.102, 46.6541, 0.00462868, 281.24, -83.9406, 0, 0.00128433, 0.00325335, 0.00221022, 200.752, -63.1284, 0, 0.00128389, 0.00174452, 0.00118808, 107.457, -33.5906, 0, 0.00128328, -7.78563, 5.33831, 191.833, -4.64641, 2.69263, 102.726, -0.00115888, -0.000881745, 0.00306503, -0.000627258, -0.000627258, -0.000627258
9552, 1,0.00149377, -0.000494113, 0.00046935, 68.9689, -23.9545, 0.00274534, 113.684, 21.5774, 0, 0.00121655, 0.00193803, 0.00203134, 89.3648, 2.99155, 0, 0.00121692, 0.00104978, 0.00109348, 48.5851, 1.3745, 0, 0.00121695, 4.06823, 17.0888, -30.1317, 1.9102, 8.53433, -14.568, 0.000133231, 0.000406966, -0.000588742, 6.21145E-05, 6.21145E-05, 6.21145E-05
9553, 1,0.00232891, 0.000695585, 0.000549246, 132.358, 39.7152, 0.00422351, 208.24, -11.607, 0, 0.00126384, 0.00302426, 0.00237101, 172.063, -39.1406, 0, 0.00126441, 0.00163375, 0.00127318, 92.661, -20.761, 0, 0.00126403, -2.66488, 11.9354, 108.151, -2.74264, 5.54909, 59.4765, -0.000672932, -0.000365977, 0.00167406, -0.000385112, -0.000385112, -0.000385112
9554, 1,0.00350538, 0.00105961, 0.000714601, 214.555, 65.7022, 0.00701894, 384.368, -70.7369, 0, 0.001287, 0.00456466, 0.00312574, 280.241, -86.6559, 0, 0.00128733, 0.00244637, 0.00170086, 148.884, -44.6792, 0, 0.00128645, -14.8143, 4.01611, 270.766, -11.6822, 1.75115, 143.969, -0.00167838, -0.00128074, 0.00436531, -0.000951017, -0.000951017, -0.000951017
9555, 1,0.00110135, -0.000530169, 0.000414962, 39.8947, -29.8606, 0.00242976, 63.2066, 69.35, 0, 0.00127342, 0.00140074, 0.00184938, 49.2423, 22.7714, 0, 0.00127438, 0.00080224, 0.0010205, 30.56, 9.86484, 0, 0.00127465, 7.93032, -15.2339, -61.0108, 5.70491, -6.23703, -29.0624, 0.000526405, 3.39547E-05, -0.000929878, 0.00027606, 0.00027606, 0.00027606
9556, 1,0.00244461, 0.000715006, 0.000572117, 130.237, 39.7047, 0.00817245, 386.52, -28.7888, 0.00889126, 0.00128505, 0.00315601, 0.00249446, 169.773, -27.69, 0, 0.00128502, 0.00173613, 0.00135842, 90.8379, -11.8075, 0, 0.00128469, -20.1265, -16.8573, 120.054, -17.0737, -13.9148, 66.4109, -0.000862376, -0.000796748, 0.00210846, -0.000547662, -0.000547662, -0.000547662
9557, 1,0.00473554, 0.00140978, 0.000959687, 280.775, 86.442, 0.0276614, 471.184, -153.406, 0.394009, 0.00128363, 0.00614286, 0.00430084, 367.119, -102.711, 0, 0.00128167, 0.00333035, 0.00239619, 194.517, -49.4907, 0, 0.00128056, -38.8288, -13.862, 360.824, -30.8604, -12.4336, 191.766, -0.00244002, -0.0019109, 0.00601764, -0.0014333, -0.0014333, -0.0014333
9558, 1,0.00094521, -0.000561933, 0.000424245, 6.56463, -37.4857, 0.00170653, 9.92998, 94.9888, 0, 0.00147956, 0.00123169, 0.00182652, 9.17848, 65.8773, 0, 0.00148026, 0.000658782, 0.000979297, 3.95319, 36.5185, 0, 0.00148096, 8.86465, -58.6767, -147.82, 3.79907, -31.8065, -81.5482, 0.00122531, -0.00020593, -0.00208839, 0.000655769, 0.000655769, 0.000655769
9559, 1,0.00316965, 0.000801505, 0.000646819, 167.264, 42.1015, 0.0237337, 526.198, -246.536, 0.325533, 0.00132751, 0.00396914, 0.00301493, 209.283, -29.0565, 0, 0.00132166, 0.00237153, 0.00173682, 125.301, -17.7348, 0, 0.00132141, -45.5585, -35.4944, 168.222, -33.5199, -16.604, 103.328, -0.00142257, -0.00122456, 0.00311864, -0.000989583, -0.000989583, -0.000989583
9560, 1,0.00900914, 0.00190934, 0.00133001, 344.492, 107.329, 0.0627581, 571.042, -287.36, 1, 0.00128261, 0.0109136, 0.00770427, 451.767, -138.919, 0.0702443, 0.00127213, 0.00710711, 0.00515347, 237.271, -79.0047, 0.0688958, 0.00127084, -10.1683, -22.8137, 449.739, 7.84202, -7.17024, 236.342, -0.00404209, -0.00446751, 0.0108559, -0.00254631, -0.00254631, -0.00254631
9561, 1,0.0207861, 0.00345307, 0.00242115, 357.406, 117.789, 0.0741894, 784.876, -257.558, 1, 0.00121879, 0.0242281, 0.018495, 475.143, -173.538, 0.332757, 0.0012115, 0.0173483, 0.0136787, 239.721, -88.3961, 0.28434, 0.00120938, 54.8136, -7.66017, 473.461, 33.1911, -6.34813, 238.346, -0.00791826, -0.0127337, 0.0241102, -0.00554234, -0.00554234, -0.00554234
9562, 1,0.0332646, 0.00533549, 0.00388807, 375.066, 122.138, 0.0796713, 946.686, -322.891, 1, 0.00111159, 0.0385573, 0.029739, 497.095, -203.759, 0.60289, 0.00110397, 0.0279871, 0.02206, 253.148, -107.612, 0.502061, 0.00110116, 90.5695, 28.0627, 492.645, 53.2812, 19.9863, 249.567, -0.0125635, -0.0205098, 0.0380563, -0.00932731, -0.00932731, -0.00932731
9563, 1,0.00602124, 0.00123967, 0.00089571, 293.861, 70.6134, 0.0342425, 486.788, -180.324, 0.524951, 0.00127167, 0.00725161, 0.00518588, 364.237, -98.8784, 0.0219505, 0.00126848, 0.0047957, 0.00341826, 223.638, -59.4626, 0.0202979, 0.00126766, -22.0823, -25.4269, 344.144, -17.9526, -17.767, 214.107, -0.00250993, -0.00263804, 0.00677239, -0.00177245, -0.00177245, -0.00177245
9564, 1,0.0143685, 0.00178143, 0.00121036, 360.285, 101.597, 0.0362681, 439.022, -101.725, 0.557668, 0.00112914, 0.0161386, 0.012124, 461.84, -184.546, 0.185079, 0.00113021, 0.0126013, 0.00980227, 258.768, -111.243, 0.185079, 0.00112871, 76.2868, 18.5114, 458.841, 58.4154, 17.9742, 257.338, -0.00473722, -0.00791945, 0.0159963, -0.00358417, -0.00358417, -0.00358417
9565, 1,0.00140187, -0.000918232, 0.000661796, -14.2797, -66.1023, 0.00346492, 21.0658, 191.686, 0, 0.00138261, 0.00180707, 0.00300633, -17.8301, 138.671, 0, 0.0013838, 0.000996793, 0.00168997, -10.7213, 77.6776, 0, 0.00138517, -19.0526, -101.087, -295.873, -11.4837, -56.8963, -164.653, 0.00178168, 5.10423E-05, -0.00408297, 0.00098126, 0.00098126, 0.00098126
9566, 1,0.00140679, -0.001048, 0.000718184, -12.8326, -73.7515, 0.00466228, -7.0938, 305.534, 0, 0.001066, 0.0017922, 0.0032505, -18.8151, 138.936, 0, 0.00106888, 0.00102412, 0.00182381, -6.71815, 73.9062, 0, 0.00107001, -27.2104, -85.9556, -303.641, -13.0403, -46.1837, -162.495, 0.00161333, 0.000391431, -0.00425931, 0.000889039, 0.000889039, 0.000889039
9567, 1,0.00944482, -0.00370202, 0.00241729, -46.1099, -207.168, 0.034044, -92.592, 465.443, 0.814529, 0.000781989, 0.0105347, 0.0169183, -60.0901, 373.441, 0.192917, 0.000787527, 0.00836515, 0.0121632, -31.8833, 207.081, 0.184894, 0.000789927, -168.384, -142.008, -809.933, -112.39, -83.5133, -425.34, 0.0061082, 0.00729768, -0.0201971, 0.00394856, 0.00394856, 0.00394856
9568, 1,0.00387544, -0.00266356, 0.00180484, -30.6788, -171.772, 0.0185982, -110.606, 454.367, 0.436571, 0.000883166, 0.00478311, 0.00903872, -38.9978, 292.315, 0.0367706, 0.000887509, 0.00300312, 0.00550404, -21.025, 159.085, 0.0360444, 0.000889471, -50.1457, -254.839, -571.961, -34.3596, -140.706, -302.19, 0.00450504, -0.000629395, -0.00871851, 0.00263402, 0.00263402, 0.00263402
9569, 1,0.00307228, -0.00196011, 0.00138023, 27.8421, -127.829, 0.0080931, -9.24176, 297.807, 0.121736, 0.000808179, 0.0038711, 0.00636248, 30.4009, 204.921, 8.71532E-07, 0.000809683, 0.00227465, 0.00360758, 25.3438, 110.369, 8.71532E-07, 0.000810926, 26.0187, -346.971, -293.811, 21.836, -195.829, -157.115, 0.00377977, -0.00410557, -0.00299952, 0.00220218, 0.00220218, 0.00220218
9570, 1,0.00253798, -0.00154531, 0.00113077, 35.0411, -98.2277, 0.00594739, 141.854, 172.758, 0.0062109, 0.000606352, 0.00325418, 0.00504642, 43.6959, 147.91, 0, 0.000606602, 0.0018218, 0.00278493, 26.3871, 80.216, 0, 0.000607269, 42.3676, -411.967, -74.1321, 25.687, -225.343, -40.9922, 0.00322661, -0.00638683, 0.000760027, 0.00180752, 0.00180752, 0.00180752
9571, 1,0.00146705, -0.000663154, 0.000545206, 2.54029, -51.3262, 0.00309983, 17.7447, 172.974, 0, 0.000943122, 0.00189403, 0.00239409, 2.73466, 116.584, 0, 0.000943986, 0.00104029, 0.00130443, 2.35822, 62.8887, 0, 0.000944809, 1.11825, -186.33, -164.541, 1.20468, -100.841, -89.03, 0.00186052, -0.00210609, -0.00164628, 0.00101672, 0.00101672, 0.00101672
9572, 1,0.000983411, -0.000617336, 0.000453503, 0.459407, -42.9591, 0.00210769, 4.15124, 128.242, 0, 0.00104513, 0.00127297, 0.00199082, 0.362213, 80.3425, 0, 0.00104594, 0.000693936, 0.00108409, 0.561717, 43.3117, 0, 0.00104657, -0.310331, -53.5364, -187.181, 0.0816783, -28.5513, -101.466, 0.00125919, 0.000132621, -0.00269555, 0.000684311, 0.000684311, 0.000684311
9573, 1,0.00101094, -0.000652439, 0.000472788, 20.2677, -39.1106, 0.00183352, 27.8015, 79.0643, 0, 0.00109149, 0.00130408, 0.00208396, 25.8465, 48.0753, 0, 0.00109204, 0.000717811, 0.00113845, 14.6889, 25.8416, 0, 0.00109243, 0.835135, 23.4136, -168.475, 0.542164, 13.3474, -91.4145, 0.000775029, 0.00125251, -0.00280767, 0.000418696, 0.000418696, 0.000418696
9574, 1,0.00132169, -0.000581686, 0.000484395, 47.7713, -31.9929, 0.0023841, 79.0101, 45.2262, 0, 0.00113369, 0.00170879, 0.00212524, 61.5646, 25.7864, 0, 0.00113405, 0.000934601, 0.0011565, 33.9782, 13.6921, 0, 0.00113427, 0.308701, 57.9059, -135.574, 0.215451, 31.9345, -73.2262, 0.000412759, 0.0016313, -0.0024625, 0.000220332, 0.000220332, 0.000220332
9575, 1,0.00144051, -0.000875062, 0.000647817, 0.558531, -61.5331, 0.00343843, 23.3978, 186.871, 0, 0.00127498, 0.00186, 0.00286506, 0.20818, 117.806, 0, 0.0012764, 0.00102188, 0.00157204, 0.952389, 63.598, 0, 0.00127753, -2.96918, -99.9201, -250.528, -1.53876, -53.5283, -135.727, 0.0017937, -0.000257378, -0.00344799, 0.000970295, 0.000970295, 0.000970295
9576, 1,0.000879443, -0.000673256, 0.000457795, 9.68059, -41.5919, 0.00204344, 32.5015, 86.0732, 0, 0.00117915, 0.00112091, 0.00206169, 11.3206, 55.9543, 0, 0.00117972, 0.000638377, 0.00114727, 8.05959, 29.6982, 0, 0.00118023, 7.85374, -3.13161, -172.585, 5.24742, -0.0167316, -94.3253, 0.00104773, 0.000814317, -0.00277003, 0.000579109, 0.000579109, 0.000579109
9577, 1,0.00140333, -0.000642519, 0.000521366, 48.9867, -35.8119, 0.00266933, 86.115, 53.7902, 0, 0.0011632, 0.00180346, 0.00231421, 62.4528, 30.6039, 0, 0.00116364, 0.00100326, 0.00127171, 35.5234, 15.9738, 0, 0.00116392, 1.94782, 34.5002, -128.26, 1.17487, 19.7122, -68.8083, 0.000523308, 0.00121115, -0.00223108, 0.000276563, 0.000276563, 0.000276563
9578, 1,0.00159319, -0.000566111, 0.000516814, 68.7935, -28.8999, 0.00296842, 122.36, 24.088, 0, 0.00118997, 0.00206065, 0.00226276, 88.7417, 11.6163, 0, 0.00119021, 0.00112579, 0.00122934, 48.8475, 5.85449, 0, 0.00119032, 1.53831, 56.7949, -93.1822, 0.920317, 31.048, -49.5317, 0.00021553, 0.00138405, -0.00178808, 0.000111725, 0.000111725, 0.000111725
9579, 1,0.00199664, 0.000587202, 0.000549862, 101.605, 29.7127, 0.00377505, 188.883, -14.0685, 0, 0.00125828, 0.00258372, 0.00240937, 131.313, -12.3615, 0, 0.00125824, 0.00140965, 0.00130999, 71.9018, -7.09325, 0, 0.00125813, 2.26491, 46.186, -11.3664, 1.33655, 24.7427, -4.79951, -0.000146826, 0.000781233, -0.000433813, -8.34965E-05, -8.34965E-05, -8.34965E-05
9580, 1,0.00239472, 0.000710039, 0.000553994, 138.732, 40.9471, 0.00447357, 254.357, -57.677, 0, 0.00130238, 0.00310462, 0.00241744, 179.673, -44.2563, 0, 0.00130209, 0.00168493, 0.00130983, 97.7959, -24.4017, 0, 0.00130167, 1.94074, 27.4185, 103.41, 1.42468, 14.4211, 57.3595, -0.000656044, -0.000118274, 0.00149248, -0.000354277, -0.000354277, -0.000354277
9581, 1,0.00288324, 0.000855745, 0.000574855, 180.339, 53.1789, 0.00561215, 348.929, -112.437, 0, 0.00132588, 0.00373897, 0.00250658, 233.517, -76.3125, 0, 0.0013251, 0.00202753, 0.00136021, 127.161, -42.0954, 0, 0.00132437, -1.01646, 8.72052, 221.233, 0.574969, 5.05852, 120.653, -0.00122347, -0.00101791, 0.00347973, -0.000650916, -0.000650916, -0.000650916
9582, 1,0.00208146, 0.000594516, 0.000589564, 101.644, 28.7179, 0.00420164, 196.949, 2.18105, 0, 0.00125466, 0.00267571, 0.00262509, 130.35, -5.23164, 0, 0.00125482, 0.00148742, 0.00144666, 72.9465, -3.56561, 0, 0.00125478, 3.13059, 37.9733, -25.409, 1.53611, 20.7981, -11.6373, -1.6232E-05, 0.000718893, -0.000617765, -2.37208E-05, -2.37208E-05, -2.37208E-05
9583, 1,0.00294688, 0.000846419, 0.000665591, 166.855, 48.5313, 0.00610423, 323.982, -47.6805, 0, 0.0013047, 0.00379279, 0.00297766, 215.364, -48.5118, 0, 0.00130471, 0.00210137, 0.00164789, 118.365, -25.5983, 0, 0.00130423, -3.56632, 19.3549, 129.747, -4.0352, 8.06239, 72.7676, -0.000839724, -0.000357242, 0.00198418, -0.000488779, -0.000488779, -0.000488779
9584, 1,0.00392638, 0.00117636, 0.00078992, 245.825, 73.1243, 0.0106152, 437.894, -108.675, 0.0608067, 0.00132967, 0.00510261, 0.0034216, 318.944, -104.484, 0, 0.00132949, 0.00275026, 0.00184934, 172.71, -57.3907, 0, 0.00132848, -2.57692, 10.3471, 305.682, -0.830089, 7.01085, 165.991, -0.00170039, -0.00142798, 0.00482386, -0.000921757, -0.000921757, -0.000921757
9585, 1,0.00200109, -0.000653756, 0.000591871, 89.4806, -33.3486, 0.00460026, 181.731, 47.947, 0, 0.00131472, 0.00253094, 0.00272667, 112.073, 10.116, 0, 0.00131553, 0.00147134, 0.00154332, 66.8922, 3.53246, 0, 0.00131567, 3.22309, 21.4505, -55.0216, 1.47544, 14.6781, -26.7509, 0.000227323, 0.000609981, -0.00100146, 8.66805E-05, 8.66805E-05, 8.66805E-05
9586, 1,0.00339266, 0.000954974, 0.000755767, 189.779, 54.1454, 0.0143594, 436.398, -102.636, 0.13345, 0.00132868, 0.00434758, 0.00342432, 243.922, -51.6103, 0, 0.0013274, 0.00243778, 0.00191293, 135.638, -27.4002, 0, 0.00132688, -9.15459, 11.1914, 152.794, -8.12172, 5.42483, 84.8974, -0.00100644, -0.000583465, 0.0024274, -0.000603287, -0.000603287, -0.000603287
9587, 1,0.00563945, 0.00156137, 0.00105741, 316.583, 94.1449, 0.0363939, 496.188, -185.504, 0.553337, 0.00132797, 0.00720052, 0.00498615, 410.72, -121.206, 0.00859481, 0.00132481, 0.00407862, 0.00288357, 222.453, -61.2452, 0.00717172, 0.00132352, -23.9377, -9.44776, 397.003, -21.183, -9.91712, 214.836, -0.00262051, -0.00230338, 0.00690021, -0.00158226, -0.00158226, -0.00158226
9588, 1,0.00150125, -0.00073844, 0.000556205, 41.2606, -42.2735, 0.00446964, 160.843, 67.7252, 0, 0.00152863, 0.00187443, 0.0026531, 51.5241, 49.7666, 0, 0.00152907, 0.00112858, 0.00154257, 31.0236, 29.96, 0, 0.00152956, -1.89269, 1.50661, -148.914, -6.34742, 3.73924, -87.2719, 0.000743969, 0.000811712, -0.00236326, 0.000337823, 0.000337823, 0.000337823
9589, 1,0.00434943, 0.00113127, 0.000897493, 250.991, 62.7422, 0.0292558, 499.947, -199.219, 0.426532, 0.00137108, 0.00547925, 0.00423302, 313.661, -73.4296, 0, 0.0013669, 0.00322062, 0.00244497, 188.371, -48.5273, 0, 0.00136635, -5.6506, 12.1032, 213.836, 0.543843, 15.9542, 129.084, -0.00127411, -0.000929762, 0.00339544, -0.000750803, -0.000750803, -0.000750803
9590, 1,0.0114456, 0.00219283, 0.00152009, 347.92, 111.111, 0.0664234, 604.053, -237.754, 1, 0.00132408, 0.0136348, 0.00967478, 458.996, -148.43, 0.124069, 0.00131597, 0.00925794, 0.006732, 236.878, -81.0792, 0.114455, 0.00131442, -6.73652, 2.79637, 449.229, 2.76167, 9.27748, 231.198, -0.00551243, -0.00514924, 0.0132495, -0.00394331, -0.00394331, -0.00394331
9591, 1,0.0223563, 0.00372213, 0.00259525, 357.592, 117.617, 0.0749119, 798.754, -260.612, 1, 0.00126341, 0.0260493, 0.0191715, 475.088, -169.665, 0.364894, 0.00125571, 0.0186746, 0.0140836, 240.22, -86.7611, 0.308731, 0.00125351, 26.2179, 17.8789, 464.897, 15.7459, 11.4121, 233.125, -0.0105238, -0.0112734, 0.0252544, -0.00779753, -0.00779753, -0.00779753
9592, 1,0.0335234, 0.00539488, 0.00383526, 366.198, 119.929, 0.0806187, 965.001, -323.63, 1, 0.00115269, 0.0388568, 0.0288319, 485.967, -181.807, 0.602118, 0.00114414, 0.0282122, 0.0212725, 246.589, -94.7006, 0.501268, 0.0011415, 42.7998, 27.185, 475.436, 26.6109, 18.625, 238.866, -0.0155822, -0.0176215, 0.0376471, -0.0116024, -0.0116024, -0.0116024
9593, 1,0.00797965, 0.00152407, 0.00111085, 311.993, 85.984, 0.0376151, 466.209, -144.152, 0.583662, 0.00131751, 0.00949282, 0.0069637, 397.8, -111.063, 0.056575, 0.00131539, 0.00647132, 0.00476156, 226.315, -61.7631, 0.0548288, 0.0013143, -6.95396, 9.78328, 330.361, -7.04854, 3.74541, 188.592, -0.00302075, -0.00257627, 0.00745804, -0.00220502, -0.00220502, -0.00220502
9594, 1,0.0145011, 0.00190952, 0.00131182, 348.05, 106.96, 0.0388927, 446.848, -110.196, 0.602416, 0.00116996, 0.0163975, 0.0123098, 454.946, -156.228, 0.183318, 0.00117011, 0.0126086, 0.00974294, 241.212, -84.2255, 0.183311, 0.00116859, 28.7868, 8.80149, 431.095, 21.0162, 3.74063, 227.92, -0.0056332, -0.00676771, 0.015225, -0.00434423, -0.00434423, -0.00434423
9595, 1,0.00119656, -0.000974722, 0.000654738, -11.4565, -65.0087, 0.00311001, 16.6878, 175.07, 0, 0.0014376, 0.00144513, 0.00299878, -18.6333, 116.569, 0, 0.00143897, 0.000957968, 0.00178143, -3.80085, 65.6903, 0, 0.00144016, -29.4239, -32.5182, -287.765, -22.5514, -11.3696, -163.15, 0.00121522, 0.00114688, -0.0042537, 0.00055942, 0.00055942, 0.00055942
9596, 1,0.00133273, -0.000910851, 0.000642214, -2.29491, -63.5118, 0.00409464, -7.87645, 270.542, 0, 0.00110566, 0.00168696, 0.0028269, -5.95334, 114.834, 0, 0.00110845, 0.000993246, 0.00158071, 2.01905, 59.8869, 0, 0.00110944, -24.2449, -49.8524, -270.404, -15.3606, -20.7479, -143.552, 0.00129798, 0.000763485, -0.00392491, 0.000620696, 0.000620696, 0.000620696
9597, 1,0.00796426, -0.00352063, 0.00235581, -36.759, -192.012, 0.0301123, -71.797, 374.814, 0.847411, 0.00081287, 0.00907893, 0.0158208, -47.0853, 307.972, 0.195132, 0.000817706, 0.00686947, 0.0112191, -26.0106, 163.113, 0.186284, 0.000819879, -66.7943, -109.398, -747.725, -42.9909, -61.3526, -384.996, 0.00826356, 0.00655235, -0.0204243, 0.00591252, 0.00591252, 0.00591252
9598, 1,0.00406568, -0.00236071, 0.00163647, 30.6085, -150.068, 0.0164263, -61.9404, 355.861, 0.419775, 0.000915864, 0.00497272, 0.00816815, 30.6471, 227.794, 0.0240836, 0.000919346, 0.00316128, 0.00490637, 30.6797, 115.891, 0.0227203, 0.000921041, 20.8563, -179.803, -524.435, 23.2097, -95.2248, -275.658, 0.00474256, -6.62871E-05, -0.00842311, 0.00297405, 0.00297405, 0.00297405
9599, 1,0.00220806, -0.00162835, 0.00116039, 3.83595, -106.153, 0.00543455, 44.3353, 240.37, 0.0231297, 0.000831415, 0.00289679, 0.0049082, 7.18868, 174.236, 0, 0.00083235, 0.0015225, 0.00259699, 0.637268, 95.7961, 0, 0.00083341, -1.89877, -252.116, -268.692, -6.25603, -137.843, -143.29, 0.00270667, -0.00258515, -0.00294889, 0.0013792, 0.0013792, 0.0013792
9600, 1,0.00199463, -0.00123975, 0.000903133, 24.7351, -79.58, 0.00411594, 65.7032, 173.062, 0, 0.000621939, 0.00256087, 0.00400308, 30.5074, 121.607, 0, 0.000622458, 0.00142862, 0.00219756, 18.9745, 65.2146, 0, 0.000623028, 28.4357, -327.752, -65.5052, 17.5217, -177.659, -35.5063, 0.00251759, -0.00501937, 0.000528424, 0.00139852, 0.00139852, 0.00139852
9601, 1,0.000518445, 0.000148316, 9.90697E-05, 32.6046, 9.3263, 0.00091924, 57.8197, -19.3125, 0, 0.000804252, 0.000666756, 0.000445193, 41.9305, -13.9969, 0, 0.000804183, 0.000370138, 0.000247068, 23.2789, -7.7725, 0, 0.000804101, -0.0925106, 0.235387, 41.8479, -0.0498326, 0.127733, 23.2396, -0.000222353, -0.000215472, 0.000664958, -0.000123419, -0.000123419, -0.000123419
9602, 1,0.000621677, 0.00017841, 0.000122058, 39.0396, 11.1964, 0.00111023, 69.7101, -23.1604, 0, 0.000863624, 0.000800084, 0.000546473, 50.2357, -16.6889, 0, 0.000863534, 0.000443274, 0.000302367, 27.8436, -9.26119, 0, 0.000863429, -1.3792, 1.57009, 49.8757, -0.718914, 0.849746, 27.6528, -0.000291982, -0.000229633, 0.000792431, -0.00016103, -0.00016103, -0.00016103
9603, 1,0.000873294, 0.00025262, 0.000174051, 54.6996, 15.8138, 0.00159033, 99.6593, -32.9127, 0, 0.000981114, 0.00112591, 0.000774398, 70.5131, -23.2421, 0, 0.00098096, 0.000620687, 0.000426311, 38.8865, -12.8317, 0, 0.000980794, -2.67226, 4.06995, 68.3286, -1.40083, 2.17418, 37.7218, -0.000422581, -0.000279967, 0.0010797, -0.000231725, -0.000231725, -0.000231725
9604, 1,0.00135586, 0.000396228, 0.000268795, 84.4719, 24.6317, 0.00253514, 157.84, -51.0861, 0, 0.00113736, 0.00175207, 0.0011865, 109.103, -35.3269, 0, 0.00113707, 0.000959651, 0.000648961, 59.8414, -19.4604, 0, 0.00113678, -3.01542, 6.10585, 102.89, -1.47707, 3.32886, 56.5295, -0.000620206, -0.000427271, 0.00162074, -0.000337777, -0.000337777, -0.000337777
9605, 1,0.00201715, 0.000592256, 0.000398457, 125.168, 36.7722, 0.0038595, 239.729, -77.013, 0, 0.00127013, 0.00260939, 0.00175497, 161.94, -51.8749, 0, 0.00126961, 0.00142493, 0.000958111, 88.3974, -28.2811, 0, 0.00126912, -3.75903, 6.8913, 152.492, -2.08524, 3.5563, 83.3723, -0.000896587, -0.000671404, 0.00240978, -0.000489595, -0.000489595, -0.000489595
9606, 1,0.000151338, 4.51384E-05, 4.20598E-05, 7.9491, 2.25636, 0.000287326, 12.7298, 1.14151, 0, 0.000715781, 0.00019636, 0.00017467, 10.2, -1.23589, 0, 0.000715809, 0.000106424, 9.08937E-05, 5.70324, -0.905225, 0, 0.000715805, -0.153258, 6.45721, -2.59627, -0.0710468, 3.52787, -0.741146, -2.27392E-05, 0.000117146, -7.43517E-05, -1.57934E-05, -1.57934E-05, -1.57934E-05
9607, 1,0.000281925, -0.000162461, 0.000124461, 5.2578, -10.2444, 0.000583456, 8.53696, 25.5758, 0, 0.000703219, 0.000368382, 0.000523109, 6.77759, 14.284, 0, 0.000703348, 0.000195474, 0.000274201, 3.73824, 7.38889, 0, 0.000703427, -8.03697, 4.18724, -39.0022, -4.25385, 2.37149, -20.2843, 5.47403E-05, 0.000313521, -0.000600051, 2.61825E-05, 2.61825E-05, 2.61825E-05
9608, 1,0.00104688, 0.0003141, 0.000254172, 59.5872, 17.8047, 0.0020102, 112.377, -23.3405, 0, 0.000921498, 0.00136097, 0.00109585, 77.3914, -17.5592, 0, 0.000921412, 0.000732794, 0.00058754, 41.7834, -9.60611, 0, 0.000921293, 1.06328, 72.1848, -20.5705, 0.596966, 39.0636, -10.8423, -0.000254164, 0.00125063, -0.000711525, -0.000138774, -0.000138774, -0.000138774
9609, 1,0.00134923, 0.000402858, 0.00028288, 85.1525, 25.4105, 0.00254122, 160.138, -53.7885, 0, 0.00121357, 0.00175209, 0.00122909, 110.563, -37.2905, 0, 0.00121325, 0.000946374, 0.000663349, 59.7421, -20.1724, 0, 0.00121291, 6.98838, 109.948, -5.06455, 3.75861, 59.4197, -2.6612, -0.000439428, 0.00173904, -0.00069449, -0.000238152, -0.000238152, -0.000238152
9610, 1,0.00110203, 0.00032845, 0.000273501, 61.2594, 18.1921, 0.00203835, 111.309, -20.1182, 0, 0.00120601, 0.00143048, 0.00118721, 79.4514, -15.9136, 0, 0.00120592, 0.000773583, 0.000640229, 43.0674, -8.74182, 0, 0.00120578, 1.0038, 75.6426, -28.9055, 0.564916, 41.0249, -15.3644, -0.000229351, 0.00134985, -0.000862267, -0.000125674, -0.000125674, -0.000125674
9611, 1,0.000702229, 0.000211818, 0.000198563, 34.6078, 10.3375, 0.00137031, 65.0122, -0.336101, 0, 0.000958106, 0.000914045, 0.000849277, 44.9453, -2.34641, 0, 0.000958138, 0.000490413, 0.000452158, 24.2705, -1.46841, 0, 0.000958124, -3.2493, 40.5384, -30.2498, -1.72918, 21.9283, -15.7939, -0.000105845, 0.00082068, -0.000676759, -5.98574E-05, -5.98574E-05, -5.98574E-05
9612, 1,0.000919343, 0.000275067, 0.000232672, 49.983, 14.8315, 0.00174481, 92.2299, -13.1232, 0, 0.000601826, 0.00119439, 0.00100283, 64.8137, -11.2388, 0, 0.000601807, 0.00064431, 0.000537556, 35.153, -6.31773, 0, 0.000601759, -1.13706, 43.3212, -8.46779, -0.539284, 23.428, -3.93551, -0.000201131, 0.00073945, -0.000355943, -0.000110979, -0.000110979, -0.000110979
9613, 1,0.000796527, 0.000232355, 0.000155697, 50.1355, 14.5807, 0.00143579, 89.8843, -29.5926, 0, 0.000874765, 0.00102884, 0.000686762, 64.7144, -21.6155, 0, 0.000874651, 0.000564242, 0.000375474, 35.5582, -11.945, 0, 0.000874514, 0.214085, 14.597, 50.0355, 0.192319, 7.88697, 27.7558, -0.000335926, -3.16642E-05, 0.000718352, -0.000184084, -0.000184084, -0.000184084
9614, 1,0.000509443, 0.000145808, 0.000100435, 32.8535, 9.39718, 0.000879405, 56.6598, -20.2835, 0, 0.000788892, 0.000655226, 0.000450879, 42.2494, -15.1574, 0, 0.000788826, 0.000363681, 0.000250048, 23.4585, -8.42405, 0, 0.00078874, -0.366064, 7.18349, 38.6548, -0.17589, 3.88665, 21.5614, -0.000246458, -8.67548E-05, 0.000579177, -0.000136389, -0.000136389, -0.000136389
9615, 1,0.000407865, 0.000118873, 7.99561E-05, 25.8856, 7.47886, 0.000722852, 44.7462, -14.218, 0, 0.000727415, 0.000526639, 0.000355256, 33.3598, -11.3794, 0, 0.000727382, 0.000289174, 0.000195758, 18.4153, -6.37971, 0, 0.000727323, -0.1689, 15.603, 18.704, -0.070996, 8.43952, 10.7706, -0.000182819, 0.000150876, 0.0002166, -0.000102007, -0.000102007, -0.000102007
9616, 1,0.000479064, 0.000144324, 0.000122797, 26.0003, 7.70809, 0.00092616, 47.648, -5.20805, 0, 0.000741908, 0.000623362, 0.00052173, 33.7072, -5.70515, 0, 0.000741914, 0.000334789, 0.000276208, 18.2945, -3.32134, 0, 0.000741885, -1.16704, 27.447, -9.16451, -0.602905, 14.8397, -4.27281, -0.000114619, 0.000490833, -0.000283635, -6.51406E-05, -6.51406E-05, -6.51406E-05
9617, 1,0.00120296, 0.000357948, 0.000345948, 59.0717, 17.4859, 0.00220548, 105.006, -1.03914, 0, 0.00120196, 0.00156091, 0.00150252, 76.5576, -3.74491, 0, 0.00120201, 0.000845015, 0.000810657, 41.5858, -2.21611, 0, 0.00120198, 0.0948722, 72.8842, -61.7444, 0.0634395, 39.5942, -33.0093, -5.69214E-05, 0.00148315, -0.00136545, -3.34943E-05, -3.34943E-05, -3.34943E-05
9618, 1,0.00132619, -0.000462683, 0.000427569, 57.6882, -23.4744, 0.00241123, 99.7987, 19.0203, 0, 0.00123058, 0.00171864, 0.00186382, 74.6288, 8.8611, 0, 0.00123078, 0.000933739, 0.00100872, 40.7478, 4.54281, 0, 0.00123087, 0.293353, 70.8099, -97.6866, 0.188653, 38.6455, -52.4626, 0.000145826, 0.00163778, -0.0019274, 7.56179E-05, 7.56179E-05, 7.56179E-05
9619, 1,0.00155167, -0.000471492, 0.000465886, 73.0318, -22.4974, 0.00287035, 131.215, 5.96519, 0, 0.00125236, 0.00201193, 0.00202786, 94.5704, 0.692597, 0, 0.00125247, 0.00109142, 0.00109617, 51.4938, 0.117768, 0, 0.00125248, 0.466932, 65.2497, -67.7944, 0.268502, 35.4052, -36.027, 2.07935E-05, 0.00139113, -0.00142316, 7.55335E-06, 7.55335E-06, 7.55335E-06
9620, 1,0.00176264, 0.000521545, 0.000463526, 93.4851, 27.5002, 0.00322416, 167.337, -20.0983, 0, 0.00148402, 0.00228412, 0.00201778, 120.982, -17.5073, 0, 0.00148396, 0.00124122, 0.00109093, 65.9903, -9.84605, 0, 0.00148378, 1.31651, 52.3765, -1.17106, 0.703013, 28.2886, 0.546562, -0.000247953, 0.000831789, -0.000299739, -0.000140274, -0.000140274, -0.000140274
9621, 1,0.00116606, 0.000346659, 0.000276954, 66.442, 19.6612, 0.00217221, 122.444, -26.5773, 0, 0.000784734, 0.00151269, 0.00120054, 86.1019, -19.6287, 0, 0.000784645, 0.000819456, 0.000646772, 46.7832, -10.8221, 0, 0.000784533, 0.134543, 42.1042, 16.6475, 0.0312934, 22.7601, 9.67496, -0.000306355, 0.000581476, 4.34004E-05, -0.00016984, -0.00016984, -0.00016984
9622, 1,0.00143159, 0.000427099, 0.000378732, 74.7964, 22.2126, 0.00268597, 138.124, -15.0227, 0, 0.0012084, 0.00185867, 0.00163909, 97.0082, -12.3134, 0, 0.00120835, 0.00100453, 0.000881713, 52.5853, -6.86596, 0, 0.00120824, -2.12904, 54.5273, -15.4581, -1.22051, 29.4617, -7.64332, -0.000239028, 0.000959425, -0.000520584, -0.000134008, -0.000134008, -0.000134008
9623, 1,0.00119794, 0.000359409, 0.000314722, 63.9159, 19.0659, 0.00229573, 119.775, -15.1502, 0, 0.000911725, 0.00155734, 0.00135655, 82.9817, -12.6018, 0, 0.000911687, 0.000838534, 0.000727132, 44.8502, -7.01353, 0, 0.000911604, 0.00222142, 63.5075, -25.7044, 0.0466299, 34.3325, -13.3385, -0.00019849, 0.00114505, -0.00074207, -0.000109535, -0.000109535, -0.000109535
9624, 1,0.00142065, 0.000423446, 0.000397066, 71.9558, 21.3317, 0.0026445, 130.49, -7.39988, 0, 0.00115837, 0.00184409, 0.00172173, 93.2873, -8.24009, 0, 0.00115838, 0.00099722, 0.000927631, 50.6245, -4.69546, 0, 0.00115832, 0.890728, 68.8738, -45.0442, 0.519198, 37.3509, -23.7837, -0.000110937, 0.00132727, -0.00108262, -6.29637E-05, -6.29637E-05, -6.29637E-05
9625, 1,0.00131402, 0.000387301, 0.000284619, 78.3807, 23.0395, 0.00242, 143.899, -39.6678, 0, 0.00119347, 0.00170127, 0.00124489, 101.418, -28.2303, 0, 0.00119325, 0.0009268, 0.000675845, 55.345, -15.5079, 0, 0.00119301, -0.44872, 23.9912, 61.1485, -0.25437, 12.9063, 33.8716, -0.000454182, 6.27335E-05, 0.00084955, -0.000249704, -0.000249704, -0.000249704
9626, 1,0.00184535, 0.000545325, 0.000418987, 107.04, 31.4996, 0.00342492, 197.156, -47.4116, 0, 0.0014869, 0.00239059, 0.00182616, 138.536, -34.328, 0, 0.00148659, 0.00130017, 0.000988423, 75.5475, -18.941, 0, 0.00148622, -1.46537, 27.9771, 76.4721, -0.819128, 15.0609, 42.5813, -0.000571726, 5.06705E-05, 0.00107811, -0.000315726, -0.000315726, -0.000315726
9627, 1,0.000241726, 6.68462E-05, 4.52272E-05, 15.3606, 4.22339, 0.00037262, 23.1352, -7.42191, 0, 0.000740482, 0.000308489, 0.000209248, 19.5801, -6.71793, 0, 0.000740474, 0.000175026, 0.000118948, 11.1441, -3.85879, 0, 0.00074044, -0.0531558, 3.91229, 16.2947, -0.0162363, 2.1359, 9.4567, -0.000106932, -2.30387E-05, 0.000238984, -6.11218E-05, -6.11218E-05, -6.11218E-05
9628, 1,0.000392843, 0.0001108, 7.44965E-05, 24.9379, 7.03251, 0.000657233, 41.6807, -14.2661, 0, 0.000773209, 0.000503636, 0.000338466, 31.97, -10.9725, 0, 0.000773167, 0.000282055, 0.000189491, 17.9061, -6.14722, 0, 0.000773107, 0.0581369, 1.52227, 31.3372, 0.039646, 0.830876, 17.5711, -0.000171558, -0.000140612, 0.000490225, -9.59533E-05, -9.59533E-05, -9.59533E-05
9629, 1,0.00129481, 0.000387673, 0.000337453, 69.6054, 20.7541, 0.0024619, 129.942, -18.2577, 0, 0.00104058, 0.00168249, 0.00145853, 90.3595, -14.5676, 0, 0.00104052, 0.000907141, 0.000783641, 48.8514, -8.03247, 0, 0.00104041, 0.845017, 72.5032, -29.6454, 0.467285, 39.2472, -15.6171, -0.000211572, 0.00130446, -0.000856491, -0.000116632, -0.000116632, -0.000116632
9630, 1,0.000751974, 0.000222504, 0.000163506, 45.522, 13.3677, 0.00138323, 82.0272, -22.3738, 0, 0.0005932, 0.00097443, 0.000710187, 58.8875, -17.243, 0, 0.000593151, 0.000529559, 0.000383331, 32.1585, -9.58045, 0, 0.000593077, 1.05309, 26.4501, 24.2257, 0.653778, 14.3179, 13.7697, -0.000249334, 0.000287963, 0.000241178, -0.000137105, -0.000137105, -0.000137105
9631, 1,0.000414244, 0.000121757, 8.16302E-05, 26.0244, 7.64286, 0.000798633, 50.228, -16.7707, 0, 0.000779061, 0.000536, 0.000358955, 33.6672, -11.197, 0, 0.000778991, 0.000292488, 0.000195696, 18.3816, -6.12308, 0, 0.000778927, 0.0371682, 0.189588, 33.3642, 0.038839, 0.109301, 18.2211, -0.000175456, -0.000172342, 0.000529495, -9.5506E-05, -9.5506E-05, -9.5506E-05
9632, 1,0.000494644, 0.000145661, 0.000102436, 30.5968, 8.99337, 0.000949006, 58.9, -18.8737, 0, 0.000836615, 0.000640305, 0.00044899, 39.5901, -12.5312, 0, 0.000836529, 0.000348984, 0.000244121, 21.6035, -6.86423, 0, 0.000836452, -2.54046, 1.20625, 38.9278, -1.3093, 0.655393, 21.2466, -0.000250983, -0.000171848, 0.000626179, -0.000135678, -0.000135678, -0.000135678
9633, 1,0.000709092, 0.000209872, 0.000148819, 43.9082, 12.9439, 0.00134593, 83.3044, -26.458, 0, 0.000950487, 0.000918963, 0.000648937, 56.852, -18.0279, 0, 0.000950357, 0.000499221, 0.000351324, 30.9644, -9.90031, 0, 0.000950231, -4.09054, 3.78574, 54.3884, -2.01847, 2.108, 29.6114, -0.000370324, -0.000203855, 0.000866722, -0.000198472, -0.000198472, -0.000198472
9634, 1,0.00114795, 0.00034056, 0.000235499, 70.2814, 20.8317, 0.00212074, 131.089, -41.4593, 0, 0.00110187, 0.00148851, 0.00102578, 91.113, -27.8917, 0, 0.00110163, 0.000807396, 0.000555036, 49.4498, -15.1661, 0, 0.0011014, -5.26857, 3.77867, 85.1649, -2.62461, 1.93648, 46.1864, -0.000550584, -0.000359402, 0.00136259, -0.000294217, -0.000294217, -0.000294217
9635, 1,0.0017472, 0.000521752, 0.000355087, 108.255, 32.2357, 0.00320311, 197.653, -62.1611, 0, 0.00123039, 0.00226895, 0.00153942, 140.491, -44.6743, 0, 0.00123004, 0.00122545, 0.000829343, 76.0201, -24.3166, 0, 0.00122963, -4.74456, 5.56421, 133.203, -2.19959, 3.01322, 72.1361, -0.000803814, -0.000586053, 0.00211481, -0.000429343, -0.000429343, -0.000429343
9636, 1,0.000155722, -5.49503E-05, 5.07337E-05, 5.61088, -3.16211, 0.000301787, 9.94032, 5.80677, 0, 0.000693899, 0.000202226, 0.000217852, 7.24361, 3.10835, 0, 0.00069393, 0.000109229, 0.000116469, 3.97867, 1.59006, 0, 0.000693947, -3.14767, 3.64744, -9.82483, -1.67257, 2.00531, -5.10292, -1.76479E-05, 0.000126115, -0.000158907, -1.03487E-05, -1.03487E-05, -1.03487E-05
9637, 1,0.000311492, -0.000167033, 0.000130389, 3.54236, -11.2886, 0.000621423, 6.15261, 31.1896, 0, 0.000688987, 0.000405229, 0.000560881, 4.57813, 19.5783, 0, 0.000689117, 0.000217761, 0.000300202, 2.50691, 10.4582, 0, 0.000689219, -15.1169, 1.2352, -44.8533, -8.09877, 0.723853, -23.9997, -1.15895E-05, 0.000334443, -0.000640557, -6.73583E-06, -6.73583E-06, -6.73583E-06
9638, 1,0.0010263, 0.000306153, 0.000242624, 59.9615, 17.8509, 0.00197788, 114.676, -28.4808, 0, 0.000883047, 0.00133244, 0.0010541, 77.812, -19.9357, 0, 0.000882924, 0.000720156, 0.000568925, 42.1112, -10.8493, 0, 0.000882794, 3.87304, 74.4531, -18.519, 2.1537, 40.3327, -9.93854, -0.000232089, 0.00126125, -0.000705659, -0.000125358, -0.000125358, -0.000125358
9639, 1,0.00141976, 0.000423142, 0.00029893, 92.5109, 27.5583, 0.00272437, 177.565, -65.5716, 0, 0.00117529, 0.0018429, 0.00130189, 120.069, -44.2956, 0, 0.00117489, 0.00099662, 0.000704078, 64.9527, -23.9824, 0, 0.0011745, 15.8601, 119.772, -2.74539, 8.60771, 64.7965, -1.45697, -0.000362046, 0.0018366, -0.000755755, -0.000195564, -0.000195564, -0.000195564
9640, 1,0.00111868, 0.000333298, 0.000270364, 63.9891, 19.0344, 0.00212146, 120.578, -27.2928, 0, 0.00116815, 0.00145198, 0.00117702, 83.0234, -19.3475, 0, 0.001168, 0.000785383, 0.000636354, 44.9547, -10.5281, 0, 0.00116784, 3.17802, 80.3259, -25.4613, 1.75847, 43.5054, -13.6794, -0.000237422, 0.00139487, -0.000843492, -0.000128545, -0.000128545, -0.000128545
9641, 1,0.000679872, 0.000203132, 0.000187997, 32.5283, 9.67598, 0.00131563, 61.8062, 0.499109, 0, 0.000932682, 0.000883002, 0.000814844, 42.2042, -0.634976, 0, 0.000932699, 0.000476745, 0.000438899, 22.8525, -0.431348, 0, 0.000932696, -5.56241, 38.1573, -30.69, -2.9434, 20.6884, -16.451, -0.000127759, 0.000797272, -0.000659208, -6.91366E-05, -6.91366E-05, -6.91366E-05
9642, 1,0.000839459, 0.000250578, 0.000214174, 44.9473, 13.3735, 0.00160349, 85.0174, -12.4069, 0, 0.000583068, 0.00109004, 0.000930673, 58.3207, -9.14125, 0, 0.000583037, 0.000588881, 0.00050235, 31.5738, -5.02791, 0, 0.000582998, -1.21727, 40.5183, -11.8773, -0.560247, 21.9779, -6.33395, -0.000169727, 0.000713202, -0.000395136, -9.10384E-05, -9.10384E-05, -9.10384E-05
9643, 1,0.000660195, 0.000195506, 0.000131864, 40.9061, 12.0827, 0.0012376, 76.8847, -24.712, 0, 0.000847432, 0.000855701, 0.000575111, 52.9888, -16.8556, 0, 0.000847324, 0.000464689, 0.000311872, 28.8234, -9.21741, 0, 0.000847219, -1.07625, 13.2758, 38.3671, -0.446614, 7.21763, 20.8812, -0.000288149, 1.53598E-05, 0.00054631, -0.000154526, -0.000154526, -0.000154526
9644, 1,0.000401641, 0.000117879, 8.18794E-05, 25.671, 7.5164, 0.000750079, 47.8934, -16.7173, 0, 0.000764188, 0.000519519, 0.000359607, 33.1873, -11.5989, 0, 0.000764125, 0.000283764, 0.00019586, 18.1547, -6.37232, 0, 0.00076406, -0.570121, 6.41166, 28.9552, -0.237548, 3.49576, 15.8587, -0.000194651, -4.70377E-05, 0.000429908, -0.000105295, -0.000105295, -0.000105295
9645, 1,0.000350504, 0.000103615, 7.25843E-05, 21.4235, 6.30061, 0.000657068, 39.7258, -11.6505, 0, 0.000704936, 0.000454114, 0.000317271, 27.7238, -8.41225, 0, 0.000704899, 0.0002469, 0.000172196, 15.1234, -4.64092, 0, 0.000704855, -0.108872, 14.0607, 11.2849, 0.00462163, 7.64025, 6.27789, -0.000134754, 0.000164979, 0.000106283, -7.29536E-05, -7.29536E-05, -7.29536E-05
9646, 1,0.000453149, 0.000135285, 0.000119247, 22.9769, 6.81291, 0.000870912, 43.1227, -2.63664, 0, 0.000719133, 0.000588431, 0.000516548, 29.7897, -2.65977, 0, 0.000719133, 0.000317869, 0.000278096, 16.1642, -1.53339, 0, 0.00071912, -2.73634, 24.3103, -13.5947, -1.4143, 13.1889, -7.17447, -9.97987E-05, 0.000472434, -0.000329474, -5.40842E-05, -5.40842E-05, -5.40842E-05
9647, 1,0.00115708, 0.000343981, 0.000327643, 57.7373, 17.1079, 0.00215072, 105.388, -5.02914, 0, 0.00116412, 0.00150106, 0.00142752, 74.8452, -5.24417, 0, 0.00116413, 0.000813102, 0.000772283, 40.6294, -2.95756, 0, 0.00116409, 0.881256, 71.8333, -56.9821, 0.53671, 38.9932, -30.6572, -6.38752E-05, 0.0014373, -0.00128833, -3.51378E-05, -3.51378E-05, -3.51378E-05
9648, 1,0.0012035, -0.000430985, 0.000393712, 51.6271, -21.9937, 0.00218016, 90.5738, 16.7426, 0, 0.00119184, 0.00155994, 0.00171971, 66.8482, 9.23748, 0, 0.00119198, 0.000847062, 0.000932342, 36.4061, 4.87241, 0, 0.00119206, 0.984594, 63.7038, -92.4008, 0.578475, 34.6932, -49.8889, 0.000166431, 0.00149336, -0.00180969, 8.91096E-05, 8.91096E-05, 8.91096E-05
9649, 1,0.00137428, -0.000426387, 0.000417605, 64.586, -20.3739, 0.00249773, 113.089, 6.65785, 0, 0.00121296, 0.00178309, 0.00181687, 83.6849, 0.78717, 0, 0.00121308, 0.000965473, 0.000981717, 45.4874, 0.190283, 0, 0.00121309, 1.96394, 58.6069, -62.9324, 1.21319, 31.7946, -33.5787, 5.40218E-05, 0.00125212, -0.00131891, 2.87497E-05, 2.87497E-05, 2.87497E-05
9650, 1,0.0014152, 0.000429926, 0.000394638, 71.6802, 21.9387, 0.00270709, 138.589, -14.3067, 0, 0.00143725, 0.00184504, 0.00170242, 93.6153, -8.62064, 0, 0.00143712, 0.000985417, 0.00091362, 49.7481, -4.26832, 0, 0.00143701, -0.619939, 43.3799, -16.898, -0.504782, 23.1572, -9.84749, -0.000148797, 0.000781509, -0.000492822, -7.77997E-05, -7.77997E-05, -7.77997E-05
9651, 1,0.00102536, 0.000306045, 0.000248409, 57.9503, 17.2779, 0.00193598, 109.288, -23.9026, 0, 0.000760291, 0.0013314, 0.00108328, 75.228, -16.5301, 0, 0.0007602, 0.000719315, 0.00058652, 40.6727, -8.9698, 0, 0.000760106, 1.58677, 39.384, 8.61953, 1.02993, 21.3679, 4.51155, -0.000226732, 0.000572754, -7.77823E-05, -0.000119439, -0.000119439, -0.000119439
9652, 1,0.00128167, 0.000383151, 0.000340745, 67.4763, 20.1281, 0.00243103, 126.864, -16.0828, 0, 0.00116992, 0.00166481, 0.00148152, 87.604, -11.9878, 0, 0.00116984, 0.000898539, 0.000800099, 47.349, -6.56042, 0, 0.00116974, 0.840969, 53.4076, -18.2853, 0.63551, 29.0022, -9.95646, -0.000170978, 0.000940913, -0.000575406, -8.98398E-05, -8.98398E-05, -8.98398E-05
9653, 1,0.00111867, 0.000333891, 0.000290321, 60.051, 17.886, 0.00214649, 114.399, -17.4023, 0, 0.00088322, 0.00145256, 0.00126222, 77.937, -12.4772, 0, 0.000883149, 0.000784776, 0.000681622, 42.165, -6.81871, 0, 0.000883068, 0.897482, 61.6692, -25.1349, 0.575096, 33.3947, -13.5137, -0.000177531, 0.00110815, -0.000728146, -9.52274E-05, -9.52274E-05, -9.52274E-05
9654, 1,0.00128908, 0.000385843, 0.000360059, 65.2213, 19.5133, 0.00245231, 123.177, -9.77781, 0, 0.00112187, 0.00167492, 0.00156303, 84.7345, -7.49121, 0, 0.00112183, 0.000903243, 0.000842972, 45.7081, -4.05735, 0, 0.00112177, 0.734122, 65.1346, -43.3951, 0.414688, 35.1623, -23.4049, -0.000102403, 0.00125998, -0.00103602, -5.50684E-05, -5.50684E-05, -5.50684E-05
9655, 1,0.00110518, 0.00032905, 0.000245605, 65.2251, 19.3888, 0.00204973, 120.812, -32.1612, 0, 0.00115625, 0.00143423, 0.00107481, 84.6137, -22.609, 0, 0.00115607, 0.000776139, 0.000583718, 45.8367, -12.2983, 0, 0.00115587, 0.184142, 22.0164, 45.6266, 0.354757, 11.9927, 24.5475, -0.000352101, 0.000109522, 0.000609463, -0.000186099, -0.000186099, -0.000186099
9656, 1,0.0015899, 0.000471442, 0.000374707, 88.5489, 26.4873, 0.00280158, 160.558, -37.8203, 0, 0.00144014, 0.00206129, 0.00165485, 115.034, -23.6644, 0, 0.00143981, 0.00111854, 0.000905747, 62.0654, -12.3627, 0, 0.00143955, -2.84524, 21.6338, 52.2046, -1.61181, 11.3345, 27.3655, -0.000432795, 8.44869E-05, 0.000732317, -0.000228694, -0.000228694, -0.000228694
9657, 1,0.000181002, 5.24291E-05, 3.83297E-05, 10.5915, 3.04361, 0.000325646, 18.6453, -4.37251, 0, 0.000717463, 0.000233419, 0.000169614, 13.6345, -3.49663, 0, 0.000717453, 0.000128596, 9.30787E-05, 7.54897, -1.97661, 0, 0.000717435, -0.586641, 2.39121, 8.68532, -0.289995, 1.31573, 4.90408, -6.74388E-05, -4.48769E-06, 0.000128667, -3.72208E-05, -3.72208E-05, -3.72208E-05
9658, 1,0.000297558, 8.67371E-05, 5.85642E-05, 18.7055, 5.4465, 0.000554295, 34.8511, -11.6263, 0, 0.000749001, 0.000384295, 0.00025879, 24.152, -8.04645, 0, 0.000748957, 0.000210821, 0.000141665, 13.2591, -4.42687, 0, 0.000748913, 0.0454076, 0.98984, 23.1041, 0.0451512, 0.544563, 12.6909, -0.000125686, -0.000105792, 0.00036205, -6.86821E-05, -6.86821E-05, -6.86821E-05
9659, 1,0.00123135, 0.000367082, 0.000313128, 67.6405, 20.1265, 0.002354, 128.329, -22.9413, 0, 0.00100302, 0.00159843, 0.00136237, 87.767, -16.4216, 0, 0.00100291, 0.000864266, 0.000736167, 47.5141, -8.95811, 0, 0.00100279, 2.56184, 73.6745, -26.9714, 1.4592, 39.9346, -14.5194, -0.000204418, 0.00130007, -0.000829176, -0.000110192, -0.000110192, -0.000110192
9660, 1,0.000665423, 0.000197373, 0.000148076, 39.284, 11.6196, 0.00124498, 73.1364, -19.2077, 0, 0.000574795, 0.000862795, 0.000647522, 50.9035, -13.6043, 0, 0.000574742, 0.000468053, 0.000351402, 27.6646, -7.44733, 0, 0.000574685, 0.268539, 24.2997, 16.2446, 0.258911, 13.204, 8.87905, -0.000208546, 0.000299784, 0.000129523, -0.000111779, -0.000111779, -0.000111779
9661, 1,0.000327236, 0.000100254, 6.79737E-05, 20.5714, 6.29622, 0.000702393, 44.2304, -14.8234, 0, 0.000753868, 0.000427489, 0.000289691, 26.8676, -8.95162, 0, 0.000753796, 0.000226984, 0.000153747, 14.2753, -4.76537, 0, 0.000753745, -0.0612058, 0.296842, 26.6192, -0.0102545, 0.164968, 14.1414, -0.000142186, -0.000134708, 0.000422155, -7.51739E-05, -7.51739E-05, -7.51739E-05
9662, 1,0.000383227, 0.000117179, 8.40991E-05, 23.5421, 7.18581, 0.000807576, 49.9318, -15.8045, 0, 0.000809591, 0.000500404, 0.000358398, 30.7278, -9.50779, 0, 0.000809508, 0.000266053, 0.000190203, 16.3566, -5.08062, 0, 0.00080945, -2.67482, 1.31066, 29.8875, -1.37694, 0.713084, 15.9057, -0.000206196, -0.00012202, 0.000482502, -0.000109003, -0.000109003, -0.000109003
9663, 1,0.000577323, 0.000175286, 0.000127138, 35.372, 10.694, 0.00115919, 71.2885, -22.1711, 0, 0.000919819, 0.000752591, 0.000543314, 46.0651, -14.1003, 0, 0.000919699, 0.000402071, 0.000289071, 24.6798, -7.62574, 0, 0.000919602, -4.46063, 4.00434, 42.7572, -2.23853, 2.24336, 22.8724, -0.000316252, -0.000137369, 0.00068243, -0.000167254, -0.000167254, -0.000167254
9664, 1,0.000994874, 0.000299167, 0.000210026, 60.2601, 18.1053, 0.00189106, 116.003, -35.7751, 0, 0.00106632, 0.00129401, 0.000903341, 78.3635, -23.1153, 0, 0.00106611, 0.00069577, 0.00048339, 42.1582, -12.4589, 0, 0.00106592, -5.61902, 4.04751, 70.9175, -2.84008, 2.12805, 38.0887, -0.000482695, -0.00027848, 0.00113627, -0.000256051, -0.000256051, -0.000256051
9665, 1,0.00156659, 0.000470865, 0.000325685, 96.3521, 28.8799, 0.00291557, 178.794, -55.0823, 0, 0.00119062, 0.00203741, 0.00140513, 125.229, -38.8785, 0, 0.00119031, 0.00109581, 0.000754039, 67.4772, -21.0754, 0, 0.00118997, -4.95148, 5.38892, 116.198, -2.36215, 2.90408, 62.6842, -0.000716795, -0.000498461, 0.00184615, -0.000381603, -0.000381603, -0.000381603
9666, 1,0.000162304, -6.27172E-05, 5.53125E-05, 5.03738, -3.71671, 0.000309964, 10.0313, 6.20384, 0, 0.000671943, 0.000210208, 0.000246116, 6.54878, 4.54873, 0, 0.000671961, 0.000114403, 0.00013553, 3.52613, 2.52663, 0, 0.000671983, -3.35441, 4.05762, -14.3494, -1.78817, 2.19059, -7.9823, 7.22268E-07, 0.000157481, -0.000232017, 2.0188E-06, 2.0188E-06, 2.0188E-06
9667, 1,0.000325282, -0.000171141, 0.00013358, 3.90955, -11.4527, 0.000624091, 7.6623, 29.3309, 0, 0.000674426, 0.000421292, 0.000588978, 5.0828, 19.9202, 0, 0.000674529, 0.000229279, 0.000321909, 2.73665, 10.8809, 0, 0.000674628, -14.3766, 2.1785, -47.5625, -7.78758, 1.14231, -25.9975, 9.61838E-06, 0.00035979, -0.00069266, 6.6758E-06, 6.6758E-06, 6.6758E-06
9668, 1,0.00104708, 0.000310756, 0.000246298, 61.8971, 18.3799, 0.00203014, 120.175, -32.5494, 0, 0.000844811, 0.00135783, 0.00107847, 80.2766, -21.6349, 0, 0.000844662, 0.000736342, 0.000585927, 43.518, -11.7117, 0, 0.000844526, 6.33492, 77.362, -18.792, 3.49782, 41.9256, -10.2884, -0.00020668, 0.00129605, -0.000738291, -0.000110414, -0.000110414, -0.000110414
9669, 1,0.00144286, 0.000428249, 0.000303711, 94.5503, 28.0478, 0.0028006, 183.453, -68.6422, 0, 0.00113717, 0.00187111, 0.00132775, 122.598, -45.9021, 0, 0.00113675, 0.00101461, 0.000720357, 66.5026, -24.9221, 0, 0.00113636, 18.0359, 122.36, -2.68923, 9.8585, 66.3717, -1.46384, -0.000341319, 0.00186605, -0.000779864, -0.000183906, -0.000183906, -0.000183906
9670, 1,0.00113169, 0.000336097, 0.000273881, 64.7822, 19.2458, 0.0021902, 125.597, -29.6716, 0, 0.00113036, 0.00146778, 0.00119747, 84.028, -19.6936, 0, 0.00113018, 0.000795592, 0.000649753, 45.5364, -10.6615, 0, 0.00113001, 4.21518, 81.4882, -26.6226, 2.32488, 44.164, -14.5045, -0.000220983, 0.00141402, -0.00087346, -0.000118719, -0.000118719, -0.000118719
9671, 1,0.000698465, 0.000206927, 0.000192602, 33.464, 9.93379, 0.00134602, 64.7908, -1.58115, 0, 0.000907308, 0.000905386, 0.00084585, 43.3975, -0.816882, 0, 0.000907297, 0.000491549, 0.000460682, 23.5308, -0.402468, 0, 0.000907291, -4.439, 39.7612, -32.8716, -2.34629, 21.5559, -18.0022, -0.00010675, 0.00082835, -0.000708344, -5.59364E-05, -5.59364E-05, -5.59364E-05
9672, 1,0.000839087, 0.000248943, 0.000217378, 44.2926, 13.1666, 0.00161136, 85.7412, -12.879, 0, 0.000564298, 0.00108802, 0.000954455, 57.4586, -8.11098, 0, 0.000564254, 0.000590167, 0.000519733, 31.1272, -4.34597, 0, 0.00056422, -0.391668, 41.6396, -16.915, -0.107669, 22.632, -9.48637, -0.000136015, 0.000753161, -0.000485527, -7.07023E-05, -7.07023E-05, -7.07023E-05
9673, 1,0.000575957, 0.000172774, 0.000119543, 35.3436, 10.6049, 0.00112557, 69.9769, -22.5444, 0, 0.000820047, 0.0007487, 0.000519936, 45.947, -14.1893, 0, 0.000819936, 0.000403241, 0.000281115, 24.7417, -7.63519, 0, 0.000819849, -0.517066, 13.9907, 29.0944, -0.151592, 7.62096, 15.4362, -0.000234313, 7.24836E-05, 0.000392084, -0.00012335, -0.00012335, -0.00012335
9674, 1,0.000313819, 9.51803E-05, 6.67042E-05, 20.1079, 6.0915, 0.000642686, 41.4582, -14.8903, 0, 0.000739459, 0.000408974, 0.00028517, 26.1982, -9.22817, 0, 0.000739391, 0.000218684, 0.000151798, 14.0186, -4.94769, 0, 0.000739339, -0.400988, 6.89587, 21.1896, -0.145051, 3.7665, 11.2216, -0.000153726, 5.48272E-07, 0.000302926, -8.08908E-05, -8.08908E-05, -8.08908E-05
9675, 1,0.000322785, 9.59514E-05, 7.07767E-05, 19.0526, 5.68857, 0.000625799, 37.6321, -10.8229, 0, 0.000682421, 0.00041872, 0.000312507, 24.7403, -6.65126, 0, 0.000682375, 0.000226865, 0.000170999, 13.3655, -3.55121, 0, 0.00068234, 0.0726319, 14.9768, 4.90432, 0.108036, 8.14681, 2.39877, -0.000103154, 0.000212101, -1.01505E-06, -5.35761E-05, -5.35761E-05, -5.35761E-05
9676, 1,0.000464602, 0.000137398, 0.000125161, 22.8061, 6.77184, 0.000888115, 44.1344, -2.90352, 0, 0.000696312, 0.000601995, 0.000552186, 29.5777, -1.51369, 0, 0.000696296, 0.000327211, 0.000301879, 16.0346, -0.765998, 0, 0.000696288, -2.50562, 25.2814, -18.2347, -1.29717, 13.7197, -10.1245, -7.6803E-05, 0.000511036, -0.00040967, -3.94517E-05, -3.94517E-05, -3.94517E-05
9677, 1,0.00117188, 0.00034693, 0.000333189, 58.243, 17.2363, 0.00222913, 110.553, -6.98927, 0, 0.00112631, 0.00151881, 0.00146005, 75.4793, -4.96908, 0, 0.00112627, 0.000824953, 0.000793721, 41.0067, -2.712, 0, 0.00112623, 1.93397, 72.6596, -59.6864, 1.12165, 39.472, -32.4576, -3.73168E-05, 0.00145912, -0.00134117, -1.89449E-05, -1.89449E-05, -1.89449E-05
9678, 1,0.0012164, -0.000443696, 0.000401172, 51.515, -22.7387, 0.00225991, 95.1503, 15.6578, 0, 0.00115315, 0.00157505, 0.00176277, 66.6962, 10.4008, 0, 0.00115325, 0.000857755, 0.000960491, 36.3339, 5.64826, 0, 0.00115334, 1.96636, 63.7662, -96.9351, 1.11943, 34.7461, -52.8103, 0.000205486, 0.00151301, -0.00188727, 0.00011273, 0.00011273, 0.00011273
9679, 1,0.00136711, -0.000436489, 0.000420603, 63.3772, -21.0623, 0.00253852, 115.364, 6.19162, 0, 0.00117357, 0.00177182, 0.00184179, 82.0711, 2.23827, 0, 0.00117365, 0.0009624, 0.00100066, 44.6835, 1.07453, 0, 0.00117367, 3.20819, 58.5012, -68.4242, 1.96309, 31.8445, -37.0312, 0.000103149, 0.00127275, -0.00141222, 5.84878E-05, 5.84878E-05, 5.84878E-05
9680, 1,0.00136615, 0.000414631, 0.000390065, 67.7106, 20.8124, 0.00270811, 138.139, -13.6366, 0, 0.00139049, 0.00178056, 0.00168943, 88.5119, -5.85503, 0, 0.00139031, 0.000951938, 0.000909777, 46.9191, -2.58659, 0, 0.00139024, 0.401487, 42.6688, -25.5053, 0.076982, 22.7913, -15.1085, -8.38155E-05, 0.000810055, -0.000631227, -3.92082E-05, -3.92082E-05, -3.92082E-05
9681, 1,0.00099765, 0.00029683, 0.000247463, 55.5126, 16.5547, 0.00191071, 107.596, -23.2328, 0, 0.000735819, 0.00129444, 0.00108704, 72.0653, -14.6277, 0, 0.000735717, 0.000700891, 0.000592205, 38.9616, -7.84035, 0, 0.000735636, 2.49906, 39.8347, 1.54953, 1.57504, 21.6803, 0.265737, -0.000177504, 0.000612264, -0.000197391, -9.01527E-05, -9.01527E-05, -9.01527E-05
9682, 1,0.00126185, 0.00037584, 0.000340407, 65.7557, 19.5916, 0.00243349, 127.209, -16.3901, 0, 0.00113149, 0.00163765, 0.00148961, 85.345, -10.6768, 0, 0.00113139, 0.000886092, 0.000808894, 46.1684, -5.76271, 0, 0.0011313, 2.18566, 53.5342, -23.6894, 1.44825, 29.1415, -13.3016, -0.00012194, 0.000964256, -0.00066906, -6.01426E-05, -6.01426E-05, -6.01426E-05
9683, 1,0.00112935, 0.00033489, 0.000294067, 60.3943, 17.9352, 0.00217748, 117.151, -19.1329, 0, 0.00085483, 0.00146424, 0.0012897, 78.3292, -12.2627, 0, 0.000854735, 0.00079447, 0.000701591, 42.4596, -6.59899, 0, 0.000854656, 2.03451, 63.0646, -28.3111, 1.19089, 34.2181, -15.612, -0.000150081, 0.00114106, -0.000791993, -7.87231E-05, -7.87231E-05, -7.87231E-05
9684, 1,0.00128438, 0.000382841, 0.000361296, 64.5874, 19.3016, 0.00249038, 126.15, -11.3545, 0, 0.00108541, 0.00166721, 0.00157799, 83.8884, -6.8442, 0, 0.00108533, 0.000901554, 0.000855438, 45.2869, -3.59799, 0, 0.00108527, 1.93336, 65.5782, -46.979, 1.09299, 35.4389, -25.7379, -6.68979E-05, 0.00127957, -0.00110161, -3.35447E-05, -3.35447E-05, -3.35447E-05
9685, 1,0.00102669, 0.00030635, 0.000234614, 59.6633, 17.8046, 0.00194413, 113.881, -29.5553, 0, 0.00111893, 0.00133298, 0.00102792, 77.4645, -19.4343, 0, 0.00111875, 0.000720462, 0.000558891, 41.8649, -10.4978, 0, 0.00111858, 0.570079, 22.6651, 35.0678, 0.600449, 12.4442, 18.4488, -0.000293973, 0.000173266, 0.000436074, -0.000152582, -0.000152582, -0.000152582
9686, 1,0.00148363, 0.000440544, 0.000358421, 81.131, 24.3942, 0.00269821, 153.028, -34.2683, 0, 0.00139343, 0.00192391, 0.00158447, 105.512, -19.592, 0, 0.0013931, 0.00104356, 0.000868265, 56.7608, -9.99055, 0, 0.00139288, -2.56358, 21.6769, 39.6626, -1.51929, 11.434, 20.0569, -0.000362873, 0.000149577, 0.000531221, -0.000189566, -0.000189566, -0.000189566
9687, 1,0.000137781, 4.14522E-05, 3.14402E-05, 7.50979, 2.28785, 0.000279042, 15.7962, -3.50367, 0, 0.000694409, 0.000179209, 0.000138232, 9.79651, -1.7823, 0, 0.000694389, 9.6374E-05, 7.55648E-05, 5.224, -0.898987, 0, 0.000694379, -0.688264, 2.75711, 3.27806, -0.346794, 1.49467, 1.54908, -4.25739E-05, 3.02561E-05, 4.12398E-05, -2.14339E-05, -2.14339E-05, -2.14339E-05
9688, 1,0.000217179, 6.68754E-05, 4.64726E-05, 13.7344, 4.22837, 0.000469597, 29.8299, -10.2579, 0, 0.00072478, 0.000284044, 0.000196739, 17.9623, -6.09589, 0, 0.000724731, 0.000150322, 0.000103808, 9.5068, -3.22709, 0, 0.000724698, 0.0805737, 1.28649, 16.9206, 0.0659513, 0.696657, 8.91865, -9.42242E-05, -6.87935E-05, 0.000261937, -4.93483E-05, -4.93483E-05, -4.93483E-05
9689, 1,0.00123771, 0.000367133, 0.000314951, 67.9342, 20.1609, 0.00238992, 131.46, -24.8672, 0, 0.000965662, 0.00160484, 0.00137942, 88.0949, -16.455, 0, 0.00096553, 0.000870585, 0.000749555, 47.7736, -8.90524, 0, 0.000965412, 3.57938, 74.6889, -28.9034, 2.02653, 40.5336, -15.8444, -0.000183432, 0.00132102, -0.000870569, -9.73758E-05, -9.73758E-05, -9.73758E-05
9690, 1,0.000632973, 0.000187764, 0.000145909, 36.4807, 10.8521, 0.00120964, 70.665, -18.1314, 0, 0.000556368, 0.000820717, 0.000642607, 47.3318, -11.4778, 0, 0.000556308, 0.000445246, 0.00035084, 25.6305, -6.16279, 0, 0.00055626, 0.536634, 25.0833, 8.81355, 0.398119, 13.6619, 4.42836, -0.000169367, 0.000349863, 5.75806E-06, -8.85835E-05, -8.85835E-05, -8.85835E-05
9691, 1,0.000279326, 9.05339E-05, 6.08159E-05, 17.6085, 5.70416, 0.000686129, 43.2506, -14.5401, 0, 0.000728741, 0.000369859, 0.000248437, 23.3126, -7.83526, 0, 0.000728662, 0.000188792, 0.000126807, 11.9044, -4.00552, 0, 0.000728617, -0.114194, 0.320459, 23.2995, -0.052788, 0.170811, 11.8986, -0.000125795, -0.000116625, 0.000369566, -6.41802E-05, -6.41802E-05, -6.41802E-05
9692, 1,0.000316592, 0.000101393, 7.12694E-05, 19.8698, 6.35951, 0.000761554, 47.8815, -15.9723, 0, 0.000782625, 0.000417973, 0.000294158, 26.2287, -8.69784, 0, 0.000782533, 0.000215223, 0.000151639, 13.5116, -4.48628, 0, 0.000782479, -1.46986, 1.79116, 25.7722, -0.772619, 0.975062, 13.2564, -0.000168035, -9.90952E-05, 0.000408273, -8.69511E-05, -8.69511E-05, -8.69511E-05
9693, 1,0.000507681, 0.000156604, 0.00011095, 31.3425, 9.67631, 0.00112182, 69.7653, -22.4977, 0, 0.000889159, 0.000664247, 0.000470044, 41.0169, -12.9286, 0, 0.000889021, 0.000351147, 0.000248202, 21.6698, -6.81625, 0, 0.000888933, -2.77385, 4.19223, 37.3675, -1.46897, 2.27537, 19.6424, -0.000262222, -0.000114935, 0.000586954, -0.000138343, -0.000138343, -0.000138343
9694, 1,0.000916999, 0.000276141, 0.000191892, 56.0852, 16.8747, 0.0019327, 119.066, -37.2457, 0, 0.00103065, 0.0011931, 0.000826771, 72.9575, -22.2623, 0, 0.0010304, 0.000640936, 0.000443109, 39.2149, -11.9886, 0, 0.00103022, -3.1328, 6.08047, 63.8394, -1.59437, 3.3292, 34.2309, -0.00041681, -0.000222016, 0.00100008, -0.000222449, -0.000222449, -0.000222449
9695, 1,0.00147791, 0.000438443, 0.000302761, 90.4715, 26.8481, 0.00310883, 190.388, -58.3882, 0, 0.00115085, 0.00191627, 0.00132165, 117.315, -35.9396, 0, 0.00115043, 0.00103962, 0.000716273, 63.6322, -19.4788, 0, 0.00115012, -3.58406, 7.03367, 104.369, -2.0078, 3.87082, 56.5733, -0.000641781, -0.000417352, 0.00164234, -0.000349178, -0.000349178, -0.000349178
9696, 1,0.000179501, -6.49082E-05, 5.82666E-05, 6.83449, -3.44885, 0.000327979, 14.2403, 1.69317, 0, 0.000649876, 0.000231113, 0.000268516, 8.89258, 2.72735, 0, 0.000649865, 0.000127898, 0.00015202, 4.77686, 1.70321, 0, 0.000649875, -0.554413, 7.71286, -15.3405, -0.288019, 4.15633, -8.97793, 3.12642E-05, 0.000206139, -0.000281661, 2.07752E-05, 2.07752E-05, 2.07752E-05
9697, 1,0.000341043, -0.000181157, 0.000140017, 6.61344, -11.2363, 0.000631524, 13.7463, 21.6293, 0, 0.00065953, 0.000439915, 0.000629777, 8.61169, 16.3618, 0, 0.000659586, 0.000242176, 0.000349764, 4.61539, 9.17574, 0, 0.000659663, -7.26505, 6.36336, -48.1838, -3.99554, 3.35749, -26.8892, 0.000104146, 0.000392297, -0.000761951, 6.01609E-05, 6.01609E-05, 6.01609E-05
9698, 1,0.00115356, 0.000340363, 0.00027076, 66.8084, 19.7752, 0.00225171, 131.725, -33.9979, 0, 0.000806897, 0.00149392, 0.00119361, 86.5833, -21.4676, 0, 0.000806733, 0.000813209, 0.000652118, 47.0337, -11.5548, 0, 0.000806604, 4.71783, 81.5782, -21.8934, 2.59305, 44.2486, -12.1771, -0.000238223, 0.00138786, -0.000801274, -0.000127048, -0.000127048, -0.000127048
9699, 1,0.00147186, 0.000436118, 0.000306606, 93.3357, 27.6593, 0.00291119, 184.754, -63.3673, 0, 0.00109915, 0.00190798, 0.00134263, 120.995, -41.4074, 0, 0.00109876, 0.00103575, 0.000729427, 65.6765, -22.4706, 0, 0.00109842, 9.28314, 120.423, -5.4834, 5.09257, 65.3583, -3.03915, -0.000455768, 0.00189585, -0.000768146, -0.00024618, -0.00024618, -0.00024618
9700, 1,0.00118618, 0.000350913, 0.000290571, 66.192, 19.6295, 0.00234619, 132.23, -28.6774, 0, 0.00109256, 0.00153709, 0.00127645, 85.8215, -17.7026, 0, 0.00109237, 0.000835269, 0.000695328, 46.5626, -9.52097, 0, 0.00109222, 2.11816, 82.5262, -31.5366, 1.17067, 44.7556, -17.3633, -0.000234042, 0.00146733, -0.000946026, -0.000125227, -0.000125227, -0.000125227
9701, 1,0.00078541, 0.000230541, 0.000215989, 38.299, 11.3293, 0.00150767, 75.3125, -5.45262, 0, 0.000881933, 0.00101595, 0.000958908, 49.6282, -2.16768, 0, 0.000881886, 0.000554873, 0.000526938, 26.9699, -1.00227, 0, 0.00088187, -2.08811, 45.3719, -36.7808, -1.11978, 24.6302, -20.5036, -7.82431E-05, 0.000925779, -0.00081236, -3.93883E-05, -3.93883E-05, -3.93883E-05
9702, 1,0.000955023, 0.000280818, 0.000246739, 50.1597, 14.8181, 0.00185194, 99.0662, -15.5058, 0, 0.000545396, 0.00123582, 0.0010931, 64.9767, -8.82689, 0, 0.000545337, 0.000674241, 0.000599665, 35.3435, -4.67214, 0, 0.000545301, 0.0163242, 47.9857, -21.5213, 0.114944, 26.1794, -12.278, -0.000138726, 0.000876152, -0.000594189, -7.12009E-05, -7.12009E-05, -7.12009E-05
9703, 1,0.00058415, 0.000175595, 0.000124729, 35.577, 10.7429, 0.00120812, 74.88, -23.8903, 0, 0.000792628, 0.000759667, 0.000544557, 46.3161, -13.9897, 0, 0.000792501, 0.000408699, 0.000295371, 24.8412, -7.42296, 0, 0.000792416, 0.80859, 16.1321, 25.0284, 0.514523, 8.80482, 12.9496, -0.000203239, 0.000120937, 0.000309316, -0.000106039, -0.000106039, -0.000106039
9704, 1,0.00027399, 8.58448E-05, 5.96328E-05, 17.7299, 5.58017, 0.000633407, 41.4246, -15.4346, 0, 0.000714704, 0.000359685, 0.000248662, 23.3029, -8.46834, 0, 0.000714623, 0.00018843, 0.000129624, 12.1633, -4.37624, 0, 0.000714575, -0.147231, 7.94977, 17.6025, -0.0589244, 4.33262, 8.85501, -0.000136469, 3.48164E-05, 0.000239071, -7.01513E-05, -7.01513E-05, -7.01513E-05
9705, 1,0.000344069, 0.000101589, 7.63952E-05, 19.8996, 5.98138, 0.000678398, 41.274, -12.3762, 0, 0.000659819, 0.00044558, 0.000343034, 25.8773, -6.47338, 0, 0.000659756, 0.000242621, 0.000190466, 13.925, -3.30245, 0, 0.000659722, 0.0616917, 17.9744, 1.38403, 0.0478187, 9.77885, 0.0806694, -0.000100638, 0.00027833, -7.26456E-05, -5.09891E-05, -5.09891E-05, -5.09891E-05
9706, 1,0.000535647, 0.000156656, 0.000142839, 26.7779, 7.93749, 0.00101865, 53.0935, -6.65194, 0, 0.000673336, 0.000692291, 0.00063936, 34.7149, -2.68201, 0, 0.000673292, 0.000379011, 0.000353711, 18.8414, -1.24782, 0, 0.000673277, -1.02787, 30.8454, -21.7715, -0.550802, 16.766, -12.4718, -6.39485E-05, 0.000610364, -0.000502893, -3.12596E-05, -3.12596E-05, -3.12596E-05
9707, 1,0.001284, 0.000378153, 0.000366176, 62.8156, 18.5626, 0.00252164, 125.335, -8.27583, 0, 0.00108849, 0.00166216, 0.00161438, 81.3781, -3.79268, 0, 0.00108841, 0.000905852, 0.000882055, 44.2531, -1.93681, 0, 0.00108837, 1.23516, 78.2984, -68.1555, 0.691521, 42.5771, -37.4582, -3.36243E-05, 0.00159696, -0.00150179, -1.5889E-05, -1.5889E-05, -1.5889E-05
9708, 1,0.00139276, -0.000495055, 0.000451311, 59.2397, -25.2825, 0.00272148, 117.919, 14.3763, 0, 0.00111449, 0.00180032, 0.00199743, 76.6163, 11.3771, 0, 0.00111454, 0.000985194, 0.00109485, 41.8632, 6.31138, 0, 0.00111463, 1.45034, 73.3801, -108.962, 0.829033, 40.096, -59.8592, 0.000209889, 0.0017318, -0.00212631, 0.000116974, 0.000116974, 0.000116974
9709, 1,0.00156554, -0.000497431, 0.000478118, 71.3132, -24.2436, 0.0030711, 142.558, 3.47279, 0, 0.00113416, 0.00202433, 0.00211394, 92.2617, 4.58076, 0, 0.00113414, 0.00110676, 0.00115775, 50.3654, 2.60812, 0, 0.00113418, 1.70862, 67.2062, -82.6571, 0.987269, 36.7194, -45.531, 0.000108221, 0.0014938, -0.00167635, 6.18958E-05, 6.18958E-05, 6.18958E-05
9710, 1,0.00169551, 0.000495315, 0.000462211, 86.2999, 25.188, 0.00331574, 170.822, -18.9652, 0, 0.00134372, 0.00219079, 0.00204383, 111.486, -10.6786, 0, 0.00134354, 0.00120024, 0.00111946, 61.1148, -5.89922, 0, 0.00134343, 2.52686, 53.5776, -24.0687, 1.47598, 29.4092, -13.1875, -0.00011491, 0.000964824, -0.000676628, -6.18758E-05, -6.18758E-05, -6.18758E-05
9711, 1,0.00112257, 0.000330658, 0.00027939, 61.3127, 18.1485, 0.00220289, 123.091, -25.4996, 0, 0.000711167, 0.00145319, 0.00123336, 79.4589, -14.4815, 0, 0.00071104, 0.000791995, 0.000674684, 43.1684, -7.70748, 0, 0.000710962, 1.40298, 44.1973, -2.15572, 0.749385, 24.1222, -1.7491, -0.000198513, 0.000706862, -0.000273352, -0.000105657, -0.000105657, -0.000105657
9712, 1,0.00142044, 0.000418627, 0.000382216, 72.2971, 21.3906, 0.00279282, 144.919, -17.3681, 0, 0.00109319, 0.00183904, 0.00168349, 93.6864, -9.0967, 0, 0.00109304, 0.00100186, 0.000919102, 50.9089, -4.7821, 0, 0.00109297, -0.741753, 57.2152, -29.1834, -0.446727, 31.1128, -16.3197, -0.000159098, 0.001067, -0.000760287, -8.4904E-05, -8.4904E-05, -8.4904E-05
9713, 1,0.001262, 0.000371667, 0.000328367, 66.7337, 19.7227, 0.0024525, 131.437, -20.8636, 0, 0.000826528, 0.00163366, 0.0014498, 86.4558, -12.4231, 0, 0.000826415, 0.000890356, 0.000793094, 47.012, -6.62657, 0, 0.000826337, 1.67326, 69.0131, -33.417, 0.987109, 37.5497, -18.6571, -0.000160312, 0.00126438, -0.000902475, -8.35319E-05, -8.35319E-05, -8.35319E-05
9714, 1,0.00145, 0.000426616, 0.000404433, 72.6507, 21.4172, 0.00283672, 143.93, -13.2511, 0, 0.001049, 0.00187661, 0.00178344, 94.0674, -7.22387, 0, 0.0010489, 0.0010234, 0.000974605, 51.2343, -3.85216, 0, 0.00104884, 2.24963, 73.0974, -53.6754, 1.30075, 39.8113, -29.5556, -6.62477E-05, 0.00143267, -0.0012492, -3.32167E-05, -3.32167E-05, -3.32167E-05
9715, 1,0.00111053, 0.000328699, 0.000258947, 63.1413, 18.7564, 0.0022279, 129.278, -32.2236, 0, 0.00108142, 0.00143918, 0.00113776, 81.895, -18.6442, 0, 0.00108118, 0.000781925, 0.000619991, 44.3897, -9.98827, 0, 0.00108103, -0.233064, 24.5455, 31.6201, -0.150782, 13.3972, 16.7184, -0.000298673, 0.000225489, 0.000375729, -0.000160611, -0.000160611, -0.000160611
9716, 1,0.00160018, 0.000470875, 0.000385461, 88.9097, 26.1485, 0.00326463, 183.422, -39.1381, 0, 0.00134686, 0.00207101, 0.00169442, 115.056, -23.0803, 0, 0.00134651, 0.0011294, 0.000923568, 62.7662, -12.617, 0, 0.00134628, -0.510981, 27.8501, 41.9019, -0.230248, 15.2568, 22.8245, -0.000374554, 0.000225228, 0.000523858, -0.000203833, -0.000203833, -0.000203833
9717, 1,0.000114085, 3.47622E-05, 2.53021E-05, 6.35957, 2.03965, 0.000261869, 16.2756, -5.23823, 0, 0.000671344, 0.000148578, 0.000115044, 8.38653, -1.83299, 0, 0.000671307, 7.97984E-05, 6.53386E-05, 4.34235, -0.766976, 0, 0.000671296, -0.271612, 4.61912, 1.15145, -0.138018, 2.49501, -0.056065, -3.45943E-05, 6.88577E-05, -4.51896E-06, -1.4977E-05, -1.4977E-05, -1.4977E-05
9718, 1,0.000169202, 5.70489E-05, 3.95646E-05, 10.9829, 3.69415, 0.000457867, 29.5476, -10.6239, 0, 0.000700614, 0.000226206, 0.000157076, 14.6749, -5.35217, 0, 0.000700554, 0.000112245, 7.80181E-05, 7.29309, -2.6709, 0, 0.000700523, 0.0364605, 1.90308, 14.117, 0.0286386, 1.02851, 6.95554, -8.35008E-05, -4.40327E-05, 0.000214385, -4.14371E-05, -4.14371E-05, -4.14371E-05
9719, 1,0.00135145, 0.000398636, 0.000345908, 72.6349, 21.4925, 0.00264345, 143.837, -25.3971, 0, 0.000928488, 0.00175008, 0.0015236, 94.1272, -15.3376, 0, 0.000928336, 0.000952817, 0.000831799, 51.1428, -8.21058, 0, 0.000928229, 1.93489, 78.0811, -34.0032, 1.07018, 42.3955, -18.8339, -0.000200688, 0.00141038, -0.000960799, -0.000106732, -0.000106732, -0.000106732
9720, 1,0.000686225, 0.000202983, 0.000162661, 38.9086, 11.5795, 0.00135268, 78.464, -19.5269, 0, 0.000537879, 0.000889155, 0.000719772, 50.4854, -11.3692, 0, 0.000537808, 0.000483339, 0.000394594, 27.334, -6.03245, 0, 0.000537762, 1.24003, 28.4548, 4.41274, 0.774145, 15.5505, 1.77268, -0.000152866, 0.000422907, -8.55488E-05, -7.86731E-05, -7.86731E-05, -7.86731E-05
9721, 1,0.000454118, 0.000129776, 8.74888E-05, 28.6323, 8.18309, 0.000803695, 50.6942, -17.0759, 0, 0.000854566, 0.000583891, 0.000393427, 36.8151, -12.386, 0, 0.000854501, 0.000324349, 0.000218455, 20.4497, -6.87898, 0, 0.000854425, 0.746837, -0.319335, 36.7305, 0.398672, -0.169917, 20.4082, -0.000179233, -0.000201836, 0.000582061, -9.98673E-05, -9.98673E-05, -9.98673E-05
9722, 1,0.000370302, 0.000108816, 7.40515E-05, 23.5815, 6.93208, 0.000712732, 45.4579, -15.8161, 0, 0.000827726, 0.000479117, 0.000325915, 30.5135, -10.572, 0, 0.000827656, 0.000261486, 0.000177815, 16.6494, -5.76452, 0, 0.000827591, 1.67448, -0.216967, 30.2584, 0.899081, -0.117213, 16.5117, -0.00013099, -0.000171099, 0.000473644, -7.1679E-05, -7.1679E-05, -7.1679E-05
9723, 1,0.000305162, 9.34433E-05, 6.38911E-05, 19.5341, 5.97987, 0.000653121, 41.7986, -14.6846, 0, 0.000800889, 0.000398603, 0.000272609, 25.5139, -8.96712, 0, 0.000800814, 0.000211724, 0.000144835, 13.5544, -4.76603, 0, 0.00080076, 1.68857, -0.108374, 25.3212, 0.91392, -0.0608311, 13.445, -0.00010543, -0.000143525, 0.000394467, -5.56539E-05, -5.56539E-05, -5.56539E-05
9724, 1,0.000268006, 8.68136E-05, 5.89819E-05, 16.9764, 5.49632, 0.000651819, 41.2446, -14.0236, 0, 0.000774039, 0.000354819, 0.000241451, 22.4727, -7.66188, 0, 0.000773959, 0.000181195, 0.000123492, 11.4802, -3.91813, 0, 0.000773912, 0.766382, -0.215634, 22.4349, 0.416584, -0.120824, 11.4586, -0.00010444, -0.000125237, 0.000354008, -5.28796E-05, -5.28796E-05, -5.28796E-05
9725, 1,0.000371334, 0.0001058, 7.19828E-05, 23.3882, 6.66427, 0.000654028, 41.2, -13.8235, 0, 0.000854606, 0.000477132, 0.000324284, 30.0523, -10.0788, 0, 0.000854554, 0.000265537, 0.000180324, 16.7242, -5.608, 0, 0.000854492, 0.7882, -0.373434, 29.8216, 0.420744, -0.199601, 16.6028, -0.000142039, -0.000166638, 0.000472229, -7.9403E-05, -7.9403E-05, -7.9403E-05
9726, 1,0.000306984, 9.01774E-05, 6.20744E-05, 19.6113, 5.76648, 0.000588738, 37.6679, -13.2231, 0, 0.000827751, 0.00039716, 0.000273209, 25.3778, -8.87599, 0, 0.000827692, 0.000216809, 0.00014907, 13.8449, -4.83353, 0, 0.000827638, 1.83651, -0.201582, 24.993, 0.97945, -0.110096, 13.6312, -0.000100865, -0.000144058, 0.000388956, -5.53306E-05, -5.53306E-05, -5.53306E-05
9727, 1,0.000258969, 7.93828E-05, 5.4824E-05, 16.6025, 5.09275, 0.000552245, 35.412, -12.5092, 0, 0.000800909, 0.000338341, 0.00023377, 21.6949, -7.66267, 0, 0.000800846, 0.000179605, 0.000124151, 11.5105, -4.05966, 0, 0.000800799, 1.85995, -0.119204, 21.2473, 0.995997, -0.0682443, 11.2512, -8.12567E-05, -0.000123205, 0.000328806, -4.27893E-05, -4.27893E-05, -4.27893E-05
9728, 1,0.000226694, 7.37894E-05, 5.07394E-05, 14.2838, 4.65287, 0.000551852, 34.787, -11.6953, 0, 0.000774059, 0.000300469, 0.000207211, 18.9361, -6.3615, 0, 0.000773992, 0.000152932, 0.000105775, 9.63217, -3.2301, 0, 0.000773952, 0.808691, -0.290525, 18.5663, 0.434317, -0.160928, 9.41691, -8.30504E-05, -0.000106336, 0.000292617, -4.16536E-05, -4.16536E-05, -4.16536E-05
9729, 1,0.000264524, 7.48448E-05, 5.12142E-05, 16.5552, 4.6819, 0.000460392, 28.7791, -9.43113, 0, 0.000854655, 0.000339364, 0.000231784, 21.2369, -6.98301, 0, 0.000854621, 0.000189687, 0.000129373, 11.8737, -3.90764, 0, 0.000854578, 0.383168, -0.127121, 20.693, 0.202837, -0.0669484, 11.587, -0.000101866, -0.000112663, 0.000327844, -5.72482E-05, -5.72482E-05, -5.72482E-05
9730, 1,0.000218537, 6.40446E-05, 4.41993E-05, 13.8026, 4.0521, 0.000416036, 26.3366, -8.96531, 0, 0.000827799, 0.000282574, 0.000194974, 17.8544, -6.04414, 0, 0.000827759, 0.000154506, 0.000106617, 9.75102, -3.28948, 0, 0.000827722, 0.958144, -0.0274629, 17.2017, 0.502424, -0.0169951, 9.38301, -7.48574E-05, -9.57679E-05, 0.000268705, -4.11141E-05, -4.11141E-05, -4.11141E-05
9731, 1,0.000185089, 5.68328E-05, 3.93785E-05, 11.6278, 3.58342, 0.000393491, 24.8478, -8.3965, 0, 0.000800951, 0.000241892, 0.000168084, 15.21, -5.07451, 0, 0.000800907, 0.000128312, 8.9447E-05, 8.04679, -2.66333, 0, 0.000800876, 0.956835, 0.0147005, 14.252, 0.502537, 0.00334278, 7.48411, -5.9593E-05, -7.96039E-05, 0.000221543, -3.12275E-05, -3.12275E-05, -3.12275E-05
9732, 1,0.000158161, 5.21506E-05, 3.65356E-05, 9.72495, 3.22671, 0.000391256, 24.2853, -7.78331, 0, 0.000774096, 0.000210254, 0.000148653, 12.9491, -4.04638, 0, 0.000774049, 0.000106122, 7.57653E-05, 6.50334, -1.99903, 0, 0.000774024, 0.373965, -0.0926737, 11.8579, 0.195116, -0.054717, 5.85669, -5.57702E-05, -6.56806E-05, 0.000187113, -2.73082E-05, -2.73082E-05, -2.73082E-05
9733, 1,0.000151844, 4.23489E-05, 2.92973E-05, 9.33202, 2.59465, 0.000257685, 15.726, -4.76529, 0, 0.000854706, 0.000194177, 0.000133672, 11.9259, -3.69249, 0, 0.000854691, 0.000109525, 7.51481E-05, 6.73871, -2.09876, 0, 0.000854669, -0.138196, 0.160814, 11.0549, -0.0787552, 0.0893318, 6.28569, -6.10758E-05, -5.4743E-05, 0.000175738, -3.47189E-05, -3.47189E-05, -3.47189E-05
9734, 1,0.000123658, 3.58832E-05, 2.50274E-05, 7.5021, 2.18512, 0.000230488, 14.0397, -4.22622, 0, 0.000827852, 0.000159512, 0.0001121, 9.68596, -2.88389, 0, 0.000827834, 8.78269E-05, 6.21694E-05, 5.31926, -1.56945, 0, 0.000827816, -0.177144, 0.143214, 8.68559, -0.111504, 0.07614, 4.7437, -4.91103E-05, -4.23816E-05, 0.00013829, -2.70181E-05, -2.70181E-05, -2.70181E-05
9735, 1,0.000104559, 3.18717E-05, 2.32543E-05, 6.11873, 1.89234, 0.000217954, 13.0527, -3.69588, 0, 0.000800999, 0.000136358, 0.000101709, 8.00783, -2.09968, 0, 0.000800978, 7.28201E-05, 5.54123E-05, 4.23237, -1.06248, 0, 0.000800965, -0.211199, 0.154034, 6.3562, -0.130004, 0.0794193, 3.23802, -3.74534E-05, -2.98009E-05, 0.000101326, -1.93967E-05, -1.93967E-05, -1.93967E-05
9736, 1,8.64093E-05, 2.87535E-05, 2.1812E-05, 4.86769, 1.67039, 0.000216568, 12.8001, -3.44484, 0, 0.000774141, 0.000115001, 9.04936E-05, 6.53058, -1.47156, 0, 0.000774116, 5.79663E-05, 4.73493E-05, 3.21167, -0.634722, 0, 0.000774106, -0.167511, 0.166871, 4.41531, -0.0987973, 0.0851414, 1.91782, -2.667E-05, -1.96335E-05, 7.01829E-05, -1.20342E-05, -1.20342E-05, -1.20342E-05
9737, 1,0.000329929, 9.2505E-05, 6.51671E-05, 20.3339, 5.68948, 0.000546796, 33.5132, -10.3053, 0, 0.000854637, 0.000422427, 0.00029662, 26.0229, -8.13918, 0, 0.000854607, 0.000237437, 0.000166306, 14.6451, -4.59918, 0, 0.000854558, 0.378154, -1.32815, 25.3675, 0.204795, -0.707611, 14.3004, -0.000120161, -0.000156294, 0.000408532, -6.80767E-05, -6.80767E-05, -6.80767E-05
9738, 1,0.000250331, 7.27288E-05, 5.27104E-05, 15.2636, 4.43, 0.000464639, 28.2853, -8.49774, 0, 0.000827807, 0.000323059, 0.00023377, 19.6936, -5.94485, 0, 0.000827773, 0.000177603, 0.000128368, 10.8337, -3.27758, 0, 0.000827737, 0.723851, -1.52057, 18.6313, 0.393632, -0.816718, 10.2558, -7.82439E-05, -0.000125804, 0.000300517, -4.32207E-05, -4.32207E-05, -4.32207E-05
9739, 1,0.000188378, 5.80538E-05, 4.28839E-05, 11.3821, 3.51975, 0.000409983, 25.0009, -7.55533, 0, 0.000800958, 0.000246416, 0.000182447, 14.9012, -4.37267, 0, 0.000800917, 0.000130353, 9.67411E-05, 7.86365, -2.28761, 0, 0.00080089, 0.644184, -1.34619, 13.82, 0.352241, -0.735173, 7.24576, -5.51802E-05, -9.73536E-05, 0.00022349, -2.8517E-05, -2.8517E-05, -2.8517E-05
9740, 1,0.000152344, 5.16455E-05, 3.82838E-05, 9.108, 3.11806, 0.000414314, 25.2292, -7.58772, 0, 0.000774105, 0.000203937, 0.000153196, 12.2236, -3.4729, 0, 0.000774053, 0.000100805, 7.67863E-05, 5.99487, -1.65333, 0, 0.00077403, 0.233075, -1.24754, 11.4332, 0.127615, -0.688846, 5.52123, -4.97565E-05, -8.10952E-05, 0.000187207, -2.33312E-05, -2.33312E-05, -2.33312E-05
9741, 1,0.000273639, 7.66248E-05, 5.713E-05, 16.4192, 4.57437, 0.000455978, 27.0139, -7.33999, 0, 0.000854675, 0.000350243, 0.000259218, 20.9926, -5.9642, 0, 0.000854656, 0.000197051, 0.00014502, 11.8466, -3.40376, 0, 0.000854621, 0.385086, -1.54882, 19.0563, 0.208487, -0.829019, 10.8318, -8.57717E-05, -0.000126698, 0.000309252, -4.91836E-05, -4.91836E-05, -4.91836E-05
9742, 1,0.000211035, 6.12589E-05, 4.72773E-05, 12.5533, 3.63935, 0.000391895, 23.2374, -6.33488, 0, 0.00082783, 0.00027229, 0.000209645, 16.1925, -4.46477, 0, 0.000827805, 0.000149784, 0.000115123, 8.91431, -2.46535, 0, 0.000827778, 0.888806, -1.44463, 13.9501, 0.476536, -0.78087, 7.70037, -5.14548E-05, -0.000100878, 0.000224784, -2.86865E-05, -2.86865E-05, -2.86865E-05
9743, 1,0.000168208, 5.15583E-05, 4.07956E-05, 9.77814, 3.019, 0.000360759, 21.2926, -5.69882, 0, 0.000800977, 0.000219741, 0.000175153, 12.796, -3.23822, 0, 0.000800945, 0.000116697, 9.3664E-05, 6.7612, -1.67375, 0, 0.000800925, 0.812272, -1.30067, 10.2031, 0.435616, -0.713019, 5.29866, -3.37651E-05, -7.85141E-05, 0.000164827, -1.70939E-05, -1.70939E-05, -1.70939E-05
9744, 1,0.000149314, 4.90601E-05, 3.99679E-05, 8.26086, 2.77874, 0.00038084, 22.0119, -5.39082, 0, 0.000774125, 0.000198254, 0.000165695, 11.034, -2.23572, 0, 0.000774086, 0.000100484, 8.61219E-05, 5.49291, -0.999529, 0, 0.00077407, 0.249546, -1.42847, 7.88608, 0.135103, -0.785228, 3.64871, -2.99285E-05, -6.54278E-05, 0.000131636, -1.28814E-05, -1.28814E-05, -1.28814E-05
9745, 1,0.00022277, 6.27283E-05, 4.90523E-05, 12.9873, 3.62302, 0.000379632, 21.6557, -4.98902, 0, 0.000854699, 0.000285459, 0.000220581, 16.6085, -4.18766, 0, 0.000854688, 0.000160113, 0.000122596, 9.36769, -2.41869, 0, 0.000854664, 0.192681, -0.438491, 12.8088, 0.104909, -0.230452, 7.38161, -6.18737E-05, -7.52127E-05, 0.000205041, -3.58717E-05, -3.58717E-05, -3.58717E-05
9746, 1,0.000174751, 5.07777E-05, 4.07837E-05, 10.078, 2.92208, 0.000326021, 18.6924, -4.41151, 0, 0.00082785, 0.00022552, 0.000180664, 12.9996, -3.14487, 0, 0.000827833, 0.000123991, 9.91571E-05, 7.15663, -1.74167, 0, 0.000827814, 0.519703, -0.359862, 9.27478, 0.276723, -0.195232, 5.14351, -3.84845E-05, -5.7128E-05, 0.000146645, -2.15246E-05, -2.15246E-05, -2.15246E-05
9747, 1,0.00014849, 4.51461E-05, 3.75051E-05, 8.25201, 2.53622, 0.000310939, 17.6481, -3.96593, 0, 0.000801, 0.000193607, 0.000162703, 10.7869, -2.19854, 0, 0.000800977, 0.000103398, 8.78208E-05, 5.71818, -1.11695, 0, 0.000800963, 0.485216, -0.286005, 6.39641, 0.256894, -0.164306, 3.25827, -2.43094E-05, -4.06605E-05, 0.000100646, -1.21044E-05, -1.21044E-05, -1.21044E-05
9748, 1,0.000147156, 4.67703E-05, 4.07605E-05, 7.64736, 2.50713, 0.000347693, 19.1416, -3.63927, 0, 0.000774138, 0.000193803, 0.000174025, 10.1487, -1.3291, 0, 0.000774109, 0.000100617, 9.28748E-05, 5.15105, -0.531924, 0, 0.000774099, 0.138146, -0.379566, 4.22873, 0.0740032, -0.217731, 1.7395, -1.80036E-05, -2.89428E-05, 6.85141E-05, -6.80591E-06, -6.80591E-06, -6.80591E-06
9749, 1,0.000168644, 4.79503E-05, 3.91093E-05, 9.55713, 2.67723, 0.000295708, 16.2374, -3.03841, 0, 0.00085472, 0.000216545, 0.000173638, 12.2321, -2.68369, 0, 0.000854715, 0.000120782, 9.55728E-05, 6.88409, -1.5793, 0, 0.0008547, 0.00108167, 0.960381, 7.0896, 0.00369503, 0.531062, 4.20316, -4.22426E-05, -2.19225E-05, 0.000107714, -2.47948E-05, -2.47948E-05, -2.47948E-05
9750, 1,0.000135733, 3.94988E-05, 3.26248E-05, 7.52886, 2.18285, 0.000254523, 13.9946, -2.63989, 0, 0.000827869, 0.000175217, 0.000144362, 9.71106, -1.92078, 0, 0.00082786, 9.62614E-05, 7.92238E-05, 5.34723, -1.07151, 0, 0.000827848, -0.0113422, 0.867712, 4.90596, -0.00843079, 0.474475, 2.74848, -3.04453E-05, -1.18714E-05, 7.34857E-05, -1.70069E-05, -1.70069E-05, -1.70069E-05
9751, 1,0.000122311, 3.68472E-05, 3.18023E-05, 6.46313, 1.97458, 0.000249693, 13.5429, -2.33968, 0, 0.000801014, 0.000159128, 0.000139551, 8.4364, -1.22997, 0, 0.000801, 8.55174E-05, 7.60971E-05, 4.49095, -0.603587, 0, 0.000800992, 0.0157611, 0.898122, 2.77603, 0.00552237, 0.478823, 1.32641, -1.89875E-05, -3.47443E-07, 3.9294E-05, -9.337E-06, -9.337E-06, -9.337E-06
9752, 1,0.000131049, 4.06879E-05, 3.70932E-05, 6.50899, 2.0936, 0.000292302, 15.4702, -2.22397, 0, 0.000774155, 0.000171638, 0.00016151, 8.59794, -0.653142, 0, 0.000774135, 9.05445E-05, 8.7626E-05, 4.42396, -0.194655, 0, 0.000774129, 0.0277019, 0.963928, 0.967796, 0.0142816, 0.506754, 0.0629297, -9.69121E-06, 1.01351E-05, 1.01548E-05, -2.75409E-06, -2.75409E-06, -2.75409E-06
9753, 1,0.000217933, 5.96423E-05, 4.85411E-05, 12.4701, 3.36231, 0.000330233, 17.9961, -3.2091, 0, 0.000854712, 0.000277523, 0.000221906, 15.8299, -3.64584, 0, 0.000854718, 0.000158384, 0.000124978, 9.11223, -2.1855, 0, 0.000854697, 0.200968, -2.43827, 13.1748, 0.109714, -1.29364, 7.74041, -5.31505E-05, -0.000109014, 0.000221327, -3.20821E-05, -3.20821E-05, -3.20821E-05
9754, 1,0.000153803, 4.41241E-05, 4.07933E-05, 7.76346, 2.19674, 0.000273072, 13.2744, -0.494773, 0, 0.000827893, 0.000197914, 0.000180962, 9.9596, -0.813872, 0, 0.000827897, 0.000109702, 9.94412E-05, 5.56782, -0.514641, 0, 0.000827893, -0.222443, -3.14022, 5.80428, -0.114211, -1.68658, 3.34471, -1.74751E-05, -7.92632E-05, 0.000109945, -1.04707E-05, -1.04707E-05, -1.04707E-05
9755, 1,0.000112778, -3.48367E-05, 3.45065E-05, 4.9045, -1.73762, 0.000236206, 10.9784, 0.24925, 0, 0.000801039, 0.000146922, 0.000150285, 6.42709, 0.694331, 0, 0.000801033, 7.86599E-05, 8.14145E-05, 3.38311, 0.449297, 0, 0.000801036, -0.410506, -2.97577, 1.30328, -0.214323, -1.62259, 0.489027, 2.29111E-06, -5.20297E-05, 3.84715E-05, 2.58427E-06, 2.58427E-06, 2.58427E-06
9756, 1,8.77869E-05, -3.16723E-05, 3.03616E-05, 3.58913, -1.55434, 0.000243123, 12.244, -1.01225, 0, 0.000774168, 0.000116562, 0.000129342, 4.89168, 0.829282, 0, 0.000774145, 5.9254E-05, 6.94039E-05, 2.29793, 0.674865, 0, 0.000774147, -0.134239, -2.41676, 0.0631499, -0.0667254, -1.33523, -0.622638, 1.02186E-05, -3.80768E-05, 1.44011E-05, 9.21452E-06, 9.21452E-06, 9.21452E-06
9757, 1,0.000201318, 5.58943E-05, 5.0891E-05, 10.6466, 2.88294, 0.000324139, 15.9543, -0.85308, 0, 0.000854742, 0.000257133, 0.00022854, 13.5258, -1.8449, 0, 0.000854755, 0.000145566, 0.000126989, 7.77045, -1.1966, 0, 0.000854746, 0.0619961, -2.74105, 8.21374, 0.0346976, -1.46619, 5.0213, -2.77285E-05, -8.70419E-05, 0.000144708, -1.80961E-05, -1.80961E-05, -1.80961E-05
9758, 1,0.00014645, -4.42039E-05, 4.32208E-05, 6.90951, -2.12442, 0.000266079, 12.0464, 0.710963, 0, 0.000827907, 0.000188669, 0.000190788, 8.86957, 0.063619, 0, 0.000827916, 0.000104247, 0.000104426, 4.95019, -0.0312123, 0, 0.000827917, 0.149123, -2.71597, 2.37599, 0.0790707, -1.46607, 1.48063, 4.20939E-06, -5.64531E-05, 5.12113E-05, 1.23548E-06, 1.23548E-06, 1.23548E-06
9759, 1,0.000119882, -4.38364E-05, 3.9949E-05, 4.9077, -2.26307, 0.0002473, 10.7651, 1.24003, 0, 0.000801048, 0.000155917, 0.000175007, 6.41951, 1.27554, 0, 0.000801047, 8.38692E-05, 9.52233E-05, 3.39688, 0.761519, 0, 0.000801054, 0.00588953, -2.55807, -1.27443, 0.00482352, -1.39531, -0.894066, 2.02446E-05, -3.40248E-05, -6.91834E-06, 1.21273E-05, 1.21273E-05, 1.21273E-05
9760, 1,0.000118762, -4.71701E-05, 4.2276E-05, 4.47557, -2.46579, 0.000285601, 12.8878, 0.819672, 0, 0.000774187, 0.000155984, 0.000184398, 5.99829, 1.8454, 0, 0.000774174, 8.16744E-05, 0.000100317, 2.95915, 1.21006, 0, 0.000774182, -0.17602, -2.63448, -2.7257, -0.0922748, -1.44595, -2.09194, 2.53272E-05, -2.66654E-05, -2.86076E-05, 1.70916E-05, 1.70916E-05, 1.70916E-05
9761, 1,0.000189208, 5.34219E-05, 4.97125E-05, 9.83594, 2.70529, 0.000322682, 15.7174, -0.627361, 0, 0.000854741, 0.000242549, 0.00022033, 12.5374, -1.44296, 0, 0.000854753, 0.000135931, 0.000121143, 7.13758, -0.958021, 0, 0.000854746, 0.0717679, -0.514942, 4.77207, 0.0416775, -0.263036, 3.09542, -2.11981E-05, -3.35964E-05, 7.82098E-05, -1.41975E-05, -1.41975E-05, -1.41975E-05
9762, 1,0.0001436, -4.16737E-05, 4.16651E-05, 6.95757, 1.99139, 0.000266356, 12.5158, 0.0978625, 0, 0.000827896, 0.000185238, 0.000183499, 8.94813, -0.259722, 0, 0.000827901, 0.000101976, 0.000100255, 4.96771, -0.198868, 0, 0.0008279, 0.219963, -0.466173, 1.02537, 0.118072, -0.249512, 0.728045, 6.1411E-07, -1.39323E-05, 1.75328E-05, -5.81403E-07, -5.81403E-07, -5.81403E-07
9763, 1,0.000126478, -4.23654E-05, 4.01614E-05, 5.57678, -2.09099, 0.000258228, 11.883, 0.431949, 0, 0.000801043, 0.000164417, 0.00017625, 7.28112, 0.657675, 0, 0.00080104, 8.85543E-05, 9.60253E-05, 3.87311, 0.41924, 0, 0.000801043, 0.168734, -0.403588, -1.73817, 0.0933944, -0.22806, -1.12305, 1.39599E-05, 1.84056E-06, -2.64727E-05, 8.61154E-06, 8.61154E-06, 8.61154E-06
9764, 1,0.000139484, -4.98166E-05, 4.6415E-05, 5.76397, -2.51078, 0.000313456, 14.5225, 0.392227, 0, 0.000774181, 0.000182389, 0.000203636, 7.63534, 1.32258, 0, 0.000774169, 9.667E-05, 0.000111132, 3.89684, 0.902415, 0, 0.000774174, -0.0121506, -0.482847, -3.47273, -0.00321179, -0.279409, -2.42462, 2.05626E-05, 1.06398E-05, -5.26642E-05, 1.41336E-05, 1.41336E-05, 1.41336E-05
9765, 1,0.000172041, 4.93743E-05, 4.53074E-05, 9.01617, 2.52601, 0.00030697, 15.2668, -1.01967, 0, 0.000854741, 0.000221353, 0.000198527, 11.5392, -1.44771, 0, 0.000854747, 0.000122783, 0.000108105, 6.49566, -0.930446, 0, 0.00085474, 0.0273, 1.90155, 2.41427, 0.014485, 1.05043, 1.72642, -2.22151E-05, 1.74644E-05, 2.82431E-05, -1.43397E-05, -1.43397E-05, -1.43397E-05
9766, 1,0.000139039, 4.05524E-05, 3.81174E-05, 7.01135, 2.02307, 0.000261938, 12.9344, -0.745018, 0, 0.000827888, 0.000179579, 0.000167614, 9.03383, -0.734135, 0, 0.000827887, 9.85106E-05, 9.14732E-05, 4.98939, -0.447946, 0, 0.000827883, -0.0222894, 1.66392, 0.560775, -0.00926013, 0.912301, 0.440796, -1.19858E-05, 2.36699E-05, 2.28997E-07, -7.20081E-06, -7.20081E-06, -7.20081E-06
9767, 1,0.000129425, 3.87586E-05, 3.79006E-05, 6.16125, 1.87033, 0.000261221, 12.7932, -0.600762, 0, 0.000801032, 0.000168171, 0.000166583, 8.03099, -0.111373, 0, 0.000801026, 9.0691E-05, 9.0879E-05, 4.29199, -0.00780463, 0, 0.000801024, 0.019312, 1.65033, -1.33553, 0.0167047, 0.883903, -0.877194, -1.31222E-06, 3.31909E-05, -3.00714E-05, 2.6502E-07, 2.6502E-07, 2.6502E-07
9768, 1,0.000148007, -4.57699E-05, 4.54683E-05, 6.71993, -2.16926, 0.000319511, 15.5858, -0.651847, 0, 0.000774172, 0.000193102, 0.000199943, 8.84511, 0.377597, 0, 0.00077416, 0.000102971, 0.000109226, 4.59754, 0.361194, 0, 0.00077416, 0.07874, 1.81186, -3.02339, 0.0484357, 0.955313, -2.08733, 7.60603E-06, 4.43156E-05, -5.8049E-05, 6.70601E-06, 6.70601E-06, 6.70601E-06
9769, 1,0.000129483, -5.60421E-05, 4.61729E-05, 4.71094, -3.18545, 0.000212181, 5.0993, 6.62166, 0, 0.000854827, 0.000165635, 0.000200487, 5.88272, 2.61348, 0, 0.000854882, 9.34606E-05, 0.000108595, 3.54526, 1.17109, 0, 0.000854902, -0.675949, -4.01002, -3.15448, -0.358649, -2.11741, -1.03722, 2.68713E-05, -4.36893E-05, -2.55918E-05, 1.08681E-05, 1.08681E-05, 1.08681E-05
9770, 1,0.000115568, -6.94453E-05, 5.17049E-05, 1.802, -4.41542, 0.000217607, 2.31567, 10.7055, 0, 0.000828016, 0.00014951, 0.00022392, 2.27281, 6.43933, 0, 0.000828073, 8.16449E-05, 0.000120622, 1.33212, 3.39422, 0, 0.000828114, -2.61434, -5.17503, -11.5286, -1.40424, -2.77944, -5.99897, 4.61299E-05, -8.08234E-06, -0.000142541, 2.3776E-05, 2.3776E-05, 2.3776E-05
9771, 1,0.000111712, -7.29102E-05, 5.28517E-05, 0.774383, -4.75182, 0.000210375, 1.68046, 11.0998, 0, 0.000801152, 0.0001445, 0.000234358, 1.01804, 7.80697, 0, 0.000801195, 7.89275E-05, 0.000128731, 0.530904, 4.29799, 0, 0.00080124, -2.85932, -5.04673, -15.5149, -1.53689, -2.7488, -8.60828, 6.24887E-05, 1.61724E-05, -0.000205347, 3.52066E-05, 3.52066E-05, 3.52066E-05
9772, 1,9.8975E-05, -6.8074E-05, 4.83493E-05, 0.70578, -4.283, 0.000193616, 3.27279, 7.89681, 0, 0.000774257, 0.000127499, 0.000220793, 0.988262, 6.76763, 0, 0.000774271, 7.05289E-05, 0.00012439, 0.426897, 3.90423, 0, 0.000774307, -1.08635, -4.08288, -15.1337, -0.585607, -2.2594, -8.86769, 8.35937E-05, 2.01963E-05, -0.00021361, 4.90915E-05, 4.90915E-05, 4.90915E-05
9773, 1,0.000130203, -6.07454E-05, 4.9026E-05, 4.48172, -3.47469, 0.000228418, 5.7559, 6.77017, 0, 0.000854833, 0.000167363, 0.000210928, 5.63412, 3.0573, 0, 0.000854885, 9.31709E-05, 0.00011331, 3.33537, 1.43502, 0, 0.000854907, -0.546877, -2.70076, -5.92427, -0.297531, -1.44733, -2.56018, 3.66115E-05, -8.97767E-06, -7.72456E-05, 1.63387E-05, 1.63387E-05, 1.63387E-05
9774, 1,0.000109454, -6.82277E-05, 5.0265E-05, 2.12028, -4.1722, 0.000209314, 3.26786, 8.89978, 0, 0.000827993, 0.000141726, 0.000217439, 2.69784, 5.3742, 0, 0.000828041, 7.72072E-05, 0.000117029, 1.54398, 2.82797, 0, 0.000828075, -0.966136, -2.67597, -12.4805, -0.526284, -1.44584, -6.51178, 6.42586E-05, 2.80365E-05, -0.000179504, 3.34667E-05, 3.34667E-05, 3.34667E-05
9775, 1,0.000107584, -7.23762E-05, 5.19567E-05, 1.30569, -4.51357, 0.000204788, 2.76748, 9.28472, 0, 0.000801131, 0.000139114, 0.000230237, 1.70288, 6.54494, 0, 0.000801167, 7.6061E-05, 0.000126393, 0.908785, 3.60833, 0, 0.000801205, -1.13823, -2.55526, -15.9413, -0.612302, -1.39112, -8.82156, 7.90163E-05, 4.9029E-05, -0.000234252, 4.3895E-05, 4.3895E-05, 4.3895E-05
9776, 1,0.000111519, -7.39723E-05, 5.32838E-05, 1.41358, -4.54134, 0.00022368, 4.5987, 8.02396, 0, 0.00077426, 0.000144037, 0.000241366, 1.90518, 6.58563, 0, 0.000774278, 7.90604E-05, 0.000135034, 0.924778, 3.7771, 0, 0.000774314, -0.80315, -2.5529, -16.4008, -0.429289, -1.39704, -9.50497, 8.67037E-05, 4.97209E-05, -0.000243292, 5.03801E-05, 5.03801E-05, 5.03801E-05
9777, 1,0.00012814, -4.91244E-05, 4.28027E-05, 5.42097, -2.60639, 0.000223091, 7.8546, 3.61233, 0, 0.000854793, 0.000164478, 0.000185253, 6.8536, 1.23591, 0, 0.000854826, 9.19244E-05, 0.000100067, 3.99417, 0.47095, 0, 0.000854836, 0.0653831, -0.221119, -3.552, 0.0339, -0.109007, -1.33774, 2.08784E-05, 1.48109E-05, -5.57448E-05, 8.16608E-06, 8.16608E-06, 8.16608E-06
9778, 1,9.82468E-05, -4.87717E-05, 3.87689E-05, 3.20979, -2.76787, 0.000183432, 5.33364, 4.48123, 0, 0.000827945, 0.000126979, 0.00016837, 4.10482, 2.54773, 0, 0.000827971, 6.95448E-05, 9.09612E-05, 2.31621, 1.30416, 0, 0.000827988, 0.0427736, -0.22033, -7.46565, 0.0212106, -0.117945, -3.81574, 4.10964E-05, 3.54839E-05, -0.000117923, 2.1058E-05, 2.1058E-05, 2.1058E-05
9779, 1,9.13371E-05, -5.09529E-05, 3.89611E-05, 2.3375, -2.97089, 0.000178755, 4.96271, 4.68273, 0, 0.000801082, 0.000118298, 0.000172619, 3.04894, 3.41496, 0, 0.000801098, 6.43833E-05, 9.47651E-05, 1.62637, 1.90287, 0, 0.000801118, 0.00878834, -0.183897, -10.0698, 0.0117816, -0.105224, -5.61516, 5.39928E-05, 4.99127E-05, -0.000159321, 3.02426E-05, 3.02426E-05, 3.02426E-05
9780, 1,0.000105188, -5.67843E-05, 4.40336E-05, 2.69014, -3.27345, 0.000219914, 7.22496, 4.25658, 0, 0.000774222, 0.000136385, 0.000198381, 3.57485, 3.85667, 0, 0.000774227, 7.40583E-05, 0.000110571, 1.80861, 2.27215, 0, 0.000774247, 0.00537554, -0.221918, -11.3535, 0.00937716, -0.132735, -6.69309, 6.08378E-05, 5.6069E-05, -0.00017949, 3.59664E-05, 3.59664E-05, 3.59664E-05
9781, 1,0.000157114, -4.55205E-05, 4.52273E-05, 7.74197, -2.14558, 0.00027901, 12.6509, 0.719336, 0, 0.000854758, 0.000201959, 0.000197155, 9.86716, -0.43278, 0, 0.000854774, 0.000112343, 0.000106963, 5.62034, -0.417249, 0, 0.000854774, 0.183958, 2.43906, -1.32468, 0.105114, 1.36504, -0.21841, -2.89486E-06, 4.48236E-05, -3.49058E-05, -4.31694E-06, -4.31694E-06, -4.31694E-06
9782, 1,0.000127345, -3.97889E-05, 3.84571E-05, 5.89951, -1.95188, 0.000237828, 10.6009, 0.858827, 0, 0.000827906, 0.00016445, 0.000168554, 7.58166, 0.256054, 0, 0.000827915, 9.02592E-05, 9.17416E-05, 4.21822, 0.0642233, 0, 0.000827917, -0.0161058, 2.10928, -2.86134, 0.00249098, 1.16149, -1.35665, 3.75577E-06, 4.86886E-05, -5.65995E-05, 1.13142E-06, 1.13142E-06, 1.13142E-06
9783, 1,0.000117569, -4.06145E-05, 3.79124E-05, 5.0715, -2.04287, 0.000236849, 10.5701, 0.838168, 0, 0.000801043, 0.000152772, 0.000166639, 6.61189, 0.817272, 0, 0.000801044, 8.23716E-05, 9.08875E-05, 3.53137, 0.485812, 0, 0.000801048, 0.0692409, 2.01722, -4.53827, 0.0569848, 1.08108, -2.59551, 1.43583E-05, 5.55795E-05, -8.31999E-05, 8.87965E-06, 8.87965E-06, 8.87965E-06
9784, 1,0.000135955, -4.91676E-05, 4.52821E-05, 5.64948, -2.4762, 0.000292012, 13.3311, 0.631224, 0, 0.000774187, 0.000177283, 0.000199961, 7.45023, 1.24709, 0, 0.00077418, 9.46843E-05, 0.000109607, 3.85141, 0.837442, 0, 0.000774185, 0.27238, 2.1373, -6.15094, 0.156331, 1.11847, -3.78712, 2.5386E-05, 6.48958E-05, -0.000110519, 1.6478E-05, 1.6478E-05, 1.6478E-05
9785, 1,0.00013539, -0.000127076, 8.47506E-05, -1.13099, -8.38981, 0.000303242, -2.8968, 23.1454, 0, 0.000855025, 0.000177797, 0.000352597, -1.51074, 13.3183, 0, 0.000855161, 9.30005E-05, 0.000183188, -0.750454, 6.91283, 0, 0.00085525, -3.52974, -4.11462, -32.3105, -1.89267, -2.18608, -16.6598, 0.000135088, 0.000122699, -0.000473907, 6.88456E-05, 6.88456E-05, 6.88456E-05
9786, 1,0.000175456, -0.000147677, 0.000100383, -2.43853, -10.2333, 0.000358904, -5.07325, 29.6031, 0, 0.000828224, 0.000228543, 0.000431085, -3.18344, 18.7873, 0, 0.000828369, 0.000122372, 0.000230401, -1.69351, 10.0447, 0, 0.000828487, -9.24875, -5.45982, -41.6535, -4.97666, -2.93506, -22.2224, 0.00010022, 0.000180375, -0.000585462, 5.2921E-05, 5.2921E-05, 5.2921E-05
9787, 1,0.000185406, -0.00015504, 0.00010473, -2.7945, -10.723, 0.0003521, -5.34295, 29.5334, 0, 0.000801345, 0.000239827, 0.000462372, -3.61808, 20.0877, 0, 0.000801468, 0.000130986, 0.000252977, -1.97092, 10.9643, 0, 0.000801587, -9.35377, -5.66197, -45.2474, -5.07675, -3.08231, -24.734, 0.000118512, 0.000196578, -0.00064106, 6.53242E-05, 6.53242E-05, 6.53242E-05
9788, 1,0.000170276, -0.000151324, 9.9806E-05, -2.04897, -10.0232, 0.000296637, -3.7015, 23.8069, 0, 0.000774414, 0.00021856, 0.000452178, -2.63837, 17.4213, 0, 0.000774494, 0.000121995, 0.000252613, -1.45943, 9.70628, 0, 0.000774591, -3.99501, -4.73548, -43.5334, -2.17564, -2.59925, -24.344, 0.00018985, 0.000174185, -0.000646736, 0.00010684, 0.00010684, 0.00010684
9789, 1,9.50148E-05, -8.32679E-05, 5.66656E-05, 0.7906, -5.14463, 0.000214588, 1.07162, 12.1848, 0, 0.000854894, 0.000125029, 0.000233168, 0.999795, 6.59523, 0, 0.000854972, 6.50479E-05, 0.000119995, 0.583741, 3.34617, 0, 0.000855017, 0.118124, 0.00674862, -19.9105, 0.046971, 0.00030215, -10.0858, 0.000106446, 0.000104027, -0.000317495, 5.37749E-05, 5.37749E-05, 5.37749E-05
9790, 1,0.000117488, -0.000100511, 6.81445E-05, 0.385952, -6.33062, 0.000243851, 0.670969, 14.5812, 0, 0.000828055, 0.000153258, 0.000291748, 0.496194, 9.0641, 0, 0.000828129, 8.17263E-05, 0.000155538, 0.276097, 4.81812, 0, 0.000828186, -0.829028, -0.00804686, -26.3552, -0.461902, -0.00738822, -13.9851, 0.000125301, 0.000142597, -0.000414984, 6.6203E-05, 6.6203E-05, 6.6203E-05
9791, 1,0.000130883, -0.000106497, 7.2413E-05, 0.428889, -6.71949, 0.000246503, 0.760984, 14.6286, 0, 0.000801188, 0.00016921, 0.000319874, 0.554046, 9.99915, 0, 0.000801249, 9.25564E-05, 0.000175101, 0.303799, 5.46848, 0, 0.000801308, -0.820554, 0.134205, -29.3111, -0.440181, 0.0735746, -16.0388, 0.000140141, 0.000160333, -0.000462733, 7.68353E-05, 7.68353E-05, 7.68353E-05
9792, 1,0.000128459, -0.000103726, 6.9969E-05, 0.570004, -6.44319, 0.000223093, 1.22783, 12.5151, 0, 0.000774304, 0.000164665, 0.000318704, 0.740255, 9.46038, 0, 0.000774342, 9.22575E-05, 0.000178812, 0.39994, 5.32023, 0, 0.000774394, 0.217895, 0.312807, -28.9118, 0.130421, 0.172127, -16.2633, 0.000153573, 0.000155627, -0.000462716, 8.6516E-05, 8.6516E-05, 8.6516E-05
9793, 1,6.87171E-05, -5.56718E-05, 3.86796E-05, 0.902397, -3.42858, 0.000150579, 1.00216, 8.2138, 0, 0.000854842, 9.03112E-05, 0.000157213, 1.1254, 4.22221, 0, 0.000854897, 4.72137E-05, 8.0139E-05, 0.683817, 2.07963, 0, 0.000854927, -0.12887, -0.126654, -12.4111, -0.083748, -0.0718161, -6.08332, 6.38438E-05, 6.38317E-05, -0.000196191, 3.10588E-05, 3.10588E-05, 3.10588E-05
9794, 1,7.71616E-05, -6.46791E-05, 4.40537E-05, 0.487309, -4.03833, 0.000153878, 0.475628, 9.13082, 0, 0.000827996, 0.000100548, 0.000187854, 0.61102, 5.56314, 0, 0.000828044, 5.38142E-05, 9.98755E-05, 0.365545, 2.92604, 0, 0.00082808, -0.28858, -0.131796, -16.269, -0.164604, -0.0731957, -8.54033, 8.16033E-05, 8.48394E-05, -0.000256717, 4.26994E-05, 4.26994E-05, 4.26994E-05
9795, 1,8.14826E-05, -6.81968E-05, 4.59824E-05, 0.204477, -4.28724, 0.000152758, 0.3787, 9.19017, 0, 0.00080113, 0.000105248, 0.00020389, 0.263527, 6.3284, 0, 0.000801167, 5.77194E-05, 0.000111972, 0.14555, 3.46922, 0, 0.000801204, -0.222252, -0.0941984, -18.6687, -0.109428, -0.0504209, -10.2478, 9.49828E-05, 9.7687E-05, -0.000295363, 5.23407E-05, 5.23407E-05, 5.23407E-05
9796, 1,8.75882E-05, -6.99504E-05, 4.72287E-05, 0.285561, -4.36888, 0.000154088, 0.944878, 8.51359, 0, 0.000774262, 0.000112075, 0.000217276, 0.379941, 6.60534, 0, 0.000774286, 6.31154E-05, 0.000122891, 0.191869, 3.7495, 0, 0.000774322, -0.0652343, -0.106587, -19.6442, -0.0235349, -0.0573131, -11.1676, 0.000102623, 0.000101789, -0.000311598, 5.85261E-05, 5.85261E-05, 5.85261E-05
9797, 1,7.86338E-05, -3.65853E-05, 2.96717E-05, 2.79324, -2.11744, 0.000139506, 3.337, 4.374, 0, 0.000854799, 0.000101148, 0.000123841, 3.46877, 1.76226, 0, 0.000854835, 5.63407E-05, 6.52154E-05, 2.12836, 0.718786, 0, 0.000854849, -0.692221, 0.665126, -5.25968, -0.364625, 0.391719, -2.18345, 1.31936E-05, 4.18463E-05, -8.36366E-05, 3.69619E-06, 3.69619E-06, 3.69619E-06
9798, 1,6.66094E-05, -3.53435E-05, 2.75454E-05, 1.72336, -2.14861, 0.000117954, 2.18644, 4.55166, 0, 0.000827946, 8.62939E-05, 0.000117983, 2.17538, 2.55662, 0, 0.000827973, 4.69807E-05, 6.30778E-05, 1.27406, 1.27174, 0, 0.00082799, -1.15713, 0.299114, -6.81185, -0.592829, 0.178025, -3.4004, 1.58803E-05, 4.66083E-05, -0.000103976, 7.58972E-06, 7.58972E-06, 7.58972E-06
9799, 1,5.59505E-05, -3.39433E-05, 2.52295E-05, 0.782668, -2.13523, 0.000111457, 1.9745, 4.42407, 0, 0.000801079, 7.24596E-05, 0.000112603, 1.0319, 3.21431, 0, 0.000801095, 3.94466E-05, 6.22048E-05, 0.533678, 1.78755, 0, 0.000801114, -1.06756, 0.117724, -8.69311, -0.558976, 0.0541801, -4.85786, 2.80463E-05, 5.3128E-05, -0.000133334, 1.6337E-05, 1.6337E-05, 1.6337E-05
9800, 1,6.6661E-05, -4.05435E-05, 2.99667E-05, 0.949234, -2.48364, 0.000135167, 3.23769, 4.23215, 0, 0.000774221, 8.59637E-05, 0.000138274, 1.29399, 3.71944, 0, 0.000774227, 4.7424E-05, 7.85998E-05, 0.607611, 2.19471, 0, 0.000774246, -0.666532, 0.128528, -10.6203, -0.354445, 0.0419704, -6.27166, 4.44371E-05, 6.13155E-05, -0.000166109, 2.70247E-05, 2.70247E-05, 2.70247E-05
9801, 1,6.62053E-05, -4.20442E-05, 2.91677E-05, 0.339953, -2.62319, 0.000102413, 0.783787, 5.44942, 0, 0.000807489, 8.20809E-05, 0.000134576, 0.454129, 4.59875, 0, 0.0008075, 5.04586E-05, 7.84714E-05, 0.231916, 2.88952, 0, 0.000807522, -2.1024, -11.9314, 0.237541, -2.01721, -6.8117, 0.160352, 2.79299E-05, -0.000180037, 7.7482E-05, 2.8111E-06, 2.8111E-06, 2.8111E-06
9802, 1,5.81118E-05, -2.0672E-05, 1.9824E-05, 2.58324, -1.0317, 0.000124705, 5.61885, 0.369329, 0, 0.000821124, 7.70176E-05, 7.98238E-05, 3.42204, 0.290601, 0, 0.000821125, 3.92707E-05, 4.04112E-05, 1.74749, 0.14358, 0, 0.000821127, -0.144245, -0.598582, -0.128976, -0.0919684, -0.406915, 0.0681421, 1.47763E-06, -8.09878E-06, 1.90545E-06, 2.68183E-07, 2.68183E-07, 2.68183E-07
9803, 1,0.000161003, 4.75599E-05, 4.32716E-05, 8.4603, 2.43225, 0.000307266, 15.3998, -1.1796, 0, 0.00077288, 0.000208515, 0.000185058, 10.8903, -1.39102, 0, 0.000772883, 0.000113532, 9.86785E-05, 6.03233, -0.89524, 0, 0.000772877, -0.142794, 7.07184, -2.75599, -0.0785921, 3.86084, -1.09653, -2.48999E-05, 0.000127751, -8.02789E-05, -1.57312E-05, -1.57312E-05, -1.57312E-05
9804, 1,0.000127913, 3.90744E-05, 3.20202E-05, 7.33299, 2.17234, 0.000259211, 14.241, -2.67397, 0, 0.000590394, 0.000166955, 0.000132675, 9.50379, -2.16717, 0, 0.000590389, 8.89003E-05, 6.87897E-05, 5.16362, -1.2922, 0, 0.000590381, -0.0254571, 8.95499, -2.42802, 0.00168653, 4.82984, -0.954918, -3.46447E-05, 0.000155355, -8.55429E-05, -2.02883E-05, -2.02883E-05, -2.02883E-05
9805, 1,3.86375E-05, 1.21113E-05, 1.07662E-05, 2.08207, 0.62479, 8.10849E-05, 4.06923, -0.318511, 0, 0.00074293, 5.07427E-05, 4.37967E-05, 2.70657, -0.414301, 0, 0.000742931, 2.65385E-05, 2.24638E-05, 1.45788, -0.273518, 0, 0.000742929, -0.131946, 2.67731, -1.30246, -0.0711298, 1.43782, -0.546133, -9.30028E-06, 5.01249E-05, -3.41016E-05, -5.79529E-06, -5.79529E-06, -5.79529E-06
9806, 1,1.6695E-05, -6.90825E-06, 6.02079E-06, 0.636707, -0.384171, 3.508E-05, 1.2271, 0.578778, 0, 0.000503377, 2.18013E-05, 2.55426E-05, 0.820369, 0.282044, 0, 0.000503379, 1.16185E-05, 1.36761E-05, 0.454443, 0.127078, 0, 0.000503381, -0.233429, 0.497861, -1.11056, -0.12824, 0.260668, -0.513662, -4.7955E-07, 1.4974E-05, -1.90712E-05, -6.93753E-07, -6.93753E-07, -6.93753E-07
9807, 1,9.60399E-06, -5.42019E-06, 4.1156E-06, 0.293151, -0.301697, 1.77506E-05, 0.533799, 0.409781, 0, 0.000578535, 1.23909E-05, 1.83289E-05, 0.379306, 0.277251, 0, 0.000578537, 6.83666E-06, 1.01653E-05, 0.207942, 0.154914, 0, 0.000578538, 0.328619, -0.723961, -0.436411, 0.171791, -0.411891, -0.224644, 1.13255E-05, -1.09541E-05, -4.87043E-06, 6.08071E-06, 6.08071E-06, 6.08071E-06
9808, 1,1.60578E-05, -1.05414E-05, 7.68117E-06, 0.3711, -0.605265, 3.13062E-05, 0.79091, 0.924961, 0, 0.000771242, 2.08207E-05, 3.40356E-05, 0.489114, 0.665234, 0, 0.000771245, 1.13423E-05, 1.88134E-05, 0.255339, 0.377559, 0, 0.000771248, 0.293987, -2.05378, -0.23591, 0.142144, -1.16943, -0.105392, 1.67041E-05, -3.29829E-05, 5.48387E-06, 8.96073E-06, 8.96073E-06, 8.96073E-06
9809, 1,2.66178E-05, -1.90813E-05, 1.3361E-05, 0.321809, -1.15395, 4.91494E-05, 0.707621, 2.16925, 0, 0.000826514, 3.41441E-05, 5.98409E-05, 0.425605, 1.59667, 0, 0.000826522, 1.91491E-05, 3.33662E-05, 0.220628, 0.919184, 0, 0.000826531, 0.0129449, -4.63888, -0.164066, -0.0571132, -2.63079, -0.069652, 2.54046E-05, -7.30128E-05, 2.16986E-05, 1.32526E-05, 1.32526E-05, 1.32526E-05
9810, 1,5.13737E-05, -1.70811E-05, 1.66914E-05, 2.38781, -0.82476, 0.000108168, 5.02551, 0.116007, 0, 0.000936361, 6.76554E-05, 6.88737E-05, 3.13982, 0.076865, 0, 0.000936361, 3.511E-05, 3.55752E-05, 1.63665, 0.0298875, 0, 0.000936362, -0.0271341, 0.825546, -1.02901, -0.0228881, 0.387185, -0.45396, 6.22592E-07, 1.86688E-05, -2.05387E-05, -2.68732E-08, -2.68732E-08, -2.68732E-08
9811, 1,0.000107066, 3.4608E-05, 2.63241E-05, 6.47621, 2.0375, 0.00023276, 13.6999, -3.62643, 0, 0.000749799, 0.00014167, 0.000103785, 8.51352, -2.4425, 0, 0.000749784, 7.24656E-05, 5.11673E-05, 4.43909, -1.36267, 0, 0.000749771, 0.14934, 7.40566, -0.227508, 0.0664228, 3.90626, 0.115315, -3.53096E-05, 0.000118219, -4.32743E-05, -2.00569E-05, -2.00569E-05, -2.00569E-05
9812, 1,9.37691E-05, 3.21944E-05, 2.40976E-05, 5.77426, 1.8449, 0.000208749, 13.0169, -4.23322, 0, 0.000750443, 0.000125945, 9.35178E-05, 7.61831, -2.23819, 0, 0.000750419, 6.16131E-05, 4.53878E-05, 3.93113, -1.36937, 0, 0.000750409, -1.09613, 6.36469, 1.446, -0.312558, 3.38913, 1.03153, -5.84437E-05, 9.94137E-05, -4.65024E-06, -2.81813E-05, -2.81813E-05, -2.81813E-05
9813, 1,0.000157595, 4.78394E-05, 3.4064E-05, 9.79183, 2.89917, 0.000318174, 19.2329, -5.63671, 0, 0.000842851, 0.000205344, 0.000143238, 12.6867, -4.00595, 0, 0.000842829, 0.000109929, 7.60254E-05, 6.90096, -2.2911, 0, 0.000842806, -0.236754, 12.2223, 0.0322669, -0.102246, 6.59561, 0.379926, -6.80685E-05, 0.000195527, -6.24521E-05, -3.82119E-05, -3.82119E-05, -3.82119E-05
9814, 1,0.000127691, 3.74762E-05, 3.30174E-05, 6.91047, 1.97678, 0.000239617, 12.3677, -1.40126, 0, 0.000932865, 0.000165119, 0.000141819, 8.88494, -1.45233, 0, 0.000932866, 9.03059E-05, 7.59515E-05, 4.93801, -0.899871, 0, 0.000932857, -0.00949565, 4.60789, -0.241417, -0.00283137, 2.51016, 0.192288, -2.30619E-05, 7.46464E-05, -2.80171E-05, -1.42194E-05, -1.42194E-05, -1.42194E-05
9815, 1,9.54605E-05, 2.7501E-05, 2.32437E-05, 5.18316, 1.45667, 0.000172684, 8.94387, -1.05123, 0, 0.00101388, 0.000122904, 0.000101202, 6.63713, -1.1128, 0, 0.00101388, 6.80654E-05, 5.49067E-05, 3.7315, -0.691131, 0, 0.00101387, -0.36801, 1.72567, 1.98073, -0.200473, 0.936827, 1.33704, -2.5303E-05, 1.90037E-05, 2.4357E-05, -1.51172E-05, -1.51172E-05, -1.51172E-05
9816, 1,1.46278E-05, -5.77816E-06, 5.1579E-06, 0.474607, -0.358872, 3.10073E-05, 0.790083, 0.907301, 0, 0.000711559, 1.9096E-05, 2.12544E-05, 0.599984, 0.406508, 0, 0.000711565, 1.02419E-05, 1.14091E-05, 0.353134, 0.176007, 0, 0.000711568, -0.531608, 0.365031, -1.05294, -0.286338, 0.195777, -0.437461, -4.82762E-06, 1.41283E-05, -1.58972E-05, -3.26784E-06, -3.26784E-06, -3.26784E-06
9817, 1,6.09352E-05, 1.64997E-05, 1.20008E-05, 3.51258, 0.934393, 9.85167E-05, 5.46166, -1.08193, 0, 0.00084879, 7.7373E-05, 5.52242E-05, 4.44409, -1.05732, 0, 0.000848789, 4.45451E-05, 3.15597E-05, 2.5833, -0.641965, 0, 0.000848784, -0.499679, 0.267892, 3.40373, -0.275287, 0.144583, 2.0566, -2.72147E-05, -1.09768E-05, 5.53489E-05, -1.59257E-05, -1.59257E-05, -1.59257E-05
9818, 1,4.23122E-05, -3.01089E-05, 2.0876E-05, 0.425341, -1.8692, 7.39841E-05, 0.693107, 3.76606, 0, 0.000828733, 5.38644E-05, 9.4989E-05, 0.525311, 2.70888, 0, 0.000828748, 3.08041E-05, 5.35464E-05, 0.32736, 1.50994, 0, 0.000828764, -0.198757, -7.97514, 0.047269, -0.132646, -4.48716, 0.0899956, 3.84178E-05, -0.000126088, 4.37125E-05, 2.09343E-05, 2.09343E-05, 2.09343E-05
9819, 1,5.86214E-05, 1.87314E-05, 1.86643E-05, 2.23534, -1.01806, 0.000114217, 5.24767, 0.2026, 0, 0.000787444, 7.72108E-05, 7.74839E-05, 2.97485, 0.903786, 0, 0.000787435, 4.01851E-05, 4.13518E-05, 1.50298, 0.529959, 0, 0.00078744, -1.34755, -2.19661, 0.83281, -0.862517, -1.33832, 0.610962, -1.43022E-05, -3.22519E-05, 3.18881E-05, -9.92867E-06, -9.92867E-06, -9.92867E-06
9820, 1,3.11158E-05, -1.18446E-05, 1.06922E-05, 1.28648, -0.624674, 6.36966E-05, 2.5574, 0.608454, 0, 0.000780067, 4.0637E-05, 4.52334E-05, 1.67159, 0.334385, 0, 0.000780071, 2.16117E-05, 2.39468E-05, 0.902178, 0.160065, 0, 0.000780073, -0.120816, 0.256047, -1.13839, -0.0638521, 0.108986, -0.525329, 2.71985E-06, 1.0678E-05, -1.88241E-05, 1.18028E-06, 1.18028E-06, 1.18028E-06
9821, 1,3.84151E-05, 1.17208E-05, 9.63656E-06, 2.22742, 0.64958, 7.71559E-05, 4.14418, -0.668639, 0, 0.000636931, 5.01046E-05, 3.96258E-05, 2.87551, -0.681675, 0, 0.000636932, 2.6757E-05, 2.0768E-05, 1.58081, -0.424699, 0, 0.000636929, -0.0164512, 2.36785, -0.306378, -0.00869954, 1.28032, 0.00247177, -1.10711E-05, 3.93697E-05, -1.72368E-05, -6.85937E-06, -6.85937E-06, -6.85937E-06
9822, 1,0.000257237, 7.7629E-05, 5.31327E-05, 17.5634, 5.1819, 0.00051575, 35.1503, -14.4763, 0, 0.000738595, 0.000334624, 0.000224306, 22.7338, -9.29542, 0, 0.000738533, 0.000180065, 0.000118786, 12.4034, -5.22997, 0, 0.000738484, 1.69159, 21.5358, 4.65886, 1.23572, 11.6653, 2.78895, -0.000110597, 0.000309285, -4.78489E-05, -5.62109E-05, -5.62109E-05, -5.62109E-05
9823, 1,1.87808E-05, -8.40365E-06, 6.93446E-06, 0.681871, -0.463642, 3.6035E-05, 1.24071, 0.621138, 0, 0.00046182, 2.42251E-05, 3.05218E-05, 0.872705, 0.365638, 0, 0.000461822, 1.33556E-05, 1.67349E-05, 0.491937, 0.187033, 0, 0.000461823, -0.0131292, -0.284716, -0.799067, -0.00702581, -0.17066, -0.383415, 5.49499E-06, -2.69943E-07, -1.11584E-05, 2.81183E-06, 2.81183E-06, 2.81183E-06
9824, 1,0.000193604, 5.58244E-05, 4.48941E-05, 11.6313, 3.24758, 0.000353236, 20.3941, -4.97071, 0, 0.000760647, 0.000249251, 0.000194657, 14.8703, -4.15162, 0, 0.000760637, 0.000138108, 0.000105383, 8.39959, -2.51465, 0, 0.000760617, 0.73033, 9.93763, 1.78691, 0.471865, 5.47866, 1.59341, -4.98419E-05, 0.000144915, -2.77029E-05, -2.95226E-05, -2.95226E-05, -2.95226E-05
9825, 1,8.19082E-05, 2.60401E-05, 2.20753E-05, 4.45589, 1.36898, 0.000174942, 9.16899, -1.21065, 0, 0.000639272, 0.000107945, 8.869E-05, 5.82473, -0.971645, 0, 0.00063927, 5.58738E-05, 4.45964E-05, 3.0872, -0.600049, 0, 0.000639266, -0.370089, 5.53494, -2.24992, -0.179471, 2.946, -0.966383, -2.31213E-05, 0.000101806, -6.29175E-05, -1.32347E-05, -1.32347E-05, -1.32347E-05
9826, 1,7.99098E-05, 2.44947E-05, 2.09775E-05, 4.34745, 1.29447, 0.000162507, 8.43761, -1.01746, 0, 0.000751635, 0.000104386, 8.67234E-05, 5.64104, -0.950552, 0, 0.000751635, 5.54509E-05, 4.48946E-05, 3.0547, -0.582913, 0, 0.00075163, -0.250871, 5.31513, -2.2126, -0.141642, 2.85751, -0.967126, -2.0266E-05, 9.74973E-05, -6.18063E-05, -1.21637E-05, -1.21637E-05, -1.21637E-05
9827, 1,8.49919E-06, -4.65778E-06, 3.45097E-06, 0.252585, -0.267958, 1.37097E-05, 0.314161, 0.448276, 0, 0.000503929, 1.07176E-05, 1.56943E-05, 0.309581, 0.264448, 0, 0.00050393, 6.30077E-06, 8.86467E-06, 0.19656, 0.135955, 0, 0.000503931, 0.225164, -0.229886, -0.788623, 0.131645, -0.128241, -0.411268, 8.9403E-06, -7.00902E-07, -1.25307E-05, 4.93831E-06, 4.93831E-06, 4.93831E-06
9828, 1,9.96688E-06, -6.73243E-06, 4.90604E-06, 0.191321, -0.410945, 2.13477E-05, 0.35695, 0.875881, 0, 0.000659347, 1.29831E-05, 2.09225E-05, 0.241121, 0.500335, 0, 0.000659351, 7.03835E-06, 1.13198E-05, 0.145672, 0.251105, 0, 0.000659354, -0.0971893, 0.0755325, -1.47935, -0.0448447, 0.0368685, -0.745339, 5.84163E-06, 9.47682E-06, -2.34375E-05, 3.0246E-06, 3.0246E-06, 3.0246E-06
9829, 1,6.28802E-05, -3.87918E-05, 2.76353E-05, 0.302548, -2.49997, 0.000106168, 0.682066, 5.82472, 0, 0.000782092, 7.91453E-05, 0.000125111, 0.404753, 4.48034, 0, 0.000782109, 4.66926E-05, 7.0946E-05, 0.203965, 2.68918, 0, 0.000782131, -2.57705, -11.0942, 0.23021, -2.01448, -6.15726, 0.104198, 1.60265E-05, -0.000164181, 7.54502E-05, -2.82045E-07, -2.82045E-07, -2.82045E-07
9830, 1,5.54649E-05, 1.541E-05, 1.43015E-05, 2.4552, 0.706444, 0.000102392, 4.88759, -0.0650219, 0, 0.000795268, 7.0874E-05, 6.86201E-05, 3.16159, 0.250853, 0, 0.000795264, 4.00564E-05, 4.04127E-05, 1.74885, 0.192131, 0, 0.000795264, -0.798788, -0.236301, 0.28253, -0.516563, -0.213848, 0.154018, -1.29688E-05, -1.05668E-06, 9.95474E-06, -7.9225E-06, -7.9225E-06, -7.9225E-06
9831, 1,0.000147369, 4.34838E-05, 3.7996E-05, 7.82254, 2.27747, 0.000284863, 14.8675, -1.88677, 0, 0.000748314, 0.000190845, 0.00016609, 10.0996, -1.45073, 0, 0.000748309, 0.000103901, 9.0205E-05, 5.54583, -0.853229, 0, 0.000748302, -0.221531, 6.80672, -2.233, -0.0954303, 3.72826, -1.07315, -2.74791E-05, 0.000121197, -7.01767E-05, -1.53974E-05, -1.53974E-05, -1.53974E-05
9832, 1,0.000126341, 3.76013E-05, 2.83851E-05, 7.58701, 2.23076, 0.00024953, 14.799, -4.03817, 0, 0.000571631, 0.000163941, 0.000124265, 9.81769, -2.78028, 0, 0.00057162, 8.87426E-05, 6.7644E-05, 5.35638, -1.5613, 0, 0.000571608, 0.172252, 9.15347, -0.984869, 0.121177, 4.99485, -0.432133, -4.01019E-05, 0.000149898, -6.46791E-05, -2.19816E-05, -2.19816E-05, -2.19816E-05
9833, 1,3.95852E-05, 1.17309E-05, 1.02724E-05, 2.04928, 0.601977, 7.79157E-05, 3.98504, -0.406606, 0, 0.000719638, 5.12995E-05, 4.67089E-05, 2.65047, -0.303617, 0, 0.000719637, 2.78863E-05, 2.63313E-05, 1.44882, -0.175824, 0, 0.000719636, -0.348007, 2.51763, -1.25878, -0.189659, 1.36166, -0.644527, -1.21168E-05, 4.84892E-05, -3.14455E-05, -6.75225E-06, -6.75225E-06, -6.75225E-06
9834, 1,1.7394E-05, -7.45543E-06, 6.32019E-06, 0.584047, -0.424743, 3.546E-05, 1.16306, 0.688898, 0, 0.000487443, 2.25786E-05, 2.98754E-05, 0.756691, 0.416927, 0, 0.000487446, 1.22097E-05, 1.73494E-05, 0.411422, 0.222436, 0, 0.000487447, -0.435676, 0.488835, -1.30394, -0.238697, 0.260133, -0.688743, -2.62347E-06, 1.69073E-05, -2.10495E-05, -1.51759E-06, -1.51759E-06, -1.51759E-06
9835, 1,1.5266E-05, -5.4282E-06, 4.73039E-06, 0.696537, -0.263006, 2.45276E-05, 1.08908, 0.0938798, 0, 0.000554821, 1.91548E-05, 2.23964E-05, 0.873805, 0.042316, 0, 0.000554822, 1.14779E-05, 1.33243E-05, 0.524071, 0.0249564, 0, 0.000554822, 0.761642, -0.587201, -0.301389, 0.406556, -0.322538, -0.158887, 1.6791E-05, -1.17605E-05, -5.71713E-06, 9.00472E-06, 9.00472E-06, 9.00472E-06
9836, 1,1.65146E-05, -1.00738E-05, 7.309E-06, 0.457622, -0.556617, 2.84274E-05, 0.811392, 0.714623, 0, 0.00074752, 2.08386E-05, 3.39622E-05, 0.581471, 0.541955, 0, 0.000747522, 1.23185E-05, 1.98995E-05, 0.339872, 0.325616, 0, 0.000747525, 0.459058, -2.00901, -0.0759109, 0.200138, -1.13661, -0.0403804, 1.82471E-05, -3.39769E-05, 6.93529E-06, 9.36169E-06, 9.36169E-06, 9.36169E-06
9837, 1,2.7188E-05, -1.82505E-05, 1.27315E-05, 0.323263, -1.11819, 4.6898E-05, 0.563806, 2.22028, 0, 0.000800502, 3.43876E-05, 5.97287E-05, 0.40788, 1.63351, 0, 0.00080051, 2.00026E-05, 3.46578E-05, 0.23931, 0.946601, 0, 0.000800519, -0.174072, -4.71451, -0.0119371, -0.178162, -2.66223, 0.00058648, 2.20337E-05, -7.40317E-05, 2.54906E-05, 1.11287E-05, 1.11287E-05, 1.11287E-05
9838, 1,4.71023E-05, 1.34867E-05, 1.28846E-05, 2.27087, 0.65854, 9.13662E-05, 4.49422, -0.236789, 0, 0.000906947, 6.05774E-05, 5.95157E-05, 2.92885, -0.0893673, 0, 0.000906945, 3.36356E-05, 3.40039E-05, 1.61329, -0.0325585, 0, 0.000906944, -0.17671, 0.908093, -0.463282, -0.120929, 0.445289, -0.226684, -5.15221E-06, 1.77991E-05, -1.11967E-05, -3.07674E-06, -3.07674E-06, -3.07674E-06
9839, 1,0.000110317, 3.27596E-05, 2.29096E-05, 7.0855, 2.08768, 0.000218496, 14.1996, -5.20349, 0, 0.000726147, 0.000143074, 0.000101584, 9.17308, -3.23963, 0, 0.000726124, 7.75611E-05, 5.59437E-05, 4.998, -1.79027, 0, 0.000726107, 0.102788, 8.44675, 1.16934, 0.116529, 4.58559, 0.668687, -4.88462E-05, 0.000127696, -2.62793E-05, -2.57281E-05, -2.57281E-05, -2.57281E-05
9840, 1,0.00010673, 3.1741E-05, 2.47244E-05, 7.06737, 2.10093, 0.000205369, 14.0872, -5.88597, 0, 0.000730037, 0.000138467, 0.000106266, 9.16807, -3.52539, 0, 0.000730009, 7.4998E-05, 5.71301E-05, 4.96684, -1.91107, 0, 0.000729989, -0.703166, 8.64974, 2.62961, -0.302451, 4.65802, 1.37763, -7.04062E-05, 0.000127493, 1.21047E-07, -3.65031E-05, -3.65031E-05, -3.65031E-05
9841, 1,0.000167361, 4.99202E-05, 3.4571E-05, 11.0486, 3.24406, 0.000326497, 21.5388, -8.20588, 0, 0.000812591, 0.000217271, 0.000150298, 14.2922, -5.40548, 0, 0.000812555, 0.000117459, 8.12302E-05, 7.80548, -3.0282, 0, 0.000812523, 0.810816, 13.3483, 2.05733, 0.566831, 7.2972, 1.22058, -6.79356E-05, 0.000197311, -4.16592E-05, -3.56541E-05, -3.56541E-05, -3.56541E-05
9842, 1,0.000112821, 3.32147E-05, 2.88145E-05, 6.00138, 1.74886, 0.000216942, 11.3641, -1.49251, 0, 0.000903554, 0.000146026, 0.000126192, 7.74981, -1.13954, 0, 0.000903549, 7.96234E-05, 6.87218E-05, 4.25334, -0.658324, 0, 0.000903542, -0.171603, 4.21745, -0.627235, -0.0857844, 2.30493, -0.244168, -2.1535E-05, 7.1308E-05, -3.12814E-05, -1.21383E-05, -1.21383E-05, -1.21383E-05
9843, 1,8.1999E-05, 2.38191E-05, 1.99829E-05, 4.28928, 1.23874, 0.000153052, 7.89728, -0.89141, 0, 0.000982027, 0.000105789, 8.87854E-05, 5.52669, -0.707593, 0, 0.000982024, 5.82338E-05, 4.90474E-05, 3.05301, -0.403932, 0, 0.000982019, -0.535177, 1.657, 1.00096, -0.292466, 0.901697, 0.602563, -2.24248E-05, 2.393E-05, 9.97719E-06, -1.25053E-05, -1.25053E-05, -1.25053E-05
9844, 1,1.90292E-05, -8.12422E-06, 6.68137E-06, 0.425559, -0.527191, 3.44894E-05, 0.620231, 1.35661, 0, 0.000689176, 2.41358E-05, 3.29993E-05, 0.523689, 0.828921, 0, 0.000689182, 1.40775E-05, 1.9935E-05, 0.334747, 0.4441, 0, 0.000689186, -1.00298, 0.294628, -1.77841, -0.541461, 0.161531, -0.952372, -8.12264E-06, 1.92913E-05, -2.46198E-05, -4.41667E-06, -4.41667E-06, -4.41667E-06
9845, 1,5.09955E-05, 1.40824E-05, 1.12207E-05, 2.64877, 0.735197, 8.70874E-05, 4.50568, -0.522919, 0, 0.000822111, 6.50021E-05, 5.35331E-05, 3.38048, -0.413853, 0, 0.00082211, 3.70474E-05, 3.12373E-05, 1.91974, -0.226752, 0, 0.000822107, -0.919717, 0.198258, 1.96302, -0.509648, 0.106453, 1.08345, -2.59256E-05, -2.31687E-06, 3.49582E-05, -1.43007E-05, -1.43007E-05, -1.43007E-05
9846, 1,4.39031E-05, -2.83395E-05, 1.99614E-05, 0.234344, -1.79424, 7.50579E-05, 0.578416, 3.98872, 0, 0.000802647, 5.54431E-05, 9.34223E-05, 0.324853, 3.08181, 0, 0.000802659, 3.23802E-05, 5.43159E-05, 0.144638, 1.85957, 0, 0.000802675, -1.2331, -8.00189, -0.0104253, -0.983894, -4.55147, -0.0433456, 2.24351E-05, -0.000120779, 4.83345E-05, 8.45767E-06, 8.45767E-06, 8.45767E-06
9847, 1,5.51106E-05, 1.50945E-05, 1.25241E-05, 2.39133, 0.710948, 9.50468E-05, 4.72507, -0.312903, 0, 0.0007626, 7.01344E-05, 6.35601E-05, 3.09901, 0.288312, 0, 0.000762592, 4.01302E-05, 3.92283E-05, 1.68563, 0.281738, 0, 0.000762592, -1.44791, -0.703329, 1.2863, -1.01933, -0.467876, 0.641988, -2.611E-05, -1.03455E-05, 3.1777E-05, -1.71469E-05, -1.71469E-05, -1.71469E-05
9848, 1,2.88919E-05, -9.72387E-06, 9.02648E-06, 1.26265, -0.485532, 5.66017E-05, 2.49936, 0.235901, 0, 0.000755768, 3.72169E-05, 4.19712E-05, 1.63013, 0.172704, 0, 0.000755769, 2.05698E-05, 2.40957E-05, 0.895314, 0.102931, 0, 0.00075577, -0.102425, 0.359194, -0.77488, -0.0696441, 0.163145, -0.402295, 5.63013E-07, 1.03146E-05, -1.36802E-05, 1.58562E-07, 1.58562E-07, 1.58562E-07
9849, 1,3.97853E-05, 1.16337E-05, 9.95155E-06, 2.09986, 0.608085, 7.58148E-05, 3.92117, -0.454106, 0, 0.00061689, 5.13887E-05, 4.61743E-05, 2.70652, -0.373146, 0, 0.000616889, 2.82118E-05, 2.64397E-05, 1.49461, -0.216609, 0, 0.000616888, -0.346698, 2.24234, -0.776206, -0.185316, 1.22157, -0.386429, -1.3175E-05, 4.15722E-05, -2.2342E-05, -7.29347E-06, -7.29347E-06, -7.29347E-06
9850, 1,0.00029681, 8.89317E-05, 5.78863E-05, 20.8658, 6.16083, 0.000578624, 40.9257, -18.243, 0, 0.00072271, 0.000385718, 0.000245924, 27.0255, -11.8167, 0, 0.000722634, 0.000207923, 0.000130385, 14.7072, -6.55633, 0, 0.000722572, 3.92243, 25.0755, 6.4523, 2.45187, 13.6579, 3.5592, -0.000103095, 0.000344476, -4.96268E-05, -5.13584E-05, -5.13584E-05, -5.13584E-05
9851, 1,1.6708E-05, -7.81797E-06, 6.28523E-06, 0.630691, -0.417062, 3.22106E-05, 1.17646, 0.464612, 0, 0.000447363, 2.14258E-05, 2.95132E-05, 0.806094, 0.277426, 0, 0.000447365, 1.20413E-05, 1.71545E-05, 0.457707, 0.149606, 0, 0.000447365, 0.0766015, -0.178435, -0.730445, 0.0382938, -0.104926, -0.382185, 6.01003E-06, 5.898E-07, -1.11017E-05, 3.18728E-06, 3.18728E-06, 3.18728E-06
9852, 1,0.000188511, 5.52774E-05, 4.17116E-05, 11.8988, 3.43304, 0.000351871, 22.0355, -7.26196, 0, 0.000730319, 0.000243752, 0.000183238, 15.3301, -5.11831, 0, 0.000730294, 0.0001333, 9.99128E-05, 8.46913, -2.91358, 0, 0.000730268, 1.64601, 10.2825, 3.42645, 1.00436, 5.64415, 2.09223, -4.56952E-05, 0.000136984, -8.23248E-06, -2.45427E-05, -2.45427E-05, -2.45427E-05
9853, 1,8.12253E-05, 2.41804E-05, 1.84199E-05, 4.71201, 1.39798, 0.000162702, 9.40243, -2.30132, 0, 0.000619236, 0.000105402, 8.21782E-05, 6.10982, -1.51604, 0, 0.000619228, 5.70514E-05, 4.5466E-05, 3.31433, -0.83037, 0, 0.000619221, -0.280365, 5.83602, -1.00752, -0.154108, 3.15149, -0.506272, -2.97948E-05, 9.96039E-05, -4.52077E-05, -1.6323E-05, -1.6323E-05, -1.6323E-05
9854, 1,7.78256E-05, 2.31963E-05, 1.88482E-05, 4.29336, 1.26506, 0.000154407, 8.41912, -1.50683, 0, 0.000728008, 0.000101017, 8.28658E-05, 5.5582, -1.05315, 0, 0.000728003, 5.46384E-05, 4.53935E-05, 3.02872, -0.599662, 0, 0.000727997, -0.320982, 5.17931, -1.69888, -0.165142, 2.8186, -0.854476, -2.33464E-05, 9.30068E-05, -5.25705E-05, -1.29051E-05, -1.29051E-05, -1.29051E-05
9855, 1,1.3389E-05, -4.76809E-06, 3.93542E-06, 0.55687, -0.251997, 1.74515E-05, 0.60695, 0.292122, 0, 0.000493812, 1.63518E-05, 1.97178E-05, 0.670164, 0.137797, 0, 0.000493813, 1.05146E-05, 1.22112E-05, 0.447804, 0.0661988, 0, 0.000493814, 0.50098, -0.142468, -0.771903, 0.287377, -0.0732901, -0.412684, 1.27868E-05, -8.45904E-07, -1.4177E-05, 7.14021E-06, 7.14021E-06, 7.14021E-06
9856, 1,1.05505E-05, -7.10834E-06, 5.16997E-06, 0.162155, -0.440904, 2.27206E-05, 0.327647, 1.0024, 0, 0.000638339, 1.37098E-05, 2.42712E-05, 0.206555, 0.592968, 0, 0.000638343, 8.75876E-06, 1.48865E-05, 0.182439, 0.310982, 0, 0.000638346, -0.224567, 0.114389, -1.66873, -0.104058, 0.0644404, -0.893329, 4.61659E-06, 1.17581E-05, -2.59969E-05, 2.72628E-06, 2.72628E-06, 2.72628E-06
9857, 1,5.65614E-05, -3.7686E-05, 2.68303E-05, 0.342429, -2.43574, 0.000106621, 0.650233, 5.89607, 0, 0.000756685, 7.25177E-05, 0.000117622, 0.441926, 4.01034, 0, 0.000756708, 4.06147E-05, 6.42632E-05, 0.243366, 2.25134, 0, 0.00075673, -2.02983, -10.2758, 0.274653, -1.37706, -5.52275, 0.145776, 2.02188E-05, -0.000154267, 6.89716E-05, 6.32644E-06, 6.32644E-06, 6.32644E-06
9858, 1,5.93899E-05, 1.62221E-05, 1.48855E-05, 2.85778, 0.799093, 0.000105064, 5.17362, -0.279747, 0, 0.000769425, 7.55965E-05, 7.18648E-05, 3.65613, -0.112832, 0, 0.000769423, 4.31962E-05, 4.24044E-05, 2.06007, -0.0257343, 0, 0.000769422, -0.670569, 0.738974, 0.270092, -0.460355, 0.438292, 0.0992662, -1.59498E-05, 1.38513E-05, 3.92955E-06, -1.01296E-05, -1.01296E-05, -1.01296E-05
9859, 1,0.000147644, 4.39415E-05, 3.89712E-05, 7.6829, 2.29811, 0.000291976, 15.4221, -2.18007, 0, 0.000723744, 0.000191581, 0.000171995, 9.98078, -1.24451, 0, 0.000723733, 0.000103712, 9.41473E-05, 5.38522, -0.64967, 0, 0.000723726, -0.0247858, 7.02328, -3.26496, 0.0232404, 3.81109, -1.88532, -2.0102E-05, 0.000129028, -8.87309E-05, -9.716E-06, -9.716E-06, -9.716E-06
9860, 1,0.000133416, 3.92667E-05, 2.96507E-05, 7.94114, 2.3478, 0.000257557, 15.5699, -4.5642, 0, 0.000552884, 0.000172676, 0.000133161, 10.2886, -2.85843, 0, 0.000552868, 9.4163E-05, 7.39729E-05, 5.59395, -1.53645, 0, 0.000552856, 0.379689, 9.80588, -1.61028, 0.241905, 5.34791, -0.980463, -3.69606E-05, 0.000162472, -7.91262E-05, -1.90535E-05, -1.90535E-05, -1.90535E-05
9861, 1,4.51317E-05, 1.27859E-05, 1.15159E-05, 2.23896, 0.64767, 8.16566E-05, 4.18404, -0.436437, 0, 0.000696348, 5.79039E-05, 5.47389E-05, 2.88599, -0.200703, 0, 0.000696345, 3.23704E-05, 3.18233E-05, 1.59245, -0.0841022, 0, 0.000696344, -0.295142, 2.83336, -1.9361, -0.165891, 1.55366, -1.13546, -9.37929E-06, 5.67901E-05, -4.41539E-05, -4.80666E-06, -4.80666E-06, -4.80666E-06
9862, 1,2.21792E-05, -9.04243E-06, 7.62192E-06, 0.69995, -0.520476, 4.01781E-05, 1.29278, 0.814177, 0, 0.000471536, 2.83693E-05, 3.70937E-05, 0.899378, 0.592909, 0, 0.000471538, 1.60016E-05, 2.19794E-05, 0.501123, 0.342725, 0, 0.00047154, -0.427047, 0.62164, -1.97332, -0.237364, 0.348659, -1.13947, 3.2956E-07, 2.24886E-05, -3.24395E-05, 4.03971E-07, 4.03971E-07, 4.03971E-07
9863, 1,1.79754E-05, -6.04695E-06, 5.28685E-06, 0.829899, -0.293315, 2.66544E-05, 1.16785, 0.123065, 0, 0.000531175, 2.23512E-05, 2.55181E-05, 1.02911, 0.0366833, 0, 0.000531176, 1.3702E-05, 1.53518E-05, 0.635583, 0.016461, 0, 0.000531176, 0.778908, -0.459685, -0.429273, 0.416223, -0.222973, -0.242633, 1.70676E-05, -9.15132E-06, -8.5116E-06, 9.07562E-06, 9.07562E-06, 9.07562E-06
9864, 1,2.147E-05, -1.07505E-05, 8.03646E-06, 0.747573, -0.587916, 3.13124E-05, 0.905954, 0.770907, 0, 0.000723762, 2.66315E-05, 3.83788E-05, 0.911602, 0.465901, 0, 0.000723766, 1.64256E-05, 2.27777E-05, 0.589136, 0.251393, 0, 0.000723769, 0.451242, -1.70666, -0.142289, 0.217855, -0.888247, -0.083786, 1.68945E-05, -2.87775E-05, 4.32259E-06, 8.57833E-06, 8.57833E-06, 8.57833E-06
9865, 1,2.73825E-05, -1.86102E-05, 1.30913E-05, 0.389958, -1.13306, 4.9955E-05, 0.632672, 2.32182, 0, 0.000774491, 3.48499E-05, 5.99916E-05, 0.489338, 1.55445, 0, 0.000774501, 2.00381E-05, 3.43525E-05, 0.296439, 0.873274, 0, 0.00077451, -0.342521, -4.2437, -0.0771384, -0.285135, -2.27651, -0.0581724, 1.72435E-05, -6.53151E-05, 2.28469E-05, 7.72952E-06, 7.72952E-06, 7.72952E-06
9866, 1,5.38301E-05, 1.49213E-05, 1.4078E-05, 2.65469, 0.748894, 9.70971E-05, 4.89374, -0.409605, 0, 0.000877534, 6.87363E-05, 6.69219E-05, 3.40285, -0.207899, 0, 0.000877531, 3.89371E-05, 3.89872E-05, 1.90719, -0.0904869, 0, 0.000877529, -0.215796, 1.50168, -0.662183, -0.16178, 0.84111, -0.40787, -7.82403E-06, 2.84917E-05, -1.7294E-05, -4.83094E-06, -4.83094E-06, -4.83094E-06
9867, 1,0.000122995, 3.53603E-05, 2.44409E-05, 7.93389, 2.30339, 0.000227196, 14.9782, -5.69712, 0, 0.000702574, 0.000158348, 0.000112959, 10.237, -3.69911, 0, 0.000702551, 8.76464E-05, 6.42478E-05, 5.63107, -2.00039, 0, 0.000702531, 0.368891, 9.67518, 1.05327, 0.213056, 5.29532, 0.4928, -5.04346E-05, 0.000146452, -3.59902E-05, -2.69763E-05, -2.69763E-05, -2.69763E-05
9868, 1,0.000119777, 3.43766E-05, 2.53629E-05, 8.0541, 2.33119, 0.000216546, 14.9798, -6.37551, 0, 0.000709557, 0.000154142, 0.000113974, 10.3847, -4.16465, 0, 0.000709531, 8.54206E-05, 6.36356E-05, 5.72387, -2.26634, 0, 0.000709509, -0.214177, 10.0337, 2.67441, -0.10451, 5.50175, 1.40178, -7.01099E-05, 0.000146709, -9.0175E-06, -3.7891E-05, -3.7891E-05, -3.7891E-05
9869, 1,0.000175275, 5.20838E-05, 3.45099E-05, 11.5743, 3.43815, 0.000338604, 22.6275, -8.89977, 0, 0.000782626, 0.000227348, 0.00015271, 15.012, -5.7327, 0, 0.000782586, 0.000123211, 8.39184E-05, 8.13708, -3.10865, 0, 0.000782553, 1.16667, 14.2818, 1.74967, 0.711227, 7.76743, 0.847303, -6.55861E-05, 0.00021191, -5.32973E-05, -3.38935E-05, -3.38935E-05, -3.38935E-05
9870, 1,0.000111945, 3.32706E-05, 2.97772E-05, 5.75217, 1.72629, 0.000220725, 11.5748, -1.53526, 0, 0.00087422, 0.000145204, 0.000132039, 7.47793, -0.826614, 0, 0.00087421, 7.86957E-05, 7.26225E-05, 4.02683, -0.41316, 0, 0.000874204, -0.0589847, 4.4069, -1.86807, -0.0181388, 2.39483, -1.13721, -1.42342E-05, 8.02453E-05, -5.25973E-05, -6.85666E-06, -6.85666E-06, -6.85666E-06
9871, 1,7.78118E-05, 2.30684E-05, 2.06246E-05, 3.81079, 1.15244, 0.000152717, 7.74623, -0.709653, 0, 0.000950172, 0.000100844, 9.25324E-05, 4.96159, -0.262545, 0, 0.000950166, 5.48085E-05, 5.14737E-05, 2.66131, -0.0954423, 0, 0.000950163, -0.475563, 1.74594, -0.482738, -0.258578, 0.946681, -0.401775, -1.41515E-05, 3.28214E-05, -1.44095E-05, -6.92674E-06, -6.92674E-06, -6.92674E-06
9872, 1,2.40078E-05, -1.17578E-05, 9.13511E-06, 0.36688, -0.764191, 4.12131E-05, 0.603192, 1.8064, 0, 0.000666816, 3.04818E-05, 4.54744E-05, 0.46436, 1.31153, 0, 0.000666821, 1.75775E-05, 2.73145E-05, 0.271455, 0.751333, 0, 0.000666827, -1.14056, 0.330795, -3.12482, -0.62279, 0.181952, -1.81316, -3.42774E-06, 2.76576E-05, -4.55124E-05, -1.29312E-06, -1.29312E-06, -1.29312E-06
9873, 1,4.60152E-05, 1.3086E-05, 1.22258E-05, 2.02965, 0.604287, 8.44246E-05, 3.99941, -0.0117931, 0, 0.000795447, 5.90105E-05, 5.82149E-05, 2.62978, 0.213966, 0, 0.000795444, 3.30885E-05, 3.39791E-05, 1.43268, 0.175854, 0, 0.000795445, -1.00102, 0.202611, 0.156513, -0.554259, 0.107929, -0.0812329, -1.77395E-05, 7.6638E-06, 6.6036E-06, -8.8838E-06, -8.8838E-06, -8.8838E-06
9874, 1,4.07077E-05, -2.80693E-05, 1.97832E-05, 0.317368, -1.78052, 7.68968E-05, 0.58607, 4.09503, 0, 0.000776565, 5.21868E-05, 8.81596E-05, 0.405971, 2.76756, 0, 0.000776582, 2.92406E-05, 4.9022E-05, 0.229319, 1.5479, 0, 0.000776597, -1.16982, -7.17134, 0.038487, -0.817406, -3.84225, 0.0159635, 1.88436E-05, -0.000108155, 4.4401E-05, 7.09084E-06, 7.09084E-06, 7.09084E-06
9875, 1,5.44266E-05, 1.48319E-05, 1.26045E-05, 2.72871, 0.767897, 9.48958E-05, 4.91606, -0.579305, 0, 0.000737766, 6.92295E-05, 6.19267E-05, 3.49526, -0.300938, 0, 0.000737762, 3.9644E-05, 3.7083E-05, 1.96311, -0.121133, 0, 0.00073776, -0.900698, 0.441907, 1.3616, -0.637587, 0.293118, 0.707867, -2.37864E-05, 4.60608E-06, 2.40638E-05, -1.53874E-05, -1.53874E-05, -1.53874E-05
9876, 1,3.48139E-05, -1.09505E-05, 1.03172E-05, 1.54496, -0.539596, 6.31715E-05, 2.83492, 0.202296, 0, 0.000731442, 4.44812E-05, 4.89953E-05, 1.97977, 0.164163, 0, 0.000731443, 2.51625E-05, 2.85615E-05, 1.11092, 0.104895, 0, 0.000731443, -0.111777, 0.709275, -1.08999, -0.0843859, 0.406788, -0.637086, 2.36612E-07, 1.7587E-05, -2.04875E-05, -1.16322E-07, -1.16322E-07, -1.16322E-07
9877, 1,4.32003E-05, 1.23429E-05, 1.1479E-05, 2.1128, 0.618296, 7.92779E-05, 4.0308, -0.381481, 0, 0.000596846, 5.55299E-05, 5.47792E-05, 2.73049, -0.14247, 0, 0.000596844, 3.08816E-05, 3.19171E-05, 1.49562, -0.0485406, 0, 0.000596843, -0.249732, 2.47484, -1.7977, -0.132137, 1.35554, -1.07778, -7.48998E-06, 5.01246E-05, -4.03227E-05, -3.5207E-06, -3.5207E-06, -3.5207E-06
9878, 1,0.000312995, 9.34191E-05, 5.88293E-05, 22.1117, 6.57266, 0.00060563, 43.0313, -19.357, 0, 0.00070656, 0.000406406, 0.000254216, 28.684, -12.7313, 0, 0.000706484, 0.00021959, 0.000137964, 15.5397, -6.93419, 0, 0.000706418, 4.71919, 26.8046, 6.67008, 2.69224, 14.5611, 3.54922, -0.000100661, 0.00036666, -5.94037E-05, -5.22453E-05, -5.22453E-05, -5.22453E-05
9879, 1,1.99358E-05, -8.88257E-06, 7.25654E-06, 0.733538, -0.477275, 3.73789E-05, 1.37734, 0.522861, 0, 0.000432869, 2.55445E-05, 3.42459E-05, 0.941126, 0.357363, 0, 0.00043287, 1.43526E-05, 1.99507E-05, 0.527175, 0.202949, 0, 0.000432871, 0.0451888, -0.0132321, -1.10405, 0.013993, 0.012526, -0.635366, 6.60101E-06, 5.34388E-06, -1.77439E-05, 3.50979E-06, 3.50979E-06, 3.50979E-06
9880, 1,0.000180566, 5.43414E-05, 4.03143E-05, 11.3694, 3.42705, 0.000362374, 23.0826, -8.00169, 0, 0.000700225, 0.000234897, 0.000176272, 14.796, -4.96322, 0, 0.00070019, 0.000126244, 9.57134E-05, 7.94329, -2.65571, 0, 0.000700164, 1.93958, 10.4942, 2.45589, 1.10563, 5.67401, 1.18748, -3.71209E-05, 0.000143907, -2.62468E-05, -1.8423E-05, -1.8423E-05, -1.8423E-05
9881, 1,9.05959E-05, 2.60053E-05, 1.99316E-05, 5.20095, 1.50662, 0.000168641, 9.88985, -2.57904, 0, 0.000599218, 0.000116595, 9.26374E-05, 6.70728, -1.60804, 0, 0.000599209, 6.46013E-05, 5.28489E-05, 3.69483, -0.862214, 0, 0.000599202, -0.22371, 6.52089, -1.47305, -0.11135, 3.57893, -0.880938, -3.00373E-05, 0.000112646, -5.65144E-05, -1.59118E-05, -1.59118E-05, -1.59118E-05
9882, 1,8.37777E-05, 2.44366E-05, 2.01869E-05, 4.55766, 1.3426, 0.000159131, 8.82061, -1.74628, 0, 0.000704369, 0.000108204, 9.18967E-05, 5.89981, -1.05582, 0, 0.000704361, 5.93588E-05, 5.16775E-05, 3.21588, -0.551492, 0, 0.000704355, -0.15638, 5.68063, -2.35678, -0.0761777, 3.10359, -1.37294, -1.99108E-05, 0.000103572, -6.6528E-05, -1.02692E-05, -1.02692E-05, -1.02692E-05
9883, 1,1.37174E-05, -5.45499E-06, 4.39416E-06, 0.53295, -0.291995, 1.94576E-05, 0.662265, 0.345139, 0, 0.000483427, 1.68814E-05, 2.15807E-05, 0.648207, 0.201018, 0, 0.000483429, 1.0664E-05, 1.32389E-05, 0.422987, 0.109176, 0, 0.000483429, 0.495264, -0.0927076, -1.00561, 0.272839, -0.0357319, -0.564636, 1.36588E-05, 1.20252E-06, -1.81233E-05, 7.50655E-06, 7.50655E-06, 7.50655E-06
9884, 1,1.44439E-05, -8.7926E-06, 6.44814E-06, 0.199843, -0.551591, 2.71235E-05, 0.373222, 1.22073, 0, 0.000617367, 1.85418E-05, 3.09599E-05, 0.257482, 0.831344, 0, 0.000617371, 1.03522E-05, 1.82841E-05, 0.142495, 0.465835, 0, 0.000617374, -0.309612, 0.150482, -2.3349, -0.165013, 0.0894411, -1.32193, 6.56775E-06, 1.62759E-05, -3.63341E-05, 3.87167E-06, 3.87167E-06, 3.87167E-06
9885, 1,5.05007E-05, -3.72958E-05, 2.62247E-05, 0.52501, -2.33761, 0.000104861, 0.889034, 5.46347, 0, 0.000731171, 6.56407E-05, 0.000111444, 0.665566, 3.2734, 0, 0.000731197, 3.53733E-05, 5.90904E-05, 0.385047, 1.7285, 0, 0.000731215, -0.768361, -9.39197, 0.340134, -0.479806, -4.89371, 0.188004, 3.53058E-05, -0.000147173, 5.87489E-05, 1.70795E-05, 1.70795E-05, 1.70795E-05
9886, 1,7.73874E-05, 2.10268E-05, 1.95909E-05, 3.89017, 1.05245, 0.000132874, 6.49263, -0.286062, 0, 0.000743563, 9.83831E-05, 9.13718E-05, 4.94113, -0.391793, 0, 0.000743564, 5.64159E-05, 5.23372E-05, 2.84036, -0.234068, 0, 0.000743562, -0.224179, 1.59144, -0.191888, -0.153104, 1.02202, -0.166711, -1.08952E-05, 2.74929E-05, -1.02399E-05, -6.90617E-06, -6.90617E-06, -6.90617E-06
9887, 1,0.000170564, 5.07846E-05, 4.67294E-05, 8.5276, 2.59566, 0.000342902, 17.8023, -2.14462, 0, 0.00069925, 0.000221315, 0.000208101, 11.1216, -0.889487, 0, 0.000699236, 0.000119843, 0.000114762, 5.93489, -0.364126, 0, 0.00069923, 0.159644, 7.80842, -5.29961, 0.10645, 4.2139, -3.22797, -1.06468E-05, 0.000151237, -0.000126156, -3.4984E-06, -3.4984E-06, -3.4984E-06
9888, 1,0.00015536, 4.50884E-05, 3.58437E-05, 8.71779, 2.57826, 0.000294103, 16.9923, -4.15481, 0, 0.000534181, 0.000200428, 0.000163236, 11.2951, -2.44863, 0, 0.000534167, 0.000110307, 9.16335E-05, 6.14122, -1.2467, 0, 0.000534156, 0.22209, 10.8339, -3.71006, 0.130045, 5.91458, -2.30454, -3.38637E-05, 0.000190678, -0.000117079, -1.68803E-05, -1.68803E-05, -1.68803E-05
9889, 1,5.32181E-05, 1.48025E-05, 1.37048E-05, 2.57497, 0.743774, 9.44632E-05, 4.84402, -0.509956, 0, 0.000673044, 6.80137E-05, 6.5339E-05, 3.31842, -0.139752, 0, 0.00067304, 3.84274E-05, 3.7982E-05, 1.83175, -0.0210074, 0, 0.000673039, -0.0746389, 3.30434, -2.81045, -0.0457034, 1.82317, -1.71444, -3.76964E-06, 6.77153E-05, -6.16778E-05, -1.28637E-06, -1.28637E-06, -1.28637E-06
9890, 1,2.64675E-05, -1.06858E-05, 8.97335E-06, 0.835799, -0.607688, 4.59481E-05, 1.54702, 0.839015, 0, 0.000455659, 3.37211E-05, 4.29618E-05, 1.07595, 0.695535, 0, 0.00045566, 1.92194E-05, 2.50788E-05, 0.595906, 0.419708, 0, 0.000455662, -0.230168, 0.688061, -2.5445, -0.128642, 0.390713, -1.52119, 6.09707E-06, 2.55096E-05, -4.28933E-05, 3.90185E-06, 3.90185E-06, 3.90185E-06
9891, 1,1.30354E-05, -6.66239E-06, 5.09872E-06, 0.440355, -0.368309, 2.19309E-05, 0.66682, 0.496497, 0, 0.000507629, 1.65319E-05, 2.3175E-05, 0.552138, 0.307779, 0, 0.000507631, 9.56889E-06, 1.30856E-05, 0.330023, 0.164209, 0, 0.000507632, 0.349484, -0.595606, -0.677216, 0.190796, -0.293276, -0.390146, 1.2247E-05, -7.75808E-06, -9.48339E-06, 6.62844E-06, 6.62844E-06, 6.62844E-06
9892, 1,2.17604E-05, -1.18606E-05, 8.90599E-06, 0.678503, -0.671183, 3.79083E-05, 1.00874, 1.05162, 0, 0.000699961, 2.76492E-05, 3.99715E-05, 0.846143, 0.618567, 0, 0.000699966, 1.59222E-05, 2.23346E-05, 0.513285, 0.321299, 0, 0.000699969, 0.20618, -1.70022, -0.361663, 0.102418, -0.848472, -0.217842, 1.41116E-05, -2.62378E-05, 2.08859E-06, 7.23447E-06, 7.23447E-06, 7.23447E-06
9893, 1,3.02576E-05, -1.94602E-05, 1.40308E-05, 0.637688, -1.16907, 5.66249E-05, 0.921644, 2.357, 0, 0.000748509, 3.87834E-05, 6.14282E-05, 0.791236, 1.39924, 0, 0.000748521, 2.17983E-05, 3.36023E-05, 0.487303, 0.729246, 0, 0.000748529, -0.150586, -3.86106, -0.186087, -0.107784, -1.96383, -0.11612, 1.88589E-05, -5.96646E-05, 1.80997E-05, 9.21248E-06, 9.21248E-06, 9.21248E-06
9894, 1,7.02324E-05, 1.9302E-05, 1.83637E-05, 3.50371, 0.968512, 0.000122532, 6.08728, -0.398086, 0, 0.000848189, 8.95185E-05, 8.55778E-05, 4.47145, -0.323582, 0, 0.000848188, 5.0959E-05, 4.89427E-05, 2.53658, -0.172376, 0, 0.000848186, 0.0116697, 2.18328, -1.2242, -0.016039, 1.28793, -0.754764, -4.83192E-06, 4.10895E-05, -3.10067E-05, -3.03567E-06, -3.03567E-06, -3.03567E-06
9895, 1,0.000148173, 4.15431E-05, 2.96136E-05, 9.05991, 2.57511, 0.000262501, 16.3053, -5.23843, 0, 0.000678933, 0.000189715, 0.000138429, 11.6349, -3.58551, 0, 0.000678915, 0.000106633, 7.92058E-05, 6.48495, -1.94183, 0, 0.000678897, 0.357637, 10.6934, -0.294544, 0.191565, 5.94611, -0.312186, -4.88796E-05, 0.000169784, -6.27207E-05, -2.65042E-05, -2.65042E-05, -2.65042E-05
9896, 1,0.000142557, 3.96298E-05, 2.81338E-05, 9.12162, 2.56649, 0.000244372, 15.8683, -5.80244, 0, 0.000688852, 0.000182184, 0.000129543, 11.688, -4.13491, 0, 0.000688833, 0.000102932, 7.34979E-05, 6.55538, -2.27143, 0, 0.000688813, -0.230762, 10.8697, 1.76582, -0.12826, 6.07267, 0.869889, -6.99843E-05, 0.000164863, -2.77798E-05, -3.84648E-05, -3.84648E-05, -3.84648E-05
9897, 1,0.000192396, 5.61931E-05, 3.81121E-05, 11.8128, 3.49209, 0.00036421, 22.7729, -7.46939, 0, 0.000752925, 0.000248556, 0.000172314, 15.3033, -4.77762, 0, 0.000752892, 0.000136262, 9.61818E-05, 8.32347, -2.53046, 0, 0.000752864, 0.0974699, 14.7864, -0.551036, 0.0719622, 8.07726, -0.55784, -7.3186E-05, 0.000237629, -8.69148E-05, -3.83331E-05, -3.83331E-05, -3.83331E-05
9898, 1,0.000130053, 3.88376E-05, 3.59543E-05, 6.46527, 1.98546, 0.000265271, 13.8379, -1.74752, 0, 0.000844947, 0.000168842, 0.000160484, 8.44845, -0.629808, 0, 0.000844932, 9.13036E-05, 8.87357E-05, 4.48394, -0.226896, 0, 0.000844927, 0.180702, 5.14458, -3.43586, 0.106137, 2.78185, -2.2073, -6.09691E-06, 9.89576E-05, -8.26405E-05, -1.32873E-06, -1.32873E-06, -1.32873E-06
9899, 1,8.52887E-05, 2.58131E-05, 2.45945E-05, 3.91937, 1.24347, 0.00017961, 8.92976, -0.592497, 0, 0.000918299, 0.000111021, 0.00010994, 5.15907, 0.118088, 0, 0.000918289, 5.96204E-05, 6.09981E-05, 2.68268, 0.181244, 0, 0.000918288, -0.299406, 1.86779, -1.92264, -0.16211, 1.0075, -1.38912, -4.46404E-06, 4.1398E-05, -3.88501E-05, -5.63813E-07, -5.63813E-07, -5.63813E-07
9900, 1,2.71232E-05, -1.36631E-05, 1.04321E-05, 0.429243, -0.859304, 4.51315E-05, 0.853222, 1.71927, 0, 0.000644496, 3.43186E-05, 5.17431E-05, 0.555752, 1.43234, 0, 0.000644499, 1.99314E-05, 3.09122E-05, 0.302909, 0.858532, 0, 0.000644505, -0.64124, 0.481614, -4.13739, -0.351796, 0.265111, -2.48891, 9.01529E-06, 3.27519E-05, -6.50102E-05, 6.10369E-06, 6.10369E-06, 6.10369E-06
9901, 1,3.92208E-05, -1.20697E-05, 1.2019E-05, 1.51023, -0.612455, 8.57599E-05, 4.06111, -0.0101994, 0, 0.000768838, 5.10187E-05, 5.58785E-05, 2.0259, 0.517609, 0, 0.000768831, 2.7549E-05, 3.23079E-05, 1.00045, 0.404704, 0, 0.000768832, -0.550225, 0.272444, -1.27505, -0.30394, 0.14483, -1.055, -3.4488E-06, 1.39255E-05, -1.88761E-05, -1.39164E-08, -1.39164E-08, -1.39164E-08
9902, 1,3.95397E-05, -2.82844E-05, 1.99758E-05, 0.548966, -1.74713, 7.92473E-05, 0.845524, 3.89562, 0, 0.000750427, 5.11611E-05, 8.58346E-05, 0.687817, 2.3241, 0, 0.000750446, 2.79615E-05, 4.60761E-05, 0.412173, 1.22146, 0, 0.000750459, -0.468481, -6.49562, -0.00819134, -0.299505, -3.35165, -0.0132286, 2.67002E-05, -0.000100843, 3.64288E-05, 1.29094E-05, 1.29094E-05, 1.29094E-05
9903, 1,6.94205E-05, 1.86637E-05, 1.61722E-05, 3.73058, 0.995187, 0.000117363, 6.01052, -0.623169, 0, 0.000712928, 8.80315E-05, 7.57751E-05, 4.72327, -0.756321, 0, 0.00071293, 5.08497E-05, 4.36753E-05, 2.73981, -0.452405, 0, 0.000712926, -0.226819, 1.39879, 1.09699, -0.163587, 0.954941, 0.565862, -1.66934E-05, 1.76791E-05, 1.12873E-05, -1.05681E-05, -1.05681E-05, -1.05681E-05
9904, 1,4.45246E-05, -1.40451E-05, 1.31801E-05, 1.90456, -0.714033, 7.86089E-05, 3.37922, 0.451247, 0, 0.000707022, 5.68247E-05, 6.1376E-05, 2.43562, 0.335683, 0, 0.000707023, 3.22366E-05, 3.50988E-05, 1.37408, 0.200691, 0, 0.000707024, -0.16815, 0.888553, -1.72745, -0.10656, 0.53872, -1.03423, 1.74369E-06, 2.40802E-05, -3.12711E-05, 9.21672E-07, 9.21672E-07, 9.21672E-07
9905, 1,4.94634E-05, 1.39441E-05, 1.33362E-05, 2.38982, 0.70931, 9.08939E-05, 4.77332, -0.641548, 0, 0.000576765, 6.33876E-05, 6.37656E-05, 3.09819, -0.137612, 0, 0.00057676, 3.55533E-05, 3.71688E-05, 1.6821, -0.00247031, 0, 0.000576759, 0.169962, 2.91112, -2.66824, 0.0963536, 1.59317, -1.68211, 1.44491E-06, 5.94329E-05, -5.86447E-05, 2.01692E-06, 2.01692E-06, 2.01692E-06
9906, 1,0.000322321, 9.49002E-05, 6.22526E-05, 21.9507, 6.47728, 0.000610895, 41.8464, -17.4309, 0, 0.000690102, 0.000417194, 0.000272906, 28.4267, -11.7009, 0, 0.000690037, 0.000227471, 0.000148478, 15.4758, -6.34811, 0, 0.000689977, 2.78966, 27.0514, 5.26166, 1.54086, 14.785, 2.71845, -0.000125267, 0.000388107, -7.29665E-05, -6.73842E-05, -6.73842E-05, -6.73842E-05
9907, 1,2.518E-05, -1.08966E-05, 9.01341E-06, 0.869201, -0.601162, 4.64167E-05, 1.63894, 0.74528, 0, 0.000418339, 3.22951E-05, 4.13482E-05, 1.11929, 0.546716, 0, 0.000418341, 1.80771E-05, 2.34061E-05, 0.619696, 0.315179, 0, 0.000418342, -0.0251697, -0.0728386, -1.54214, -0.0204613, -0.0108541, -0.914221, 8.08805E-06, 7.06389E-06, -2.40237E-05, 4.54161E-06, 4.54161E-06, 4.54161E-06
9908, 1,0.000191777, 5.81386E-05, 4.56941E-05, 11.2023, 3.46367, 0.000396433, 23.8774, -6.90736, 0, 0.000670405, 0.000249836, 0.000200815, 14.6622, -3.83514, 0, 0.000670372, 0.000133783, 0.000109685, 7.74547, -1.9114, 0, 0.000670351, 1.29043, 10.6187, -0.403707, 0.700753, 5.70329, -0.669851, -3.31625E-05, 0.000164311, -6.89143E-05, -1.53445E-05, -1.53445E-05, -1.53445E-05
9909, 1,0.000110932, 3.11518E-05, 2.51473E-05, 6.0186, 1.72083, 0.000197995, 10.9903, -2.19372, 0, 0.000579235, 0.000142081, 0.000117536, 7.73929, -1.37629, 0, 0.000579227, 7.97854E-05, 6.72749E-05, 4.29802, -0.708418, 0, 0.000579221, -0.303566, 7.3981, -2.96565, -0.170935, 4.10051, -1.80432, -2.80814E-05, 0.000134855, -8.44401E-05, -1.47548E-05, -1.47548E-05, -1.47548E-05
9910, 1,9.96677E-05, 2.86174E-05, 2.44196E-05, 5.25718, 1.54371, 0.000186335, 10.1722, -1.83487, 0, 0.000680782, 0.000128267, 0.00011252, 6.80006, -0.991472, 0, 0.000680772, 7.10815E-05, 6.3761E-05, 3.71494, -0.477673, 0, 0.000680767, 0.00536859, 6.61229, -3.64324, 0.0126664, 3.62753, -2.20718, -1.54928E-05, 0.000124299, -9.27172E-05, -7.24522E-06, -7.24522E-06, -7.24522E-06
9911, 1,9.92755E-06, -6.24938E-06, 4.54112E-06, 0.21632, -0.365155, 1.80512E-05, 0.396214, 0.613638, 0, 0.000472815, 1.27178E-05, 2.06073E-05, 0.278345, 0.433526, 0, 0.000472816, 7.17151E-06, 1.16438E-05, 0.15595, 0.245988, 0, 0.000472817, 0.213644, -0.226402, -1.28782, 0.114059, -0.114127, -0.737897, 1.13511E-05, 2.0352E-06, -2.04212E-05, 6.29043E-06, 6.29043E-06, 6.29043E-06
9912, 1,1.73935E-05, -1.0383E-05, 7.56288E-06, 0.26805, -0.63847, 3.03136E-05, 0.493105, 1.26223, 0, 0.000596441, 2.21293E-05, 3.57863E-05, 0.344126, 0.94273, 0, 0.000596445, 1.26621E-05, 2.07406E-05, 0.192181, 0.54575, 0, 0.000596448, -0.148591, 0.157464, -2.83706, -0.0818522, 0.0942228, -1.64962, 1.17121E-05, 1.81774E-05, -4.51874E-05, 6.87239E-06, 6.87239E-06, 6.87239E-06
9913, 1,0.000280531, 8.64881E-05, 6.25519E-05, 17.8621, 5.30557, 0.000583694, 37.6852, -13.5677, 0, 0.00107148, 0.000366974, 0.000254012, 23.1655, -7.8214, 0, 0.00107138, 0.00019413, 0.000130225, 12.5606, -4.54862, 0, 0.00107133, -0.784229, 23.0625, 1.1859, 0.413475, 12.497, 0.735436, -0.000139784, 0.000364797, -9.80929E-05, -6.28952E-05, -6.28952E-05, -6.28952E-05
9914, 1,0.000338086, 0.0001029, 6.96278E-05, 22.129, 6.63553, 0.000662358, 43.7136, -16.672, 0, 0.00103778, 0.00044098, 0.000290941, 28.7642, -10.6441, 0, 0.00103768, 0.000235198, 0.000154868, 15.494, -5.88192, 0, 0.0010376, 1.45755, 28.5698, 1.905, 1.28405, 15.395, 0.966702, -0.000136805, 0.000436868, -0.000127338, -6.54722E-05, -6.54722E-05, -6.54722E-05
9915, 1,0.000364675, 0.000108049, 7.05164E-05, 24.082, 7.08977, 0.000696371, 46.1902, -17.8396, 0, 0.00100411, 0.000472723, 0.000308577, 31.1717, -11.8631, 0, 0.00100401, 0.000256628, 0.000168417, 16.9923, -6.53427, 0, 0.00100392, 2.4098, 30.9687, 2.21068, 1.51854, 16.8861, 1.19816, -0.000135853, 0.00046843, -0.000140071, -7.07828E-05, -7.07828E-05, -7.07828E-05
9916, 1,0.000377943, 0.000110043, 7.33402E-05, 24.5291, 7.13481, 0.0006975, 45.333, -16.6163, 0, 0.000970456, 0.000487984, 0.000324784, 31.6639, -11.5553, 0, 0.000970376, 0.000267903, 0.000178157, 17.3945, -6.35866, 0, 0.000970294, 1.07121, 31.5019, 2.09281, 0.634347, 17.3112, 1.13047, -0.000159321, 0.000484558, -0.000137725, -8.67175E-05, -8.67175E-05, -8.67175E-05
9917, 1,9.50111E-05, 3.03488E-05, 2.6872E-05, 6.11329, 1.79067, 0.000214474, 14.7854, -6.24581, 0, 0.00107159, 0.000125291, 0.000105091, 7.90067, -2.65918, 0, 0.00107153, 6.4799E-05, 5.16863E-05, 4.32912, -1.7017, 0, 0.00107151, -1.95207, 7.82342, 2.1062, -0.5404, 4.3054, 1.3401, -8.31824E-05, 0.000123654, 2.67992E-06, -3.8235E-05, -3.8235E-05, -3.8235E-05
9918, 1,0.000137, 4.14433E-05, 3.21259E-05, 9.22625, 2.78978, 0.000261588, 18.3173, -7.9994, 0, 0.00103789, 0.00017844, 0.000134886, 12.0159, -4.81302, 0, 0.00103784, 9.55625E-05, 7.08568E-05, 6.43674, -2.57989, 0, 0.0010378, -0.651729, 11.9868, 3.10403, -0.241885, 6.4208, 1.56074, -8.95982E-05, 0.000177824, -1.01237E-05, -4.57567E-05, -4.57567E-05, -4.57567E-05
9919, 1,0.000150884, 4.41765E-05, 3.18246E-05, 10.3756, 3.04343, 0.00027732, 19.4905, -8.57666, 0, 0.00100423, 0.000195055, 0.000140367, 13.4187, -5.64279, 0, 0.00100418, 0.000106718, 7.70208E-05, 7.33263, -3.07521, 0, 0.00100414, 0.175393, 13.4133, 3.33967, 0.102486, 7.32832, 1.79483, -8.51544E-05, 0.00019494, -1.82182E-05, -4.62583E-05, -4.62583E-05, -4.62583E-05
9920, 1,0.000157491, 4.46972E-05, 3.18887E-05, 10.809, 3.08317, 0.000269929, 18.7836, -8.0962, 0, 0.000970561, 0.000202183, 0.000144168, 13.8919, -5.82588, 0, 0.000970525, 0.000112803, 8.04529E-05, 7.72624, -3.21764, 0, 0.000970484, 0.343222, 13.8531, 3.28136, 0.18652, 7.69901, 1.76739, -8.4481E-05, 0.000201361, -2.23413E-05, -4.67166E-05, -4.67166E-05, -4.67166E-05
9921, 1,4.86683E-05, 1.32622E-05, 1.31029E-05, 1.06394, -0.866093, 6.98841E-05, 2.99979, 0.407098, 0, 0.00107169, 6.11436E-05, 5.97346E-05, 1.39965, 2.00341, 0, 0.00107166, 3.67548E-05, 3.67121E-05, 0.754482, 1.31995, 0, 0.00107167, -3.15014, -3.87499, 1.01491, -2.22663, -2.38383, 0.650617, -3.5099E-05, -5.0439E-05, 5.30281E-05, -2.63261E-05, -2.63261E-05, -2.63261E-05
9922, 1,3.95853E-05, 1.20623E-05, 1.00557E-05, 1.51003, 0.534472, 6.49981E-05, 3.16908, -0.13044, 0, 0.00103801, 5.10674E-05, 4.76258E-05, 2.01748, 0.53258, 0, 0.00103799, 2.84963E-05, 2.92885E-05, 1.0209, 0.436867, 0, 0.001038, -2.26685, -0.957192, 1.6263, -1.585, -0.545253, 0.819646, -3.95805E-05, -1.18659E-05, 4.28041E-05, -2.66636E-05, -2.66636E-05, -2.66636E-05
9923, 1,3.45484E-05, 9.52852E-06, 7.66047E-06, 1.72652, 0.502824, 6.05807E-05, 3.17936, -0.424849, 0, 0.00100434, 4.39553E-05, 3.91278E-05, 2.22372, -0.196952, 0, 0.00100433, 2.52183E-05, 2.41261E-05, 1.23289, -0.0559317, 0, 0.00100433, -1.26525, 0.105038, 1.75107, -0.87564, 0.11607, 0.927366, -2.98668E-05, -8.80176E-07, 3.3943E-05, -1.94027E-05, -1.94027E-05, -1.94027E-05
9924, 1,3.82376E-05, 1.0342E-05, 7.91185E-06, 2.27582, 0.600317, 6.75629E-05, 3.56672, -0.501971, 0, 0.00097066, 4.8457E-05, 3.82054E-05, 2.87036, -0.779643, 0, 0.000970664, 2.81179E-05, 2.27778E-05, 1.68598, -0.479966, 0, 0.00097066, -0.415207, 1.00999, 1.74414, -0.27267, 0.763912, 0.948657, -2.10512E-05, 9.09025E-06, 2.46125E-05, -1.33151E-05, -1.33151E-05, -1.33151E-05
9925, 1,8.65506E-05, -5.01547E-05, 3.49841E-05, 0.110518, -3.15385, 0.000119028, 0.609667, 6.73822, 0, 0.00107178, 0.000104475, 0.00016107, 0.1747, 6.39988, 0, 0.00107179, 6.8836E-05, 9.33361E-05, 0.05621, 4.29473, 0, 0.00107182, -4.32778, -15.0076, 0.135704, -4.21239, -8.71843, 0.0466328, 9.23097E-06, -0.00021675, 0.000103666, -2.14865E-05, -2.14865E-05, -2.14865E-05
9926, 1,7.46558E-05, -4.55513E-05, 3.24968E-05, 0.279686, -2.96872, 0.000124167, 0.544862, 7.15167, 0, 0.00103811, 9.36656E-05, 0.00014158, 0.362498, 5.46036, 0, 0.00103814, 5.5784E-05, 7.74336E-05, 0.203309, 3.26807, 0, 0.00103818, -3.74938, -12.9574, 0.325698, -2.96654, -7.02851, 0.190834, 6.66148E-06, -0.000188167, 9.28986E-05, -1.1305E-05, -1.1305E-05, -1.1305E-05
9927, 1,6.59187E-05, -4.36769E-05, 3.11024E-05, 0.273333, -2.86366, 0.000123471, 0.48542, 7.18729, 0, 0.00100444, 8.44122E-05, 0.000134935, 0.347977, 4.8919, 0, 0.00100447, 4.74431E-05, 7.2822E-05, 0.199499, 2.74387, 0, 0.00100451, -2.65373, -12.3461, 0.324135, -1.77723, -6.63575, 0.181366, 2.08995E-05, -0.000184186, 8.39039E-05, 5.61327E-06, 5.61327E-06, 5.61327E-06
9928, 1,5.64819E-05, -4.28943E-05, 2.9969E-05, 0.408721, -2.72164, 0.000118891, 0.694687, 6.61535, 0, 0.000970751, 7.35231E-05, 0.000126609, 0.5197, 3.96988, 0, 0.000970792, 3.94426E-05, 6.6687E-05, 0.297826, 2.10407, 0, 0.000970822, -0.990427, -11.3793, 0.460124, -0.611605, -5.96117, 0.260576, 4.15747E-05, -0.000178252, 7.22565E-05, 2.02036E-05, 2.02036E-05, 2.02036E-05
